@RELATION TrainingSet

@ATTRIBUTE 'Mean_1(Normalized(NaN_eliminated(Zero-crossing rate)))' NUMERIC
@ATTRIBUTE 'Mean_1(Normalized(NaN_eliminated(Root mean square)))' NUMERIC
@ATTRIBUTE 'Mean_1(Normalized(NaN_eliminated(Low energy)))' NUMERIC
@ATTRIBUTE 'Mean_1(Normalized(NaN_eliminated(Normalized energy of harmonic components)))' NUMERIC
@ATTRIBUTE 'Mean_1(Normalized(NaN_eliminated(Spectral centroid)))' NUMERIC
@ATTRIBUTE 'Mean_1(Normalized(NaN_eliminated(Mel frequency cepstral coefficients)))' NUMERIC
@ATTRIBUTE 'Mean_2(Normalized(NaN_eliminated(Mel frequency cepstral coefficients)))' NUMERIC
@ATTRIBUTE 'Mean_3(Normalized(NaN_eliminated(Mel frequency cepstral coefficients)))' NUMERIC
@ATTRIBUTE 'Mean_4(Normalized(NaN_eliminated(Mel frequency cepstral coefficients)))' NUMERIC
@ATTRIBUTE 'Mean_5(Normalized(NaN_eliminated(Mel frequency cepstral coefficients)))' NUMERIC
@ATTRIBUTE 'Mean_6(Normalized(NaN_eliminated(Mel frequency cepstral coefficients)))' NUMERIC
@ATTRIBUTE 'Mean_7(Normalized(NaN_eliminated(Mel frequency cepstral coefficients)))' NUMERIC
@ATTRIBUTE 'Mean_8(Normalized(NaN_eliminated(Mel frequency cepstral coefficients)))' NUMERIC
@ATTRIBUTE 'Mean_9(Normalized(NaN_eliminated(Mel frequency cepstral coefficients)))' NUMERIC
@ATTRIBUTE 'Mean_10(Normalized(NaN_eliminated(Mel frequency cepstral coefficients)))' NUMERIC
@ATTRIBUTE 'Mean_11(Normalized(NaN_eliminated(Mel frequency cepstral coefficients)))' NUMERIC
@ATTRIBUTE 'Mean_12(Normalized(NaN_eliminated(Mel frequency cepstral coefficients)))' NUMERIC
@ATTRIBUTE 'Mean_13(Normalized(NaN_eliminated(Mel frequency cepstral coefficients)))' NUMERIC
@ATTRIBUTE 'Mean_1(Normalized(NaN_eliminated(Angles in phase domain)))' NUMERIC
@ATTRIBUTE 'Mean_1(Normalized(NaN_eliminated(Distances in phase domain)))' NUMERIC
@ATTRIBUTE 'Mean_1(Normalized(NaN_eliminated(Tone with maximum strength in the chromagram)))' NUMERIC
@ATTRIBUTE 'Mean_1(Normalized(NaN_eliminated(Harmonic change - NNLS)))' NUMERIC
@ATTRIBUTE 'Mean_1(Normalized(NaN_eliminated(Consonance - NNLS)))' NUMERIC
@ATTRIBUTE 'Mean_1(Normalized(NaN_eliminated(Number of different chords in 10s)))' NUMERIC
@ATTRIBUTE 'Mean_1(Normalized(NaN_eliminated(Number of chord changes in 10s)))' NUMERIC
@ATTRIBUTE 'Mean_1(Normalized(NaN_eliminated(Estimated onset number per minute)))' NUMERIC
@ATTRIBUTE Id NUMERIC
@ATTRIBUTE Category STRING

@DATA
0.13786356222029628,0.2911978766089545,0.5109766496130145,0.07695599121993474,0.262647835919889,0.9471462020643847,0.5338645228845859,0.5629070209876451,0.5588990572940256,0.4801309679752019,0.45460767286642567,0.4823698978229827,0.5008525222309494,0.4947490934574425,0.4549906879754493,0.495236165380636,0.4736499358483841,0.4917085802173682,0.5238380917244473,0.13001761504870016,0.4775309917355298,0.016375362478298103,0.5526666909378007,0.19113455988455116,0.25046487603304984,0.5767676811080519,3371,'AG_Pop'
0.10019110291546564,0.30363067300444674,0.5932229035528229,0.08475811463918093,0.1942001248962381,0.939591496307391,0.5585370366593048,0.49401277281995526,0.5367726827314062,0.4535055975802738,0.42722419581236104,0.44887034227057343,0.5044988698497672,0.4905402114505626,0.45828671704781904,0.4856820578164363,0.44964215463437596,0.47447353053153857,0.6429365374799749,0.08995643567240345,0.48178905690376195,0.023292483143391052,0.5640405227745631,0.2836128188106655,0.37382221207658584,0.5196361436433257,3372,'NOT_AG_Pop'
0.06608582414597079,0.12126309499140758,0.5662993430768313,0.08391662630187241,0.1416635302329745,0.9288054973008237,0.5993976360984947,0.4820363563012982,0.5040209939508888,0.45449419627226834,0.4341132989852026,0.4976875090799798,0.507873810998262,0.520503295133975,0.48362674754009605,0.47978209812879596,0.46304728167442777,0.49194606897534543,0.7040319674845086,0.028087442878312666,0.5137664736002836,0.013861811984361434,0.5547352992959885,0.15898054102114842,0.22098407901733289,0.44982046096153255,3374,'NOT_AG_Pop'
0.10221286876590681,0.41204259883699845,0.5730925962177849,0.0828314943768363,0.19760571940991448,0.9590802648501283,0.5327492934529241,0.4632688956193237,0.5487239441994205,0.4675875013273662,0.4641744306748657,0.5065478457105825,0.523318212403066,0.50569350473878,0.46920109870333754,0.4877251768522573,0.4542039909903138,0.4897907526791739,0.6361958789516509,0.1370934963142369,0.5531147066583932,0.023800455769722142,0.5546413854833426,0.2580490798822388,0.3306210688478433,0.6988463471534125,3376,'AG_Pop'
0.10530328583064488,0.3942364924209371,0.5364155911629647,0.0966360245275343,0.22072012759232357,0.9541464207807487,0.5031385165483168,0.44184942609391475,0.5314372505321656,0.48611520161310445,0.4704543728896563,0.47973308187268665,0.5193337812373986,0.5160563856043632,0.47641259174656303,0.4972105160194116,0.4667655969633884,0.48303295163339455,0.6007259949827563,0.13218215874429487,0.5458796301763293,0.012887924205803463,0.5207193907543327,0.16707797549463954,0.2473166526939726,0.6781732166316621,3379,'NOT_AG_Pop'
0.16302075881564096,0.3799127876292582,0.5802388364199179,0.08867384858438261,0.2770915633534257,0.9494592975995981,0.49100383794119407,0.472387241527246,0.5154883347454744,0.4426215481868134,0.4494214185503981,0.4785681063126586,0.5190157412882361,0.5106650531837134,0.4578918218167619,0.4751195074350412,0.48484135602185774,0.4861374521298316,0.51910000352158,0.18166965543186578,0.5669920329235325,0.010313703872752955,0.4906847734830117,0.0944347713935603,0.1681739038674452,0.7181311719737584,3381,'NOT_AG_Pop'
0.07450167111604405,0.30763203686089174,0.4897383943446352,0.09876423435094588,0.139986573993642,0.9431378958968986,0.6091086452852665,0.4193953540497356,0.5536286104410949,0.4587879334608562,0.437585280326466,0.4776653332774775,0.4777396316091549,0.5488588003551739,0.4615911833254994,0.4992292575932016,0.4608593334964747,0.4826223330492882,0.7190686652474702,0.08212096692738816,0.49393489126028356,0.019653282627170407,0.5376671432624739,0.25780089153042995,0.3578279076050307,0.676215953577904,3382,'AG_Pop'
0.07427571217198078,0.32793574529912084,0.5677869756944056,0.09974053721662272,0.13425209326539922,0.9454013033985558,0.6581204203645817,0.4237327306398467,0.5465911551289048,0.42642130285883617,0.4358065726516967,0.4388466908081138,0.5001878032487901,0.513247237051554,0.4658188452644861,0.4560463474304328,0.4546877914183037,0.473646783454676,0.7528158888794728,0.08324582646550069,0.46989943518393357,0.02402510358737008,0.6576553800155769,0.22881939661107256,0.3744317399090921,0.5673524097123989,3383,'AG_Pop'
0.05642336636957258,0.4193726693778424,0.5246410990697731,0.0830267657745694,0.13125680277911878,0.9526839459817612,0.5754113189938606,0.47996040613384544,0.6103926453871387,0.47969536200198915,0.4563673654420972,0.46957596520784795,0.5102665812027581,0.5475898693432119,0.4863248736797128,0.4814218809429063,0.47655981675364883,0.5016743813546909,0.6928677767131655,0.08015044731432328,0.6037958335673094,0.014954066295207657,0.49130091219362754,0.11957214427873468,0.21747431074176066,0.8012696512152105,3384,'AG_Pop'
0.14811616789333995,0.5965998361343496,0.555216997853706,0.08697751371946477,0.2546885647931602,0.9761040529990619,0.4638541513750744,0.5116595430814306,0.5956406644088941,0.4520813316770754,0.46982850062920817,0.4919535040557634,0.5254878896900201,0.5233958138370799,0.471664597214762,0.47136911657369124,0.46331677914555786,0.47422757736843163,0.5812447130905669,0.2830949512214975,0.49797182776724386,0.03166880653032866,0.5204465693292655,0.33667729596785645,0.4408973471888167,0.8760398548337284,3387,'AG_Pop'
0.0665750749311418,0.20565102874471747,0.5269321332620203,0.08924377995977628,0.12974063721304185,0.9382352936663201,0.6140054425128233,0.4958461246058743,0.5828801715255209,0.4916740169597709,0.48116363329206513,0.49006105338770206,0.5007010212541104,0.4951483843248811,0.44911627959602063,0.47387381430741854,0.4588065920216126,0.4802662760746734,0.7380010999352281,0.049110821837310394,0.396989985060586,0.015750999973151398,0.5642045539552832,0.1988638669101032,0.2631439163392855,0.6979914842540437,3388,'AG_Pop'
0.12055388572292358,0.33137095685747703,0.49702876488590075,0.07927651919774369,0.19480070604243357,0.9554171190357839,0.5233213855075431,0.46510210710790545,0.5474485973417064,0.4364172415786889,0.4886977726144942,0.4488847058099224,0.5361000740943709,0.5113353208503584,0.45491643357038214,0.48335748541220314,0.4619120321151747,0.49740716492763265,0.682353753137513,0.13805966246210372,0.4924182959897249,0.028876732876607324,0.621002233725658,0.35211712890287056,0.4621895961181573,0.7424908480779878,3392,'AG_Pop'
0.1671922179845728,0.5359869990664031,0.5259672395508395,0.07905657845521044,0.28519849469889935,0.9685412541692815,0.44819888070772995,0.46600391546901243,0.5732674849026979,0.46361826345978735,0.49450291627828213,0.5031837774666856,0.5314960526279512,0.5314016167105452,0.46608237920487694,0.4959688983786447,0.4678208522698154,0.51347640181542,0.5540648049929124,0.29938014224445003,0.6312408039380631,0.014477894963677851,0.5110491319258742,0.1297818452296794,0.18383650075880184,0.8762449575866368,3399,'AG_Pop'
0.1451395434670594,0.2953337557731635,0.552197138979431,0.07360293493956124,0.27036298553021965,0.953561409466544,0.49764178619680627,0.45173055810563745,0.5175501970988039,0.42512251517670513,0.4322534344679889,0.4468839712445049,0.5044192110717601,0.5033419613377302,0.47430745269692426,0.48425268109453257,0.4850732081730906,0.5057937491747027,0.5568872785824387,0.13689367058759155,0.5998184997748112,0.014491842867284709,0.5329508590442908,0.16295054891671476,0.252755623857393,0.5986463337250643,3405,'NOT_AG_Pop'
0.07039250376752842,0.30169917150624437,0.5312097558411499,0.08740932052201482,0.1261910129312924,0.9395064061215662,0.5895089031839738,0.4709898273333922,0.5819554091512696,0.4533986391871033,0.4683289155125872,0.46474554585645683,0.5265367066216056,0.5024749224009525,0.48241587911198913,0.4831755430793232,0.4682796961039882,0.4572786024282722,0.7463339536719851,0.06924466011394785,0.40422612946463854,0.033387909863358434,0.585279131091295,0.4278307796087486,0.5183000867302585,0.6363322780850238,3406,'AG_Pop'
0.14516687698889505,0.4938701387162605,0.5047040422734457,0.07487345515409519,0.24721481212381896,0.9527616370740053,0.49966625819358007,0.4714976639934413,0.5651050683988338,0.44365181364303646,0.4263635486576124,0.4634937780704886,0.5087003177826879,0.4984838911372341,0.44679241441253337,0.48619516574456656,0.4667783592273793,0.496689656716379,0.5890596132473384,0.2444423033983602,0.5603499523302219,0.023994584368328443,0.5813238802629197,0.23996161491531745,0.38215467444338874,0.818705880449495,3407,'AG_Pop'
0.12554299497381868,0.4051925760624165,0.5772920813979332,0.06400727792379078,0.22330847625772232,0.9655121204155186,0.5010911186594333,0.48568143025566235,0.550195507597376,0.48093085997364365,0.48962261210038377,0.47055237972132413,0.5417972877014292,0.5083974965951419,0.499392704014373,0.5061774634806666,0.4803769884355916,0.4763942413163643,0.6027998089057478,0.1491309227087504,0.5088648805573898,0.022244349384613997,0.562995416307677,0.31692264801296816,0.40379271731918953,0.713544206504686,3408,'NOT_AG_Pop'
0.12148616384228465,0.5508121200619055,0.50702204320873,0.0696929593434124,0.24495401099535788,0.9609420775160423,0.5164968826018744,0.4840946104766982,0.5113950174893438,0.47438486019252585,0.4658717685052896,0.4718837743869033,0.5206611933707705,0.5136760747629456,0.47441040080398994,0.47898543658232634,0.4610353572120315,0.47486123237485733,0.5440991428231108,0.22875550013978235,0.480090723342667,0.03147280428213181,0.603579623606037,0.32821928283804536,0.5371252040786696,0.8002748264925998,3409,'AG_Pop'
0.11772126396926134,0.5422450878082566,0.5176707694522559,0.07926509005452828,0.22300278980786153,0.9715681860727642,0.5055987642099722,0.5080968135342928,0.5906556185393905,0.4865850598981362,0.480034797082661,0.49045892698316923,0.5232019539879061,0.5262759349680158,0.47828889956858917,0.4795736403717082,0.46443368662611006,0.4807025370737272,0.6075744345666209,0.22419131350397026,0.5891017997803063,0.019548934296656276,0.5613148406379981,0.26668732142239604,0.3595899092130297,0.9070340986471542,3410,'AG_Pop'
0.10147230894607076,0.4194098328463284,0.5556226598510671,0.08147543763254599,0.21026269019103397,0.9607126849745888,0.5513708597345749,0.5095505621697549,0.596108713408114,0.46567407077056766,0.4527322562558223,0.4891359461406882,0.5318215892872156,0.5195549254181706,0.47808313052602686,0.467959762227547,0.4633849018818164,0.4984965436462961,0.5829557398288453,0.152749355802278,0.4855340368402622,0.019043467471879034,0.5829306823717129,0.1749608482708162,0.24810453035604152,0.8369293137360758,3412,'AG_Pop'
0.07000337059175539,0.5061812919996808,0.5465345570969689,0.08621623131745239,0.15293231083949188,0.9619755194328629,0.557622811447925,0.49561131034693023,0.578250301318498,0.4651598758294071,0.4801121884730179,0.51827871545536,0.537356917292876,0.5234295052042722,0.47236100493872624,0.498336707034843,0.46463284452645653,0.4837469162105306,0.6592536005861397,0.12127680808722048,0.582658793999486,0.008497543185775006,0.5874509990795032,0.18231981634184483,0.24007142676650953,0.9021402828935665,3413,'AG_Pop'
0.12362526636048572,0.1647428124992421,0.6736159391405625,0.08063007329663871,0.23043089382083037,0.9391612666953588,0.49271432999216336,0.5281547352269286,0.5658868809848264,0.4718310259457398,0.47541121492010113,0.5206607967672412,0.5524561057517058,0.5157024862136577,0.4469541144260111,0.4428436053766808,0.4483683820270002,0.4977511320969426,0.6009382547970293,0.07143073341613047,0.48681368595716945,0.030038915045555756,0.5594103171159256,0.4249119109932596,0.537463963588199,0.43784598632277866,3414,'AG_Pop'
0.08493991276637834,0.4270001613118299,0.533461082401547,0.0941514576422074,0.16395531968624696,0.9487867057751813,0.5791088311894032,0.4425364051851421,0.567346867654808,0.47785821383788324,0.4502202457294526,0.473610853250668,0.5220320647088247,0.5163485415028388,0.4766441987845878,0.4666621801342406,0.4719408149146348,0.4873322250643336,0.6700788177550919,0.12389963790383104,0.4864487457827503,0.014307064369081208,0.621412633295247,0.17396070810129294,0.24641979838750244,0.6676844738861755,3415,'AG_Pop'
0.10251925350708326,0.5775459766427381,0.5405740635692388,0.09399694643618017,0.24601058036128978,0.9664298123605836,0.48616941679780745,0.5303069435475907,0.5935237951731868,0.47432458282823176,0.4996916545419124,0.5033624699666119,0.5403334421692307,0.5239846297531732,0.4784540507621092,0.48930254787991573,0.4709562175719017,0.48349876273910986,0.5140424405297298,0.1969035011639253,0.6381424599590115,0.017034095831842053,0.6100773820662462,0.21850739114430517,0.32441820562922363,0.9210529989107419,3416,'AG_Pop'
0.1842379264592631,0.4761108102531605,0.5380845955683398,0.07054389048405649,0.2930218492368514,0.9726255672801136,0.4475608556073994,0.5224893376420457,0.5776707091494195,0.4458311140387532,0.5078999107583915,0.5248803275070502,0.5238618847932043,0.5301298225951444,0.4767867009831361,0.4708051750147007,0.45818207189705096,0.5011585725431795,0.5722053294622894,0.28801625932291175,0.5763961273722419,0.024179304883080763,0.5434477174985363,0.26920428330414686,0.3353522832914553,0.8992287365810165,3421,'AG_Pop'
0.17069640093932678,0.4048701920875345,0.5171935966159925,0.07417684946353725,0.27252709472163195,0.9597615954770258,0.4733330595268678,0.5222714915777003,0.5637547230450366,0.47487404925310855,0.4542895659481116,0.48090772194786174,0.5361827030101165,0.509570659199658,0.46462844422639515,0.47821705425962757,0.4704639175388269,0.48101295845722236,0.5532356395916428,0.21408264950759012,0.523932081598814,0.025600567298993914,0.5412639831926522,0.2268140266430097,0.3413625136026669,0.7087423787155918,3427,'AG_Pop'
0.10386652726716632,0.3632952895114457,0.5487313400357021,0.06655434066571875,0.2147862111972562,0.955497209621208,0.511709400611607,0.5312812426933182,0.5681857800880801,0.458873947343165,0.4856257369563066,0.5115078709355974,0.5112236344427742,0.5206529208321232,0.4987134322958082,0.48682217002945605,0.4699326190359408,0.4766527688720801,0.5869733128417555,0.13062210681717962,0.5767831072178962,0.01467382613400039,0.523861712569146,0.20718979849411825,0.26042801694982654,0.7976498297394337,3433,'AG_Pop'
0.08937657682115181,0.29264104115167433,0.5827098353965742,0.07709481394130378,0.18162886686600976,0.9523029631008184,0.5556679384177917,0.496328841920048,0.5367262202939854,0.4560940341180618,0.4463891357875543,0.46355171637522985,0.5229744162753288,0.5190236124628101,0.4768130725698469,0.49390610502660376,0.4624634616855022,0.4790922140663447,0.6418803223952367,0.08481030572361371,0.5234105440199927,0.01526577849082406,0.6282552983029867,0.15667558457654174,0.22176327277674227,0.5928278888002623,3444,'NOT_AG_Pop'
0.16123495867920434,0.5077022313247802,0.5493124000265116,0.06472503997299915,0.2943219764401201,0.9745801351027682,0.4915546958508085,0.5146322893095258,0.5535838463451365,0.47172821723809827,0.4548422720415085,0.505834691717391,0.518010144638761,0.5161722193870705,0.4653877015510148,0.48920818186029114,0.4606754745293864,0.486112139279803,0.5022833200612729,0.27763497857547204,0.5827801050113149,0.022889824751392656,0.5706388640145524,0.2823936844416254,0.36714762826323233,0.8649450647440626,3447,'AG_Pop'
0.19670627240411007,0.2206738516372537,0.6332131062054563,0.07791816793190134,0.30610250344390555,0.9609451298826118,0.45105294181158734,0.47973862456725086,0.5496136574535497,0.4424791436747722,0.4377467357327405,0.49678162190410263,0.5396704678322153,0.5213584512627117,0.435094455256408,0.486663366243225,0.4739952487353957,0.4857968230866554,0.5496152505759494,0.13898347815523585,0.49277007648185533,0.019160699794868428,0.4973197900816856,0.21365121096240772,0.2680612289239885,0.6933503345142247,3449,'AG_Pop'
0.11496424673847727,0.36787897438252104,0.649183808244814,0.08862349644618248,0.24828892758060905,0.9385586148566293,0.4933455222559497,0.5113952102803863,0.6044086021175429,0.5131144285372864,0.48404794090175435,0.4867106902638571,0.5189754516073645,0.5099483817727256,0.46318257083100084,0.4718319311728657,0.467954140764995,0.48492739520092665,0.539956363855263,0.13698465000469248,0.5249611073437075,0.029417322825233336,0.4766456180418186,0.13734093900831768,0.2462403765606978,0.7599727032958145,3452,'NOT_AG_Pop'
0.13778624912168969,0.3620855507369396,0.6101226281001668,0.060268016950353574,0.2596949024787964,0.9547972828298698,0.5170042121708135,0.5220104300674138,0.5515764176865822,0.48945866945233324,0.4638603010935472,0.5008467411625608,0.501614309990363,0.5175741725977424,0.4792409658490302,0.49175895802358166,0.45956618425818485,0.47493062233315997,0.5215912144775329,0.16810625650813849,0.49489761175153835,0.0154749753836654,0.5263865206968662,0.23247131561736287,0.32173743859136283,0.7331835261164624,3453,'AG_Pop'
0.11458769345136816,0.526886490190751,0.5518259030755215,0.08510672016016294,0.2175900914657109,0.9752440700326747,0.4848288085494966,0.48882093059784704,0.5872456414325857,0.4886217214919976,0.4729349901873643,0.507815407403659,0.5264593315562024,0.5063089918760973,0.469434978214137,0.4850695879325299,0.49255809035547043,0.4987124944155092,0.6248154350465795,0.20323793614643573,0.5757797572081866,0.02084045881775221,0.5090121348601797,0.26323678064762435,0.32675178006143574,0.9456655932292332,3456,'AG_Pop'
0.08661750294288678,0.33797786178703776,0.5280205655527122,0.09622861006863476,0.22413325136611473,0.9462741936681855,0.4580162155016982,0.4767256879060055,0.5682951440385741,0.5268545813556218,0.518159603684525,0.5243260925573576,0.5706136059220709,0.5426980469776346,0.46846381781952473,0.4858550265662452,0.4567967502982626,0.4766774479099183,0.5770702584346733,0.09165740387875561,0.6655604892109233,0.016311586918781942,0.5450220671803737,0.20176140150434216,0.2630053750876484,0.8859030819781999,3459,'AG_Pop'
0.07553012027050585,0.19570604728411006,0.554099355328024,0.09882469462309329,0.157758317012665,0.9315028728586164,0.6046119683976439,0.5500158717556389,0.5775556366931717,0.4910693083899431,0.4513748489882367,0.48904723590384336,0.5189057031968476,0.5197754307809505,0.4695035540219804,0.4671033826413253,0.44195196674531245,0.47746230908268505,0.6544927644512538,0.05200468856647046,0.3810611231771677,0.014745611094867878,0.48838838116079436,0.1961167993932281,0.25136829041265585,0.6667364479448686,3460,'AG_Pop'
0.15687083162628077,0.5905574439548197,0.48383344748647233,0.08152960818749258,0.29039542595728574,0.9710145442060535,0.47380788686749226,0.456963452341757,0.5096063795450586,0.506411255718638,0.45874795017532277,0.46955925192407555,0.5023815083941359,0.526803442446869,0.48612039781354677,0.5087122251817929,0.4694571674522624,0.47660015770779096,0.49632831420944673,0.28866624562506116,0.5320430943521764,0.023782128213275272,0.5007463843258402,0.23681531256361069,0.3158216249236417,0.8467250453998043,3463,'NOT_AG_Pop'
0.1472898954487493,0.24911529806637095,0.515568968166309,0.07107749221796797,0.26585000433595396,0.9512758207069044,0.5103268126155688,0.49233802421530715,0.5313436773185481,0.4919763569079642,0.4564668727655883,0.4935324264072406,0.5111111889924375,0.5117816623360385,0.45911492732551756,0.4646230120965967,0.47549059088175827,0.47058356748362246,0.5451900261362977,0.12268384470740817,0.476574798013614,0.02465556892768183,0.5761362063952808,0.39869468626761523,0.4433351017107088,0.8320631035116651,3469,'AG_Pop'
0.0595380873169186,0.04029059515728151,0.5813373913810802,0.09679884203865213,0.0771783211533418,0.893850571656295,0.7273839957573214,0.3623863848105087,0.5422897560854353,0.41968424577975166,0.40692913086757704,0.448778774250442,0.532388082688431,0.5113479441802804,0.437547401522404,0.4592480892715631,0.4783624738705301,0.4848173427191352,0.9027083937547934,0.008114208684862631,0.49195117109965314,0.019326232040333475,0.5344526669397139,0.27064531780689643,0.3209011512504857,0.406162060310251,4222,'NOT_AG_Pop'
0.06775635136724001,0.09321432452603845,0.5424227810128097,0.08625336704078833,0.10940532033767436,0.9000763706963788,0.6001836549880002,0.4365852116968064,0.5619642231874277,0.44226750040387064,0.45197580101408286,0.4492723133331921,0.5271768705979093,0.5043344974094578,0.48394270369372894,0.47864166024501265,0.4744896561547084,0.49202453572808663,0.7814800686306549,0.022290953409260284,0.5409706694725477,0.024955731179746195,0.5801013721165688,0.2851359843336543,0.3378690229933085,0.3300597742114202,4223,'NOT_AG_Pop'
0.078031010424199,0.17926750262763685,0.5150928362302214,0.08492541270621441,0.0966357042387856,0.9136550298205655,0.6434805551671338,0.410979503440476,0.46295304877325927,0.40591386564771986,0.4279416145184638,0.4654794328736063,0.5111867776273902,0.5247191571975602,0.46387398898006604,0.46352238943708257,0.4760416044085256,0.48177600434111123,0.8475956148548541,0.04825291222853125,0.5083478486454284,0.0235527028238862,0.5372080992712912,0.2880882819223788,0.34969239891782894,0.453979257843971,4224,'NOT_AG_Pop'
0.07544678042964167,0.11021514713623255,0.5706091121631498,0.08514354422127575,0.13149089425613916,0.9251483207992192,0.5730761858815948,0.44851536345674414,0.5320543745882352,0.3982906500464571,0.42439545739407664,0.4178930038853961,0.49263597983599705,0.4778384737519653,0.4731754775215316,0.4848754687921825,0.46465816285608613,0.49343742076268166,0.7644750872395866,0.031947956498145545,0.4851512658024542,0.02215287903517878,0.49483262821042956,0.21656674895185238,0.2911025145067008,0.34826091193711317,4225,'NOT_AG_Pop'
0.08482737223915444,0.1239519396062257,0.564066560971995,0.08617576576875466,0.13666197384681758,0.9263858654986654,0.5684988547551735,0.43366218507604787,0.5399884827005592,0.44240941421773655,0.4457414623309625,0.4664653649485467,0.5120550943310468,0.5202880089466713,0.48178599711323333,0.4850804236970787,0.4744553799127485,0.4772295304437415,0.7705773113011589,0.04017331433936914,0.4901949016488999,0.017074033616961883,0.5924871714073703,0.19063468485818313,0.2565792434994499,0.3688654187778005,4226,'NOT_AG_Pop'
0.057283661472786455,0.028441704959861116,0.5427527841321075,0.09131386034445299,0.1171067378944188,0.883523887372376,0.6102897733626685,0.47443168592894863,0.5188500931021383,0.4298900695719381,0.4347097146249535,0.4700956070407933,0.4940875215255816,0.49949512754311476,0.4757399923811821,0.4908920794051768,0.46624116067039145,0.4685264872245883,0.7571428655834908,0.006193942848629832,0.47673549867910187,0.023631249448781536,0.5625076124436857,0.274967757726367,0.4101037486617249,0.2595950201691027,4227,'NOT_AG_Pop'
0.08245852638612643,0.13261738306094112,0.5455806189705568,0.07887662504741087,0.12714954514113214,0.9122818522543048,0.5798749040799595,0.41465771735455187,0.5373249953126258,0.42721811154197625,0.4204467518282057,0.456043373955963,0.5276586925334785,0.5188754682883959,0.46920707668725464,0.48850121357493315,0.4708412292973725,0.4900514305533328,0.7712848667027012,0.03629555648492523,0.45894794172378156,0.023606759463937633,0.5553125689673644,0.2182282132357025,0.29877153966019365,0.41710767496431156,4228,'NOT_AG_Pop'
0.04672995633159149,0.056654632584755914,0.5528659374813382,0.10151352608909804,0.08037484802748421,0.9036635120887744,0.6753131796630928,0.45277691608216214,0.5444136936208612,0.42572353702296095,0.42717797387019096,0.46061052194199137,0.5071584562899721,0.5198188082743271,0.4795474765536221,0.4715351622656547,0.46075641659860767,0.4737431213636342,0.8565071764307749,0.009574908295751711,0.44806254753203045,0.025594501683075383,0.5485657258477616,0.36262440771729004,0.4155691788316389,0.12290462356420769,4229,'NOT_AG_Pop'
0.05542862562369129,0.05741527011142948,0.5938123514765942,0.08336696385971072,0.10330035922276096,0.9053775728963823,0.6132883998420644,0.4756299099124554,0.5093936141647116,0.4330041990244525,0.437717521259985,0.420028438442475,0.4920840526456701,0.48658019430956756,0.47028423127071434,0.4854069734199226,0.484812157892156,0.5035017225124121,0.7949887739045386,0.011567144338051106,0.5283497524373179,0.02049530913210315,0.4879935330253074,0.24912970241442736,0.3123168802000563,0.1829459119138344,4230,'NOT_AG_Pop'
0.09176361019689606,0.055141102090454495,0.5691024747893139,0.07771090364527668,0.14017562879415918,0.903483098365026,0.5671288887782808,0.42969385151004136,0.5459480072422244,0.4206907773033268,0.4387467824378844,0.45801916032192513,0.5070104498524421,0.5025311812257608,0.4778583088391897,0.4781237060489802,0.47446902146987097,0.49111834994791354,0.7755757400800039,0.02055062147028798,0.4919731608899165,0.024039388775576175,0.49710606025902726,0.3120281333361718,0.3636537314814752,0.22374210333430233,4231,'NOT_AG_Pop'
0.05149436149560238,0.045316681121644456,0.5599880227509015,0.0978156283050765,0.08961525728225245,0.8968628203216774,0.7035456604549479,0.4585324670510101,0.6005616145649338,0.3981876388191946,0.450305807007942,0.4310749274326684,0.4860471141069011,0.5471279773169003,0.40596877790232794,0.4905549330556485,0.4425823890750387,0.4781932400195023,0.838115661040233,0.00806008090460528,0.45589289507220115,0.019870077184148106,0.5344399392191208,0.17747274143300495,0.2927198385726418,0.36246106191727234,4232,'NOT_AG_Pop'
0.08719248845530722,0.03164025639659168,0.5463026961063697,0.08403155731952855,0.1334383341772539,0.899309941568548,0.5974601778687506,0.41931443259308443,0.5185062624574646,0.46554313701410355,0.42923472236391375,0.45949645456623234,0.48523304422673463,0.5068889841477426,0.46612148835959627,0.508395586795148,0.49674226533699345,0.49314234283445446,0.7870262918666632,0.008415290728920865,0.4675943156183903,0.016548758990152346,0.479255888284462,0.23417903658522277,0.3086686060201245,0.2685038220742384,4233,'NOT_AG_Pop'
0.07012176200575583,0.06885196937766627,0.551049741320329,0.08280832331706266,0.11571677786213155,0.9133964189129462,0.5961515181962402,0.45591720389107265,0.5412688145730481,0.42352755882149024,0.4256648730271108,0.43943132201597496,0.5119411190707667,0.5022800559774572,0.4693355103936155,0.4725894297344987,0.471625344793851,0.46794404232095177,0.7881749447111323,0.017181260836710285,0.46525269970862637,0.026520658703502738,0.5765316523935128,0.3172828844964588,0.41248844228115294,0.42461033603809956,4234,'NOT_AG_Pop'
0.12026585570519419,0.024333478817623794,0.5803915099527107,0.05738586908410874,0.17587333712829736,0.8945726747892695,0.508786430305047,0.4467129914622215,0.5290545267045335,0.39597249520756156,0.45575155935219386,0.47887592605453577,0.5168182453028043,0.4572434347340956,0.4487917919269321,0.482999459632421,0.47357024218240934,0.444707380830956,0.732966420093146,0.009711558280734271,0.46243364026273714,0.01066779315752601,0.5780511579622981,0.13479233109716765,0.20119372544312927,0.21352322459860426,4235,'NOT_AG_Pop'
0.046161738257730754,0.027814961121770107,0.5860226180456918,0.1062484212398052,0.061546264245340425,0.8625905333393782,0.7749757012888108,0.3875604589644616,0.5484363693798131,0.4412975540952186,0.4486875407892814,0.45884148257615276,0.48383111819324215,0.5068311487170404,0.4671423794760899,0.4885064542662783,0.4537366901082742,0.4753807235894362,0.8966767031619556,0.00424200170207775,0.42373653058121336,0.01458693495265047,0.5504882020137757,0.20768621102511287,0.26083417265687237,0.1368279353533679,4236,'NOT_AG_Pop'
0.105492257848954,0.490214044473568,0.5044766721413408,0.09848707492794416,0.22233801746181964,0.9568433254644116,0.5071148157938578,0.49502174982447916,0.5805714007545083,0.46520491499801436,0.4686749310309036,0.49349709063439257,0.5147557972356819,0.5255205005560423,0.47874299816766863,0.4893350473820674,0.4719857153436814,0.4710775138613232,0.5701588442514137,0.1523520707948056,0.5782211800176168,0.013057474765862926,0.4642785244646166,0.08083832335329363,0.13000572282008457,0.6705750941839649,4237,'NOT_AG_Pop'
0.19026207370379897,0.3705416564044096,0.5786003620065596,0.11226138860053687,0.356956623198575,0.9428573827487648,0.4667348069559324,0.5462267606848454,0.5905743855360979,0.5157406135153539,0.4594587458733075,0.5040873713661669,0.5215415155310434,0.5197168857247794,0.47882821282298593,0.496829734182128,0.46657648249736394,0.4830951313399133,0.4096384647400482,0.18782510361967353,0.5338474665694297,0.011987426688134496,0.44558620395410625,0.12000350282215214,0.18346610042532513,0.7234569724775091,4238,'NOT_AG_Pop'
0.12390389113483591,0.5378038436643111,0.4811565814425211,0.1029882160723481,0.31147927072649984,0.9599517116897387,0.5258926042376176,0.5637141835081341,0.5667524011685104,0.48420368594076674,0.44875312508856513,0.5015445349589788,0.5282419458050197,0.540465256833301,0.4455728406776578,0.4904794156503088,0.4666869959789663,0.44869726181060837,0.4028100085644924,0.21766680688662382,0.57623921599453,0.002640085441365335,0.4207176415386485,0.012724169271353178,0.04946586299249218,0.8821085832600001,4239,'NOT_AG_Pop'
0.1400987383796623,0.41970061750910503,0.6037000138370265,0.05635431108435584,0.27568088803312174,0.9500523522986325,0.4827786930435362,0.5140484683286439,0.5241190397213518,0.4577625251169676,0.5021976160845003,0.5374951803933656,0.5618170645812103,0.5235437166459828,0.451390869495524,0.4591071664546709,0.47474193963775374,0.5142027898656543,0.5178492676548976,0.20849329386264406,0.6651618929016112,0.007843592053723694,0.4850390874025053,0.10454337899542053,0.1603362391033542,0.7453881334628075,4240,'NOT_AG_Pop'
0.16418207123987816,0.549119173278465,0.456074532085555,0.07635247762188077,0.3045084210697312,0.9650657662595884,0.4747219895355541,0.5316201982125018,0.5831579214066455,0.4766735835123403,0.47457878170047585,0.504545765337665,0.521836979656743,0.5311106241201144,0.4468340744354402,0.4781956330130851,0.45893615394251536,0.48890357999728284,0.48921293138945104,0.27347492299848913,0.5918031417112479,0.021047942152097324,0.5296727703692216,0.17268178104572818,0.309659090909132,0.9081699414740919,4241,'NOT_AG_Pop'
0.08915701122182704,0.5349639145407648,0.4559294434045288,0.10547729486931676,0.20728998247882538,0.9583699572520195,0.5428383269779778,0.5137555339812852,0.5923951266000368,0.533257032453233,0.46954128587711513,0.4960588495632244,0.5314570737024304,0.5305909021480596,0.4749041038872697,0.4809997798179398,0.4510640108211236,0.4894931736080267,0.5679907490989493,0.1515616952621892,0.5176616722304143,0.008619854785877233,0.45217229865933073,0.04087463495376834,0.09835330245235363,0.8123035137190541,4242,'NOT_AG_Pop'
0.08951366909001139,0.4380066699660528,0.46920129103975333,0.08375089333905762,0.2098835489112871,0.9537059513268595,0.5261256142844928,0.46591319521213326,0.5462995713062243,0.4719136362049628,0.45349191087453705,0.4927964638625669,0.5313992187130936,0.5157440385054541,0.46790469135152535,0.48960027498325376,0.46971070658194014,0.47569425823614203,0.585621960559897,0.13245741515569634,0.6600196971322252,0.012531360317221187,0.5220178524376101,0.1008378323620095,0.1566117032168694,0.8393352226862776,4243,'NOT_AG_Pop'
0.08129935322476492,0.49415416143725444,0.46404597639163153,0.09061992258951769,0.201632791066301,0.9575114748139586,0.5405544652954667,0.47939344600022393,0.5440095496680666,0.47841665282007184,0.4380058775765187,0.46622818751768413,0.5177136882433555,0.5246466421481217,0.46148599359350356,0.4935965219986595,0.4799181023897915,0.48998750934590674,0.5750077440088233,0.12676130960980211,0.6077592744259107,0.011210632687361513,0.5541334207249331,0.17429775454467444,0.2596434818657081,0.812333327088215,4244,'NOT_AG_Pop'
0.06418312472235205,0.5019301119458116,0.5266717491228415,0.14748728418141793,0.15662461615401105,0.9433114499489084,0.560847965752876,0.4986252388586809,0.559329002005995,0.506642731222697,0.4594447613541742,0.4845821748503229,0.5176366874975222,0.5369191577415008,0.4950287568634696,0.49870860908194825,0.48021180610731073,0.4915732850895176,0.6551959299293603,0.0935204754878867,0.6206213971405029,0.01501889963686212,0.46609137065610595,0.13926078498682162,0.19044498241199986,0.6579814673610002,4245,'NOT_AG_Pop'
0.06747565180165495,0.4171330501342625,0.5751874285479268,0.085884495852089,0.1827163152982047,0.9566971305725419,0.5318416256207714,0.48120120275983075,0.5366601448806075,0.45841574009309094,0.44408293713037933,0.49419470394134934,0.5522951734193735,0.5420143276697428,0.4815204246304516,0.4931492313784844,0.5036904901841782,0.5326895864246554,0.5982921697065704,0.08772208503081899,0.6392996006030666,0.011493036886348708,0.5540490752771307,0.13426868824015767,0.22353885083008745,0.6893867442688826,4246,'NOT_AG_Pop'
0.09885111497919694,0.41052453784054616,0.5135284017686614,0.1145133581607234,0.2222244045108851,0.9472774052062723,0.5128801527046973,0.5089288040222385,0.5751610520570267,0.48626856099607174,0.4833014287660249,0.5121890765472608,0.5468695760839528,0.5118351804991927,0.4656336679129412,0.5052783685379469,0.4641000595059283,0.4762895087478741,0.5871273459660745,0.12088271589742178,0.5588196272580744,0.014554523151396475,0.48224610656379574,0.1111281801810903,0.17281036806345593,0.8835360351881394,4247,'NOT_AG_Pop'
0.03995552674712128,0.2657752111918759,0.539702021387858,0.09626502072717857,0.08638848905159799,0.9084765256872012,0.6616105446740423,0.5267021111125174,0.517047908833356,0.44974821105832175,0.40525586665907204,0.4487047111493362,0.4737563812181942,0.5075479588702566,0.48657939846806747,0.4959837235329752,0.4958104355847011,0.5216422155944022,0.7911421725678168,0.039241322712809834,0.5114303400286186,0.031443341414097103,0.4702823813153201,0.3950979624846719,0.44992422463660275,0.5128799182890718,4248,'NOT_AG_Pop'
0.07002805758156311,0.1821455101616968,0.5853709731587203,0.08139939110772035,0.15581689177553684,0.9206554673374571,0.6194042179249355,0.48249912857964616,0.5468991421998491,0.48553815925530724,0.4795355677079119,0.4955998046229193,0.5014246020847176,0.5155951975419942,0.4845308701661114,0.49163858285311773,0.45281137327811877,0.4766054163914097,0.6629362582812534,0.044131727282215094,0.5661183445710184,0.036882408600112486,0.5124787607844359,0.4750757791039185,0.5537956289235519,0.5274983463013805,4250,'NOT_AG_Pop'
0.07391655262777025,0.2784599212424605,0.5609208127116653,0.07390384041434095,0.18752493656217412,0.9372574510279286,0.540311578351726,0.5192147085787184,0.5722075459555032,0.48447906113105205,0.4404368729720616,0.47212404488416587,0.5233355740248058,0.527996852299759,0.47253209174509897,0.4846858417813055,0.4924593824449238,0.489176060884011,0.5854784239961873,0.0709113224851601,0.6146620213597628,0.03239091414069977,0.4771147881884431,0.4058818847501229,0.4405199921854656,0.7074180250620955,4251,'NOT_AG_Pop'
0.07312195344191856,0.2396021809144841,0.6336533606264014,0.07593432720509091,0.16786700037902041,0.9401418804411088,0.5621855700891312,0.5004729276738621,0.5393724384223787,0.48003214232672187,0.46348600852849864,0.49835426302319635,0.5148509821686733,0.534096760624047,0.450849076548356,0.4825398244724821,0.4751932979776187,0.49617642880077595,0.6435048069684955,0.05912278900655459,0.5826977301780565,0.029811267841159658,0.5328222960340864,0.36237637085383007,0.41111240236585,0.6074861558639294,4252,'NOT_AG_Pop'
0.05986598886357141,0.3069109853018829,0.5214980998478342,0.08384764183064461,0.12842999295883184,0.9409157007040291,0.592883274153224,0.4924266370511555,0.5729928687591974,0.47587919905695814,0.4304447286340413,0.4060469412492464,0.47825833137875623,0.5313344949916592,0.47491399857718913,0.47477341686795066,0.48943078987879557,0.47304267837200586,0.730199866073436,0.0628764380709282,0.48269217534925585,0.026773748434602937,0.4944775987530422,0.19161503163521573,0.3656244504087028,0.9113363495088256,4253,'NOT_AG_Pop'
0.06707769273363814,0.2485463305674268,0.6079633967940007,0.11448920631946788,0.1918360432384811,0.9259686729522993,0.5692988726873163,0.5507612938696836,0.5350719262498408,0.4834062898371115,0.45756473276094967,0.46969964688738736,0.5178251221944612,0.5231127477162585,0.4714503549020321,0.4874413008251243,0.4697369805311741,0.47706784698247595,0.5377983517594016,0.05551749276526661,0.5690594359036644,0.021489275027756605,0.48515009994516733,0.2596973099048756,0.29111986157496167,0.5538019066416695,4254,'NOT_AG_Pop'
0.03624796036730857,0.3573568051151797,0.5701498809357248,0.12682518417039365,0.12334534779214588,0.9269204474348725,0.6223853841681064,0.579509585264346,0.5780718411746514,0.4967672013318958,0.4419538371453989,0.4708794816170632,0.49605676502800855,0.45948073826395464,0.447491154644147,0.5121498858445986,0.4556992211839543,0.48216040182262676,0.6161952079522729,0.04602636011336752,0.5717537470234327,0.014283193959327582,0.48693611450954766,0.12583461736002907,0.18481580053227417,0.6176305473629822,4256,'NOT_AG_Pop'
0.0842574638717739,0.2983058832766331,0.5466099826933632,0.11579797886958745,0.22526900214141798,0.929903691651148,0.5462679342284712,0.5421433183740472,0.5618120885808648,0.509158950769746,0.4475919471982201,0.48962425505614054,0.5357561945168082,0.5197451069150256,0.4501587054840095,0.45649103304019123,0.4801437523633748,0.4770394319592348,0.48419107105884085,0.08248029233725637,0.6544161877823604,0.019381230796913444,0.4660603107340959,0.18180111689895445,0.3938988647561839,0.680728023017863,4257,'NOT_AG_Pop'
0.0772490878153085,0.2006203073048809,0.546479138673761,0.08818165634860309,0.13781781045956235,0.9288260522296734,0.5918354090363243,0.41819658127864656,0.5512782821438282,0.4450450773527992,0.4401643463588912,0.4686089817604985,0.518800749507018,0.5217689941585313,0.4607190727712151,0.48042669369066787,0.4711689825229769,0.5104044696516004,0.759976995276168,0.05638956997583245,0.5743155114944695,0.009683316611734643,0.5292075715038032,0.09698031266194244,0.1540843875968092,0.5106459925722553,4258,'NOT_AG_Pop'
0.03141663092632881,0.1730880109470863,0.5821527765814403,0.14363543662330977,0.08128171528419006,0.900858326935829,0.6549853516071638,0.5141878498819473,0.5230277193805142,0.493982382124494,0.4742929847293686,0.49276109844598615,0.5188580292587391,0.5486999763311861,0.468173787628077,0.47830763526236,0.45664014993114016,0.4921150224816894,0.7277172065623789,0.01577419946797193,0.6460282185126137,0.01543208364881124,0.5149383362216942,0.19504979681213552,0.2727531138560207,0.4138315151264467,4259,'NOT_AG_Pop'
0.061514344205183175,0.1691491952376545,0.5643906450924135,0.0838271798292493,0.09478182840357388,0.9226584298639816,0.6327554546357606,0.43337797622664664,0.5708007591888131,0.4103431634156339,0.423910664798361,0.4407188602780626,0.5388171145814901,0.5295766420207003,0.46583063824735266,0.4757953957422599,0.46424217092347814,0.4725888473126542,0.8413869020179446,0.03817679487837351,0.4155890892733219,0.03744383864421269,0.4732963926317248,0.47456390263405396,0.5031529873635479,0.4585205212691049,4260,'NOT_AG_Pop'
0.051993090056722396,0.1561409299974305,0.5308007422811141,0.10882837529159688,0.11556688249738649,0.9139404018439597,0.656566882187346,0.4592690829479917,0.49039234835856493,0.48115282181799485,0.45799466817056744,0.49586406837354347,0.5285528663853357,0.5311159521348673,0.45767577026033657,0.4759446531264937,0.4648226868509735,0.49821309572011485,0.7277243903168221,0.026277379538895994,0.5354036698447606,0.02537395159097063,0.5005263685310871,0.3368100513115452,0.3749297027242404,0.36455186578462845,4261,'NOT_AG_Pop'
0.057896932451673024,0.2722848244427413,0.5425225966688122,0.09083834131712618,0.14098767939032106,0.9369824270047167,0.5979682553547366,0.4956291219553948,0.5535224742264581,0.45105477285570716,0.46182598611821546,0.4734994330210335,0.5219811699431014,0.5339616010496727,0.48098354344712846,0.478951805455148,0.45126335940256845,0.4652156990886451,0.6819273702938918,0.05101894554440367,0.5368600772241295,0.0426000471813433,0.45953708551686495,0.5306751420592798,0.5409314176145753,0.5622446990845272,4262,'NOT_AG_Pop'
0.10827009854073552,0.11518075653160795,0.5471130930962322,0.0762926111533006,0.16959566853691116,0.9270612845341955,0.5136239276088482,0.44332907324561105,0.5442475646189191,0.4066247461102984,0.41214095309872184,0.4197674778104276,0.4580836732387913,0.4911152036131873,0.4592865728784892,0.47374807238717,0.47680958087501235,0.4657943826182003,0.7348684343046694,0.05307270617330106,0.358008055330156,0.029850680821297687,0.513180634151948,0.32940245134171514,0.39889518392511253,0.336500789618543,4263,'NOT_AG_Pop'
0.07830877119032058,0.24438713431459305,0.5603730370569916,0.0822102235136039,0.16015361226453873,0.9384714563951956,0.5587515818818668,0.48332196560314394,0.564934119706241,0.44609740988130736,0.44173037495844114,0.4760212263110356,0.553986828851881,0.4978568186220358,0.4648721658879255,0.47086780031370307,0.48096444664045185,0.5083609941138986,0.6805388744017761,0.060245755810651565,0.5994287807759504,0.01875622627271496,0.5292785070555818,0.19857261653460734,0.2791273205781267,0.507541742448984,4264,'AG_Pop'
0.08481615889551039,0.5095703878718412,0.5145557537835819,0.07993327926813724,0.1924156429362344,0.9610964704050661,0.5638803478797422,0.5246755702919412,0.5645011210908725,0.4619147844038583,0.4707475191131102,0.49173829042963857,0.5301335325984584,0.5071054621133286,0.465073211110333,0.48084668181360335,0.4593015511160638,0.47268488915544155,0.5907782525625653,0.14921318809785478,0.46710169097115234,0.023516408027903755,0.5625569893837451,0.23753318164578788,0.35529785913744505,0.7713310638247034,4265,'AG_Pop'
0.120167658179679,0.218488999459147,0.5494745726909633,0.06743425513875864,0.22478913720295288,0.9409203415315954,0.5261103955241311,0.49596401569724385,0.5534659839220746,0.4698140113387112,0.4689480609025347,0.48849157553058387,0.5236434995093732,0.5080285549161723,0.46490499559711657,0.4938562466690023,0.4695960645398468,0.4771548956385308,0.608687173085158,0.0956441269715211,0.49538557612121087,0.04427851399597625,0.5158219271655623,0.28466395180888515,0.3721695894644625,0.6919612242844371,4266,'AG_Pop'
0.1548842050580016,0.4672354102460066,0.5817326349429356,0.07665077547908788,0.2511290565377133,0.9710259041809753,0.4780378522873246,0.4905422707783233,0.5567371275170017,0.5039858193799422,0.45982523770876843,0.48647882348678545,0.5294923326671155,0.528154274525615,0.48173580562883755,0.47617674598471427,0.45823594924506267,0.4758642016252216,0.6041533523582355,0.23556782511750032,0.5457639421904243,0.024049408872603636,0.5228248060726163,0.31457119794053845,0.36366016338527835,0.7323901415732351,4267,'AG_Pop'
0.1426340420889121,0.20743301204081394,0.6166955719157675,0.07785359643385406,0.24222938902383362,0.9495134243175464,0.48254309797020745,0.5122596618921201,0.5236734258185654,0.49249061865222354,0.47281454061200384,0.47294896850564627,0.535264197418422,0.5112353141826547,0.48499902174682824,0.48626449799952703,0.4848152603318047,0.5006316966277025,0.6076718715669341,0.10882750956787035,0.5007796920216492,0.011283794799603663,0.4743400584705073,0.10258947715651982,0.1393324636768362,0.5497810073076499,4268,'AG_Pop'
0.1792666448568168,0.40011127810802,0.5217343155357116,0.06923007597862586,0.2906961775972386,0.9507456352721119,0.4649253871336158,0.49546879106407765,0.5622174916781396,0.49062850642037686,0.4801448989549695,0.5007766739472129,0.5378416918661708,0.507129662604726,0.46284664485904,0.4901417307862657,0.4690440985927636,0.5130940450828024,0.5579546582312928,0.23176143484180756,0.5797922296973488,0.024253511128173488,0.4441589725227048,0.21212547145497912,0.30161194487572146,0.7266029525007932,4269,'AG_Pop'
0.0835655096686756,0.4138754844140256,0.49551918731561895,0.08860233469707379,0.13618580267420563,0.9534134769880397,0.5865177436155135,0.45159192635938555,0.5614520236763806,0.46694939451183637,0.45987304471423496,0.4503471083947446,0.5184063595445618,0.4912057287405069,0.4668040198773921,0.47086398126597134,0.4816901093568291,0.4677073803524603,0.7612628298671542,0.12227142106695048,0.4691934537168113,0.013506579734170049,0.5367601393759746,0.1383508460986454,0.2078255015019164,0.8220154511786244,4270,'AG_Pop'
0.0529618341182868,0.13369170875821987,0.5442281775826976,0.0827609039644525,0.11843721062355878,0.9232845353960214,0.6333322534074927,0.5144110026795568,0.620909218357826,0.49095769041933884,0.4504053099311326,0.48134838197803875,0.518349271819967,0.5049633424637585,0.4781103509133964,0.49447021683066233,0.46756177847790537,0.4627257208852721,0.734957464788786,0.021477036262955884,0.4574852720341992,0.0207866944698316,0.554949188168914,0.33026965974867584,0.3735647452927556,0.5900070635954267,4271,'AG_Pop'
0.15886717654628554,0.26363603061497165,0.5266718302077865,0.08028740624132584,0.24997118719304123,0.9459132436856296,0.47891244138563815,0.46818704533794336,0.5904314836506565,0.4991883470360267,0.478299026249327,0.4726508463696952,0.5270360885008016,0.5208238227954748,0.4682274660323706,0.48648110865682337,0.46312091808347083,0.4887409473758716,0.6104213824922686,0.13222284218203537,0.5066878559131103,0.020940523345774724,0.5746546561657915,0.25391780338142095,0.3429286909620681,0.8002766434063591,4272,'AG_Pop'
0.09642585780045689,0.20301743779839243,0.584660437324225,0.08668963885154594,0.18879920768440195,0.9523296822884705,0.5416770794590519,0.4860558951659293,0.5727350988166466,0.44948008395746863,0.46865368818765357,0.4830731901063466,0.5494610890278119,0.5352664119958676,0.4743696940121342,0.47449369192789853,0.4649224497238522,0.47804836106958465,0.6618215159077653,0.06433906005704249,0.4823380375254012,0.021228377798219285,0.5660686847762629,0.14363535087469415,0.2527595609420685,0.7220277430867272,4273,'AG_Pop'
0.05722567198182769,0.14938987543897964,0.5312930987988239,0.11073749375427332,0.1382299965370128,0.9284452891136317,0.6324521086507179,0.5312702986420411,0.5565174997577782,0.47148181920527005,0.44542315600827836,0.502229576281045,0.5240868528363596,0.5329095066670797,0.48524520942022303,0.49614317319511514,0.48216189287884803,0.4898857899521543,0.6939447214126802,0.028782908472747424,0.508048778071636,0.0054243055507973,0.4474893761796227,0.04692891649413244,0.10797745351520303,0.7787270166235944,4274,'AG_Pop'
0.11704362059182988,0.15064981421871695,0.6360732749041745,0.08082591586314551,0.2366764101411251,0.9347770037498028,0.5397486454128937,0.5139752895789258,0.5661964803416112,0.480824778432645,0.4415354308555515,0.5047035589653505,0.5321397191984266,0.5099042920612468,0.4794888522007409,0.5027726599374333,0.4578016412525402,0.48707042036432135,0.5694903353193648,0.05942347843227516,0.5510095332642441,0.01263292250629934,0.47122581273756436,0.08838748817871458,0.1255018467962094,0.5734614535596233,4275,'AG_Pop'
0.10769851672064129,0.2447483218544387,0.5716512230756018,0.07309799217964194,0.21073950312977607,0.93419496807938,0.533617592616598,0.4987323428014879,0.5809373666270038,0.5054386341579813,0.48539776334817986,0.5084290040952792,0.527652360578572,0.5040099688324093,0.4476638038446985,0.4730792085559879,0.47785999652756345,0.4560908109072474,0.6158106288876612,0.0886340620907102,0.4564905689737395,0.02070873480427683,0.5616563620192426,0.1753949817282488,0.29661327790684205,0.5777777821255895,4276,'AG_Pop'
0.13668381183475423,0.29696629734094426,0.6720052949602814,0.07810737050090863,0.24230502870889642,0.9598375408187947,0.49569609377372864,0.47981615601084215,0.559065740147449,0.4710741867649638,0.4627726958698765,0.49576927259141107,0.5222558626179131,0.522760132592123,0.48038372417755804,0.48470815003986467,0.4541805511704968,0.48459062115881596,0.6002084720267609,0.1335872399646135,0.5259811816563575,0.03377419536510862,0.5371683662814987,0.3170862648696051,0.4412601046490846,0.6572443137624312,4277,'AG_Pop'
0.0856276666401285,0.13106117445323115,0.5741731299804568,0.09067802588953225,0.1960197311771014,0.9260745732816426,0.57827217312375,0.5400627512905326,0.541284562365675,0.46984483655258213,0.44703413576771406,0.45579068368974013,0.5057726982072382,0.5122987769256531,0.44858215816168157,0.4715886977559656,0.47057302749308366,0.46664603075328714,0.5916229258066091,0.03558477816346743,0.45952494896320273,0.029786734655145496,0.5577399858853893,0.2695630927789253,0.4098087559139784,0.5714725763591669,4278,'AG_Pop'
0.062209424403263665,0.13276041492540833,0.5574163724095114,0.09432430644198005,0.14532327090850786,0.9211598237531522,0.6244185356890168,0.49336003622751434,0.5323841606226284,0.4692840897121038,0.4345731700405586,0.45319530224502863,0.4826141163189982,0.5105715688105126,0.46208608486627667,0.4926349511196132,0.47339096759484917,0.4711391916152685,0.6560022867698758,0.027823359278867258,0.45916325765020194,0.018461027537435823,0.5573746086378544,0.14870854348156995,0.20873005948659207,0.6123796469739338,4279,'AG_Pop'
0.072548754171819,0.17247131164869373,0.5414502083658941,0.08259288818060284,0.15168976577695306,0.9311578926313169,0.5691695312037258,0.49979122619695643,0.5634939715308267,0.43632714866672545,0.4368180533432889,0.4879720623240246,0.5681898840574645,0.5253924354880004,0.47942680532364507,0.5020868699504867,0.47299023299820914,0.48495125381745885,0.6884492502121625,0.04687176580903347,0.5520212961013948,0.027446932449414894,0.6130182206428448,0.2976104512670065,0.4104049383050982,0.4933509328890319,4280,'AG_Pop'
0.11492737002033065,0.5291967990161445,0.5465346682161134,0.08872285951429335,0.22262234277288268,0.9577731493278554,0.559764805059309,0.5359881851666849,0.5178865737930879,0.43630962833666564,0.44013080874618077,0.46896263556713536,0.517044663145511,0.5090901733697754,0.4578521187767622,0.4855328031354903,0.45035026681500084,0.47748792026698056,0.55010351618279,0.18456639015509138,0.4882974285629156,0.028391871940293335,0.4550017434214732,0.32940019665684267,0.4577336789725624,0.6999016768501778,4281,'NOT_AG_Pop'
0.07494264126394323,0.4215300926343062,0.5283929495506279,0.0969334216594465,0.19287727090683202,0.9457881544727297,0.5818300502575208,0.562542749351135,0.5770812947688218,0.4852500941591179,0.45071790682686264,0.49006766894343473,0.5284740803550734,0.5140376264274348,0.45466920400775385,0.44108819931804755,0.45163314723441284,0.45909172092151485,0.5771724101949376,0.08961493333278012,0.42985889692474666,0.012395022503065468,0.4650048970986989,0.09291469970111385,0.15204223587457805,0.6602720534642186,4282,'NOT_AG_Pop'
0.1308655750353273,0.4351837640912642,0.5180762681940493,0.07097092358113453,0.25207973765117087,0.9502706984908188,0.5019733463947176,0.5211868274016079,0.5830736309630068,0.4910419740010868,0.45336726767253394,0.496539487911913,0.5218108726310753,0.4903748310310455,0.48362343455140927,0.4781010684340665,0.42623821614848517,0.496262675115933,0.5521056478717473,0.16160918113553732,0.47190837994569146,0.021644229097197088,0.44846127595976976,0.2041835484782569,0.2727187069032257,0.6461750312976807,4283,'NOT_AG_Pop'
0.21429868584620104,0.13261421088701256,0.6664626747960155,0.0912369505330668,0.33805029505411527,0.9192118735044468,0.43755012700126394,0.6099631972338668,0.6058583215687242,0.49449475810556054,0.48284310817833365,0.5115411384866799,0.5365302921755668,0.5333625061457182,0.47376002433395803,0.4906775304826676,0.44317537094725895,0.47609413164989717,0.5227336749939183,0.07556165672293244,0.5613363363363665,0.008026957386361706,0.37936949818037397,0.03589422756089274,0.07345072345072204,0.43275942934940204,4284,'NOT_AG_Pop'
0.0865002784750153,0.46484990681148214,0.5030129028367253,0.11012102718363806,0.177107144494952,0.9475910621937514,0.5402564516301734,0.44568353119543713,0.5315240840928332,0.48956037223982257,0.4606524863138139,0.4741640086620127,0.546009563503301,0.5084814528060613,0.4584431023621791,0.4786745524993256,0.4443551783180765,0.48974803176541876,0.6495126054867615,0.11289454142361718,0.5930312224723615,0.010920388921079834,0.43276881654097304,0.08901286526812117,0.136919750504933,0.675341755759022,4285,'NOT_AG_Pop'
0.08622662023691764,0.21406193204391677,0.6370874558141222,0.08639659390774944,0.20612564841746372,0.9365330172098522,0.5380560756729365,0.5238823611934288,0.536869746927616,0.47443479248391807,0.4508346768110612,0.4940386483854753,0.5215325422855694,0.5488782337055262,0.4852472366127707,0.48040989968509956,0.4402089772593919,0.4755399475478197,0.5741063572928357,0.06373635534246923,0.5993856746918749,0.028420460113900533,0.41662714071935936,0.34993292606427306,0.4375370134946718,0.6984423457983654,4286,'NOT_AG_Pop'
0.1145640620379483,0.49316688147160825,0.5402377734855036,0.0925959661130132,0.27045007376702007,0.9578385064705105,0.4980591073173261,0.5064371889199571,0.5512023897700913,0.4800272993474542,0.47537405956648,0.501450727018098,0.5374754383931312,0.5183590217721544,0.4955617915446876,0.49137341222612685,0.473356425036106,0.4901350650473987,0.4965287784072385,0.1775039431218089,0.6418079935474225,0.014911641942307104,0.4480526002191059,0.07820323241756391,0.13660773035043108,0.7397255354391056,4287,'NOT_AG_Pop'
0.17912508661608842,0.45579321487791147,0.5382875489653772,0.08623683390464437,0.32005299529611025,0.9615178386461863,0.4807134172615493,0.5352898813672889,0.5586242481606728,0.47159975992682174,0.47786970988402455,0.5122505189038045,0.5297081313924309,0.52487155140218,0.45317067963983304,0.4678988192257643,0.46392767112132066,0.4780321035681526,0.4682165039005397,0.24096547851034267,0.5374075011958132,0.008436142561750093,0.4013478268496222,0.022232538945630563,0.05758138487943549,0.7566525728384433,4288,'NOT_AG_Pop'
0.09236923412003226,0.49684282227776516,0.5444962021609198,0.09933592266904329,0.2248853051029361,0.9570119270506402,0.5279960755588685,0.5885608230859256,0.5908113560166139,0.50212751333288,0.4797527055572901,0.5205974871319705,0.5273911206878491,0.5349436050731078,0.474163690571436,0.49344958534841804,0.4567896083948526,0.48281708827506414,0.5246435919256326,0.14272838022660517,0.4758529793708516,0.009524035635082568,0.40448233351870394,0.034017956553665074,0.08534639264508681,0.7468560294356715,4289,'NOT_AG_Pop'
0.16451511778886846,0.41991247853308905,0.4795334232028138,0.09095477401925474,0.28463752973345174,0.9401027028173634,0.42909804300079085,0.4645661338946306,0.5748979494764965,0.4568031776627414,0.46041434956570143,0.4628915369252406,0.536268742686441,0.5578996395244994,0.45537191347693096,0.4512292080216981,0.4538131636184976,0.4939848614092059,0.542444459110688,0.18170065299725344,0.5784895546674701,0.008167828276038087,0.39129629557896756,0.012591032727911079,0.04637584053219543,0.6744757443050616,4290,'NOT_AG_Pop'
0.19467495877513435,0.46841443441151415,0.5314072757028181,0.07875764528742432,0.3209085797234233,0.9575979046288878,0.4893206669209152,0.5251902242017888,0.5195923316716399,0.4708492934185198,0.42981627669787265,0.48472042917024327,0.5157624292559192,0.49301917880389157,0.47529337972533275,0.45930787932773015,0.45811385117525394,0.4791124749146167,0.4736228225976805,0.24595858238725693,0.48279608837376015,0.01798836253644411,0.43386097265793844,0.08795793257943725,0.15814428237462794,0.5660522934193538,4291,'NOT_AG_Pop'
0.1476197796141629,0.41936569642571575,0.5314563591326066,0.09253850046924136,0.26334941635200626,0.9569112892057068,0.5014019196006214,0.5138722971175752,0.5446794578414113,0.47356197859367694,0.4697429108226464,0.48987699859702327,0.5223882804793694,0.5314404319779537,0.47871456634826015,0.4887464723795037,0.46811731066169954,0.4795986329609757,0.5522177351078211,0.17557769675261778,0.5754715258631575,0.0312988705182081,0.42129940581824094,0.1933900158443105,0.2491190271869106,0.6832764328044533,4292,'NOT_AG_Pop'
0.11721654541291476,0.4926823382172588,0.5351416859628875,0.07037296549679262,0.2629561718257645,0.9458330896581713,0.5305243059306,0.5457154712180278,0.5310074878769148,0.47750136408079974,0.45453565007750757,0.4815324198097144,0.5105671111694458,0.5120601430352826,0.4747987482437423,0.46793059754669303,0.4345918897482401,0.47510363838268216,0.49953250425334356,0.18625535070027202,0.5306500115660463,0.017126855339887656,0.4154127962641397,0.1295653738401693,0.2059666757792782,0.758931132072002,4293,'NOT_AG_Pop'
0.10390990478193102,0.4115079682388786,0.5360228931819404,0.09602537294070537,0.21667603086533427,0.9524547978640373,0.5649236533438328,0.5255923783041544,0.5069527129561319,0.4588523789898905,0.4602912903224456,0.4787011890880641,0.511436109508569,0.5166221426075023,0.4527192546780563,0.48538534325924737,0.4687714003559815,0.4925149850912725,0.5751323471410665,0.11781261379013712,0.595182683198075,0.024916236480852373,0.4406361659977307,0.16802597794892182,0.24168966511511522,0.5636812205734094,4294,'NOT_AG_Pop'
0.15605502853143244,0.4915364159660631,0.49922372522232833,0.07285496104881581,0.3242511380687393,0.9575500911667038,0.48965932669528295,0.511316117923941,0.5267845891588507,0.504828278791344,0.4660011384348052,0.5375669749527681,0.5393855939530233,0.5350795938273979,0.4763638693196127,0.4595111118083375,0.45564677993357783,0.492061946357948,0.44632863243997667,0.24131302105775065,0.6142044127327831,0.00607840844969294,0.41368151723547203,0.022346803706299666,0.08632222717716835,0.749290150724049,4295,'NOT_AG_Pop'
0.07129423417466496,0.18565552814226755,0.5529658449378456,0.09038583949318396,0.16995518384285552,0.933067046403929,0.6054451049408568,0.5469325057244023,0.532313139047287,0.47172572041835187,0.46686144436835725,0.47501641775030484,0.5106170344847459,0.49872562966140294,0.4525006486909786,0.5067994961639053,0.46010567534595415,0.47155795203888595,0.6302080075537073,0.042102523222003176,0.4091311699814776,0.017859691664844014,0.5413476011286684,0.13039160426226937,0.21019844958969305,0.5277218638454788,4296,'NOT_AG_Pop'
0.09856840963679993,0.16756512019248745,0.6074028699677718,0.07476431156377047,0.20396802019750723,0.9383580000867666,0.5282292880002369,0.4744721118570799,0.5081792624971089,0.4379387456484606,0.453192636313685,0.42130126824892833,0.5261548920765284,0.47971404505937115,0.46284735314986786,0.47814452653202005,0.4746542446170038,0.5090191823076131,0.6224223836080321,0.05192339604891032,0.613789502224279,0.02751571647364648,0.5442052730123709,0.14285012948437442,0.44592952612396053,0.564488142004553,4297,'NOT_AG_Pop'
0.10020758422495696,0.21817429764618076,0.5883530073724756,0.08844850643489117,0.1882512794390314,0.9436415385906367,0.5475614413640395,0.45889468985603327,0.5641093714402959,0.46960322550337336,0.4247946572918174,0.49697105811394804,0.5222933769145909,0.5073646302756566,0.49230924777369556,0.4910088367980412,0.45491030194390275,0.4859200848429248,0.6570276919379504,0.07625276034788414,0.4731365544032434,0.01863201336799362,0.5356726139406729,0.1612828013056721,0.24527418403800558,0.5898384884775211,4298,'NOT_AG_Pop'
0.09077878363067579,0.17242353796628007,0.600891424772045,0.09298338349023696,0.20042580771299237,0.9334050430986517,0.5713006174619278,0.5418021025579278,0.5155584819888032,0.47421222178976774,0.4691204067073449,0.47314820335874724,0.5140115370122951,0.5220173297858371,0.4579481712750994,0.48026155839435697,0.4574683509588937,0.48863095162808007,0.5842758404526156,0.05438406788646017,0.5087151654315811,0.014567473965755383,0.5429608972835953,0.18926733852105548,0.26373725776714024,0.6262184849606192,4299,'NOT_AG_Pop'
0.13349717158704427,0.16293195946369052,0.609707469457532,0.07526880243823389,0.2502471628574953,0.9278383577946293,0.4958402486640087,0.5079413722852336,0.5960055996844513,0.4629298035947101,0.46760082462513686,0.49680249981042207,0.5040899212051307,0.5060679120591137,0.4888901987353492,0.48384420199647526,0.5046044142046714,0.4829496051750395,0.5774893328851947,0.06628606972238364,0.5550756523777678,0.028119732731830074,0.4907708104837891,0.28112808305231773,0.4428955293863083,0.6545681020844765,4300,'NOT_AG_Pop'
0.07495607828752486,0.479773230740298,0.4607190371680511,0.10568360959690996,0.19640980687407175,0.9544400062222009,0.5478703854766627,0.5132488187782244,0.5632555442903642,0.46961431593129604,0.4485313092150914,0.47422736705469626,0.5176072344339266,0.5311701999730144,0.468549909660821,0.48152975443251755,0.4682558119845276,0.47779843340344885,0.5621740404697068,0.11194318876734236,0.6018317019641297,0.023565754416164337,0.4938154857196294,0.33332201509853904,0.36761832442797376,0.6247575115205134,4301,'NOT_AG_Pop'
0.14399514905121286,0.12604617377746996,0.5352884686059038,0.05694105185395455,0.2393434403118397,0.9320988174009681,0.50324191836165,0.5574005379682581,0.5620718109995437,0.4869541849296074,0.4539682500043349,0.4900354172821467,0.5259324548578581,0.5196604204443553,0.4696690320294519,0.4909663516142786,0.47170216040939145,0.5184078689540588,0.5873452438917459,0.06565731561512328,0.4679492045590129,0.016539760271485092,0.525193145654888,0.13392182591751836,0.20516629976250314,0.5685289053611434,4302,'NOT_AG_Pop'
0.15283058809693958,0.22687091155840067,0.5880874996017124,0.08108787622217328,0.2919430772978492,0.9441052356573001,0.5238532208082219,0.5548596917987119,0.5355202665826498,0.4789275144232552,0.45703392743414956,0.4893519746897081,0.5335692644694937,0.5153505923219094,0.47205051002955417,0.5079223218188667,0.47025672982405464,0.4868736974087394,0.4783940804687138,0.12292368375321533,0.597411815314048,0.014214597661128626,0.49889455206607725,0.09603049421660063,0.160230857470608,0.5908517394618543,4303,'NOT_AG_Pop'
0.16567313812144271,0.14202500987470237,0.5277344082431636,0.0729321208585939,0.29343140066854084,0.9428885216194002,0.49534420789465955,0.4516223573818454,0.5222236594005876,0.4659371640233899,0.46189180460186735,0.4866843031708643,0.5130770717938601,0.5218268691198807,0.4793111896389894,0.48726390371440387,0.4666545325629866,0.49584421802905715,0.5372255399967076,0.07549348371918843,0.5514640900253498,0.02877125377240391,0.5024957269710906,0.1756768920573016,0.2695383844930266,0.6995967504217333,4304,'NOT_AG_Pop'
0.09824194323185366,0.3777619200562084,0.5572400360191166,0.08085555341326066,0.20954968334476576,0.9449024555362445,0.5470835364243917,0.520021581353895,0.5267685447588405,0.43560026132697316,0.4604898869709524,0.491810289858783,0.5375352023255104,0.5044956929832898,0.44779992887064846,0.4863783299933985,0.4851965786103964,0.4871576832920532,0.5719686169459859,0.12020902811361962,0.5102184637068405,0.01422215120553377,0.5222032205196744,0.11577304048233081,0.1704721634954094,0.7405684810250639,4305,'NOT_AG_Pop'
0.1287113223776882,0.36985559907921334,0.5445009410096693,0.07000263781231279,0.240964665268082,0.9652525481714332,0.5000751961162426,0.4648706936095109,0.5677772693831024,0.47843012057839307,0.4300380772110439,0.5040910013319578,0.49519785124100935,0.51979089381567,0.45697883080163587,0.4910907267065726,0.4597678284140666,0.4870461203446039,0.5952214950781654,0.15194285930124984,0.5445045395169914,0.022682793188178934,0.5384847239937369,0.2960851838657116,0.3961416804309425,0.8449154954131604,4306,'NOT_AG_Pop'
