@RELATION TrainingSet

@ATTRIBUTE 'Mean_1(Normalized(NaN_eliminated(Zero-crossing rate)))' NUMERIC
@ATTRIBUTE 'Mean_1(Normalized(NaN_eliminated(Root mean square)))' NUMERIC
@ATTRIBUTE 'Mean_1(Normalized(NaN_eliminated(Low energy)))' NUMERIC
@ATTRIBUTE 'Mean_1(Normalized(NaN_eliminated(Normalized energy of harmonic components)))' NUMERIC
@ATTRIBUTE 'Mean_1(Normalized(NaN_eliminated(Spectral centroid)))' NUMERIC
@ATTRIBUTE 'Mean_1(Normalized(NaN_eliminated(Mel frequency cepstral coefficients)))' NUMERIC
@ATTRIBUTE 'Mean_2(Normalized(NaN_eliminated(Mel frequency cepstral coefficients)))' NUMERIC
@ATTRIBUTE 'Mean_3(Normalized(NaN_eliminated(Mel frequency cepstral coefficients)))' NUMERIC
@ATTRIBUTE 'Mean_4(Normalized(NaN_eliminated(Mel frequency cepstral coefficients)))' NUMERIC
@ATTRIBUTE 'Mean_5(Normalized(NaN_eliminated(Mel frequency cepstral coefficients)))' NUMERIC
@ATTRIBUTE 'Mean_6(Normalized(NaN_eliminated(Mel frequency cepstral coefficients)))' NUMERIC
@ATTRIBUTE 'Mean_7(Normalized(NaN_eliminated(Mel frequency cepstral coefficients)))' NUMERIC
@ATTRIBUTE 'Mean_8(Normalized(NaN_eliminated(Mel frequency cepstral coefficients)))' NUMERIC
@ATTRIBUTE 'Mean_9(Normalized(NaN_eliminated(Mel frequency cepstral coefficients)))' NUMERIC
@ATTRIBUTE 'Mean_10(Normalized(NaN_eliminated(Mel frequency cepstral coefficients)))' NUMERIC
@ATTRIBUTE 'Mean_11(Normalized(NaN_eliminated(Mel frequency cepstral coefficients)))' NUMERIC
@ATTRIBUTE 'Mean_12(Normalized(NaN_eliminated(Mel frequency cepstral coefficients)))' NUMERIC
@ATTRIBUTE 'Mean_13(Normalized(NaN_eliminated(Mel frequency cepstral coefficients)))' NUMERIC
@ATTRIBUTE 'Mean_1(Normalized(NaN_eliminated(Angles in phase domain)))' NUMERIC
@ATTRIBUTE 'Mean_1(Normalized(NaN_eliminated(Distances in phase domain)))' NUMERIC
@ATTRIBUTE 'Mean_1(Normalized(NaN_eliminated(Tone with maximum strength in the chromagram)))' NUMERIC
@ATTRIBUTE 'Mean_1(Normalized(NaN_eliminated(Harmonic change - NNLS)))' NUMERIC
@ATTRIBUTE 'Mean_1(Normalized(NaN_eliminated(Consonance - NNLS)))' NUMERIC
@ATTRIBUTE 'Mean_1(Normalized(NaN_eliminated(Number of different chords in 10s)))' NUMERIC
@ATTRIBUTE 'Mean_1(Normalized(NaN_eliminated(Number of chord changes in 10s)))' NUMERIC
@ATTRIBUTE 'Mean_1(Normalized(NaN_eliminated(Estimated onset number per minute)))' NUMERIC
@ATTRIBUTE Id NUMERIC
@ATTRIBUTE Category STRING

@DATA
0.09946784208328999,0.3631604134127446,0.5544231031907314,0.10274150831884278,0.21043973430886348,0.9510531011650465,0.5289820810009122,0.5143083646935265,0.5450796706447242,0.4886260390309014,0.4369950744537405,0.48119735078689907,0.5152699851046244,0.5230319415149508,0.45942332612237263,0.49130146406158987,0.4495747295862551,0.49413694642559186,0.5889993398287673,0.09406574779085167,0.5162820300443612,0.007615838226589293,0.41299000480156434,0.022942574299628333,0.05630487283887095,0.6808200982572278,1,'NOT_AG_Pop'
0.08715080386639967,0.4494826523396838,0.5336297082242866,0.113264645012257,0.19517070135603554,0.9548378885920766,0.5463153361431865,0.504517414766228,0.5745593475668735,0.49443792996825525,0.48397861375220985,0.4781128822419976,0.5129951013842913,0.49338017178896065,0.44511307270353534,0.4814615353773916,0.47774305279740154,0.5009839941617213,0.5723267914429507,0.11336983399849399,0.5722331546447891,0.008376689720764701,0.47801485583504133,0.04222930944787114,0.09889764168110665,0.5891912313531406,15,'NOT_AG_Pop'
0.18487091929676505,0.4163947123008155,0.5363194166033755,0.08066103264335052,0.2877678651829163,0.9726840572187805,0.45549614945994715,0.4666776538978997,0.5925442230056424,0.459939724214681,0.46870508700165336,0.5088977598907801,0.5512438638771641,0.5361344940966415,0.45821829638850214,0.47508951954385004,0.4925455723356819,0.499791686002784,0.5784201159770874,0.25434884726233487,0.5620972552240749,0.03137135070467445,0.5432187017093394,0.31283687688981865,0.4907937066697776,0.6910305646399181,28,'AG_Pop'
0.14276513059536383,0.5059239307833331,0.5448919575501882,0.11187269490397196,0.27924008244359466,0.9442068886623364,0.5324276983291439,0.5592220273718433,0.5371936610529856,0.49818853709688793,0.4409245020272822,0.4944258818212499,0.4962248917955158,0.5069734304836908,0.449416646447261,0.4523375720603935,0.46069296694060236,0.4860834196040557,0.4336258102589647,0.15534524548148865,0.5064799015912145,0.01139129892286584,0.5223961722748843,0.05012852223676897,0.10458315146224655,0.6222823656119612,44,'NOT_AG_Pop'
0.14405101751491578,0.26452849725388294,0.5425939289917048,0.07539168421648902,0.23790558054444055,0.9556448224617311,0.5011872129838727,0.4742047835382868,0.5233983574580402,0.4406490581357091,0.45867560503934907,0.46087406930275243,0.5039392168734352,0.4931826775618992,0.4584402059065464,0.45794308490254876,0.4719996001674748,0.4628455609279549,0.6229037326307751,0.13613508565660062,0.4264854076053196,0.019979973301308518,0.5949116886549728,0.1898177946236431,0.26151235591270944,0.567475589703367,58,'AG_Pop'
0.083358828366631,0.37466363193350516,0.5384871746696467,0.07919317989007724,0.17369056780673198,0.951064549521367,0.5303773270787395,0.5250145942325837,0.6336571037188304,0.4251562688158981,0.47244873734976883,0.48936805062384264,0.49377898641770135,0.5133839300717167,0.45260647415903543,0.47152575870863794,0.4434607460804882,0.4704250425713322,0.6772635238617194,0.10037441562674874,0.4751456102208932,0.017316459334441807,0.4935858176009323,0.21163435357413218,0.2554016694849377,0.762257657541786,70,'NOT_AG_Pop'
0.07843557491866203,0.31942298939755087,0.5376445704513942,0.08760918418812938,0.17334278255680421,0.9513830494643334,0.5813470649729521,0.5129098874801163,0.5400200180291448,0.4596023941492138,0.4734246472457066,0.465301069845476,0.49315304477529137,0.5260238825824051,0.47825299180727515,0.4695432968036314,0.4621286070989847,0.48052755986316087,0.6454379565023626,0.08417988663524412,0.45921425678413313,0.010858174331724063,0.57814343703601,0.09561225867421787,0.15644905924369146,0.746147343718142,91,'AG_Pop'
0.06599808322940699,0.2978373816948653,0.5415807046556554,0.08850671056992808,0.16466888904867902,0.942048545170915,0.6033333298946215,0.5210754722407852,0.5137057590970429,0.4524166358571885,0.46063386541429485,0.487209368473969,0.5399508418352603,0.5228900759024322,0.48855709370596556,0.4719750741154938,0.4595935797729381,0.48435941774861246,0.6150390010010544,0.06816472870144027,0.5339142470052629,0.015115024549393445,0.5693376188077256,0.19145134198204422,0.2517520005458252,0.6418271970908159,108,'AG_Pop'
0.1361095000203837,0.5310086353862049,0.4917704239043169,0.0728690493462345,0.26078523702658263,0.9685834520162874,0.5145925724216983,0.5198305344519214,0.5347991764688946,0.4594167737619829,0.4429529540777055,0.4777969624740168,0.5285943646038995,0.502433164399917,0.4574066502467457,0.4693178591303527,0.45368595429932984,0.4714781857386729,0.5332530948787557,0.23040011774193525,0.46996576645112276,0.017968523907495215,0.5323358936061994,0.22222222222218554,0.2891061240015749,0.7769446827409072,118,'AG_Pop'
0.109451239436736,0.2313833807754447,0.5679570098096111,0.0785389067408399,0.18275298461311093,0.9249891145649114,0.511637993225403,0.46623416780717686,0.5803143283214546,0.4587649076218257,0.4524392174818838,0.48462065817248684,0.5130586921718714,0.534702132228063,0.4846471174841971,0.4867507180104109,0.4462047255249994,0.44104012551025457,0.6918622243765923,0.09722749623615423,0.4968754481938945,0.02105605423976016,0.49489386790646,0.22761876142535004,0.294783535148658,0.4029123812653205,134,'NOT_AG_Pop'
0.1455070516976983,0.19350333974897901,0.6054345408290579,0.07234185228634389,0.3045903087064448,0.9380774782680217,0.5158717436098981,0.5393712831359999,0.5561802566247647,0.49459000660183905,0.4324202148817893,0.5052051651791454,0.5367483232362247,0.5232070279080888,0.4585099508201218,0.4903790866760052,0.48479489742176884,0.47867161697707195,0.4426860383504025,0.07340622888690827,0.5695042889151399,0.008968748049333486,0.46625556661152534,0.010475912692625692,0.04569318678987696,0.663762907462849,153,'NOT_AG_Pop'
0.12215291549867627,0.28065291419983807,0.5657961399549664,0.06408908782691429,0.2436685930107162,0.932843539294863,0.5350268093532327,0.5325522714897158,0.5500811446395537,0.48182711299507475,0.45768165535540095,0.4758862815952113,0.5216460045733489,0.49010876480343973,0.47492306920272576,0.4754749619423547,0.45289629131420367,0.4971755113175373,0.5089373374291865,0.1034343357972564,0.572201150128493,0.02630713404587063,0.48182539630259813,0.4229599720851537,0.43345160895632284,0.5428852042246441,171,'NOT_AG_Pop'
0.12143593638544954,0.42061349982215757,0.5283657030310175,0.07553781832228343,0.22843501364931593,0.9685610623711611,0.5194409776901763,0.4626682125719426,0.5519388810388777,0.45821044132481925,0.47420420115182094,0.5123256433998653,0.5481884692847505,0.524635371238787,0.48147075826858804,0.482804411396631,0.4576024578658023,0.4667132369895181,0.6078829159668363,0.16707850130456386,0.49342446088068787,0.02419290835156228,0.5826824902539091,0.26820002288591344,0.3690166338981626,0.7389762423539464,178,'AG_Pop'
0.0423915255576086,0.10682806742174167,0.560441494802448,0.10053024516017325,0.06898692339626247,0.9063038295431771,0.7284862475107727,0.4410988284768668,0.5360953558820292,0.41944163480799423,0.4055798142108035,0.42002901467306286,0.48391664623842245,0.5122478009682135,0.450505949937863,0.4722973472901522,0.4425853427607402,0.48326123496578677,0.8952309999169219,0.014892204790317533,0.4559895681282759,0.03175256067200479,0.5015378702628072,0.44237969504509533,0.4813608143087707,0.3114531767769245,197,'NOT_AG_Pop'
0.07952810528774593,0.1373466437364804,0.5073391477803263,0.05457984680786214,0.11364571577741535,0.9216239910641939,0.637992851496175,0.48894063832025303,0.5114753264321633,0.43646632647724043,0.48966423031573697,0.48421494476129423,0.495841232567387,0.514928719725424,0.49145977637528054,0.5025191667583666,0.46924604474166265,0.4640606288171126,0.7500717777279746,0.032935124127759376,0.46496371275785453,0.0261388284106315,0.5873004007380962,0.3282679738562027,0.375935828877037,0.6028758215299591,211,'NOT_AG_Pop'
0.053543813047714196,0.20953071889572364,0.5057908215802996,0.09688859155808527,0.1240802272258175,0.9249171976466178,0.6373365213514609,0.5192787857579301,0.5087880875913185,0.4381882223711635,0.4372765883658319,0.45608949357889744,0.5166640341479694,0.5265228144405387,0.45774503466828104,0.47058010638050346,0.4690179301082523,0.4855632632675794,0.7254636854082783,0.04121590446889593,0.46243988349250764,0.03411515334162851,0.47590732694203225,0.4314690630480084,0.4598350914140733,0.46570254815427464,216,'NOT_AG_Pop'
0.1112570944811448,0.19189359543146892,0.6091569509774603,0.0752595803844856,0.20915092843061953,0.9432628627449489,0.5460937700276819,0.5062927939185536,0.5378871384895495,0.4873581673494797,0.46744099922142035,0.4876809090901158,0.5213163716389465,0.5147908997403979,0.4572833632807901,0.46492784933594683,0.4654848973733549,0.466414830289648,0.6150553964582709,0.07380443974824288,0.4534873147221929,0.024918292265365544,0.618611090914916,0.2744283794569828,0.3814180726975537,0.5521819123524301,238,'AG_Pop'
0.05521588852315962,0.16326209058920213,0.5907965960375339,0.09559666674535892,0.0811746314841336,0.911787320686122,0.656343705104375,0.421432483753155,0.5728264569205399,0.46474261647108617,0.5258728656987344,0.5140894048704583,0.5108873989086536,0.4968794555328152,0.4629751534118796,0.4713395754030207,0.4515098082445173,0.47016439282024275,0.8560961799224583,0.03470486408011816,0.46956682857104715,0.03680183063265882,0.49744232088132945,0.39601429934809895,0.4491059966383692,0.5611103065466071,255,'NOT_AG_Pop'
0.2822237530510591,0.09269532930120052,0.64100498523112,0.11270230036930746,0.4018589869496696,0.9113300367152051,0.3604614478906813,0.5357126513468797,0.5797015600290532,0.47043597202285203,0.44424342475414696,0.48315798494397616,0.5260301130068706,0.49090079312258567,0.43255298072749937,0.4666939027352158,0.46774149825472855,0.5198512109087772,0.49882765301074905,0.0679456688303329,0.616867423844415,0.009169344753137946,0.3724889766812855,0.005031931164115713,0.04112258446607168,0.48849310958005976,267,'NOT_AG_Pop'
0.04235254406570032,0.06668031985761677,0.605500912486226,0.09814661967297496,0.06838348349485185,0.8947256441486376,0.7294777962462241,0.43700077058111214,0.5028010774486146,0.4446365796363274,0.41772130961806914,0.4587780619026024,0.501649000400913,0.5386166075150554,0.48476061401237713,0.4712111883545596,0.44383265646931935,0.46241380853736513,0.885775032419661,0.010244270657684351,0.3895960656989964,0.019560926185474333,0.5336139687529944,0.22470821661999213,0.30766329258969327,0.14209150433722106,279,'NOT_AG_Pop'
0.08919865984466686,0.174862246903443,0.5857002059892612,0.07683341881486344,0.20307684970202908,0.9364751714264276,0.5347182670520707,0.5088366230892418,0.5538446736304206,0.47935962095186097,0.4747629743572489,0.4956403222395976,0.5179899929453415,0.5204539033268496,0.4643548157776133,0.4572187851305072,0.45588407750398957,0.48549808383327936,0.6044072616136241,0.054238207160942346,0.5803515460642251,0.02921885799489961,0.5627499692148578,0.38565116547547046,0.4397502940999373,0.5653306508542699,287,'NOT_AG_Pop'
0.08614462835400738,0.03967380869009271,0.5566645416140493,0.07696788970435121,0.1439117379339226,0.8900497120627074,0.5471023986769468,0.43156723615603965,0.538172984371593,0.43708297111514116,0.4439149501495273,0.4596312067860815,0.5174705879953637,0.5021237809937983,0.47555533648439374,0.4855089362802825,0.49131369798057334,0.48413506102888465,0.7697131664740878,0.011388253135041269,0.454491022408731,0.019468291288921642,0.5150875900625214,0.23653182616802484,0.30361256194747793,0.16461548355284353,295,'NOT_AG_Pop'
0.14187472983051225,0.4665152736573114,0.589148832627107,0.09294428475909021,0.2484728394011963,0.9672728694202866,0.48473489469451264,0.4688333866187222,0.5742901375034297,0.463890560303831,0.4753106100567828,0.4933883801408623,0.5331855862169553,0.518981842907856,0.4708393653707559,0.4788864144936067,0.4686555294877528,0.48867516297504004,0.5949783542546734,0.21327474276430144,0.5659438094220499,0.03034349634984009,0.5739986023877196,0.2939417678548049,0.4222946266424361,0.7941506783877015,309,'NOT_AG_Pop'
0.15545288258709788,0.31931386139994705,0.6051350557428649,0.06570562674632512,0.3049494506130996,0.9506994080067835,0.5027785716602249,0.5460864086048969,0.5468644475031157,0.4892517728594231,0.4885603289960753,0.4873013069431866,0.5433495733614547,0.5027509659593339,0.46369164633390614,0.494967791362554,0.4602072762500687,0.48861461913856574,0.4738426757126183,0.1640110873232428,0.517604106925535,0.014762481588657011,0.5004320248582453,0.19273905387153478,0.25462658590832654,0.6283547943543445,322,'NOT_AG_Pop'
0.06893334974983173,0.2160272828622628,0.5391854838585717,0.08366307415245972,0.17507035135184135,0.9417352156286478,0.6002920050522866,0.5184871620572571,0.5221835176620153,0.4749664149850332,0.4421214983138202,0.4819564901625519,0.501745887736835,0.5204921693125258,0.44882210960014746,0.48163104151125946,0.4632467736487491,0.48954836699285414,0.5889535719619462,0.04921856409137664,0.49739507558437446,0.02214151077123069,0.5627098840315159,0.2550170197632733,0.311489379390632,0.6235804209570954,338,'NOT_AG_Pop'
0.07706873825810537,0.2594666706345777,0.5547657182988889,0.08892992724945303,0.16852619666764704,0.9415655647515275,0.5693868510762143,0.5314340145488985,0.5310090562537346,0.4456262557669769,0.4539636920865302,0.46274286051355595,0.5121452688914345,0.5324414619300125,0.4776857938186509,0.498375236915089,0.45511562935726746,0.48831204317732424,0.6691612210824527,0.06800927402227137,0.5212818398344894,0.03223925689227158,0.4900402727363437,0.4008119506522817,0.4287557068684245,0.41896653974966647,347,'NOT_AG_Pop'
0.051254800868422504,0.14259734743825095,0.5405564787738616,0.09111096417691698,0.13685606249226,0.926585983623287,0.5907281154121857,0.5120126087998884,0.5739595657658358,0.4929626212808574,0.4996058449867112,0.5040633857212307,0.5143649529809142,0.5353239538547485,0.4639811540852024,0.47458162595550035,0.4503365727249393,0.4667056794019264,0.6947897304831027,0.02546821267200599,0.5610097002331911,0.02098285551527438,0.5654386797989318,0.30621290129581014,0.35809061280224147,0.5920661956288299,361,'AG_Pop'
0.17984797938761685,0.2877867059056639,0.5862629162206864,0.08553293735639036,0.2764360475909953,0.944356538806829,0.4721450391434066,0.5306160047712936,0.5319748806113863,0.4572361483042501,0.43770175881412315,0.4872517676180543,0.5070091578428085,0.5229542229380512,0.4631966425450902,0.47632026818955636,0.4672179346054718,0.47071344601217613,0.5291391020807644,0.13248929423683975,0.5080934534726014,0.008894928384120874,0.40900327552294036,0.015274344594175822,0.053098563982856714,0.5860998192401841,367,'NOT_AG_Pop'
0.1936293016388653,0.33191554292912306,0.5796946892564576,0.05603714084795227,0.3312103358248579,0.9540876919516222,0.47441157259503086,0.4852526409119246,0.5312761155622326,0.4513677324678594,0.46424873977677567,0.4874566060160259,0.5244739052492152,0.4853580313684949,0.5040159518724409,0.5094755790988124,0.4738335643034661,0.4571453507956221,0.48602330265237675,0.19505601662302627,0.47988134043909625,0.007348231335021706,0.49683170051021397,0.036341406859334735,0.048300305272415314,0.6579459987535626,382,'NOT_AG_Pop'
0.13522148790386854,0.26363769824090966,0.5666281890338093,0.06745461717464277,0.24893995360816182,0.9463270340895038,0.5078913534819586,0.4890078911854636,0.5334854192105223,0.4696040761359058,0.44118792731025974,0.4799535569099882,0.5220779070331407,0.5304325592632289,0.455219585234584,0.4729328155618767,0.46445269514691667,0.5010733777675309,0.5545643030526414,0.12116585446704238,0.5260784893193047,0.019341239876653177,0.46172534115780767,0.2261861761736701,0.3440254002894759,0.5402952630655391,401,'NOT_AG_Pop'
0.09230225350481935,0.4915972563200472,0.615744669731843,0.0870928119463555,0.19022230960935896,0.9635158874360422,0.5456193224642345,0.48687968070736004,0.5523428259802982,0.49424286336112044,0.4984765004022446,0.5140973255483346,0.530312972708104,0.5185551117517678,0.4711602432111857,0.4756479838082995,0.46439084050743223,0.47731716727731044,0.6294046020017747,0.15406492716786113,0.5717477326407443,0.010610301384816254,0.49751389486944786,0.15762506404728796,0.22867864336767516,0.8301890863405731,418,'NOT_AG_Pop'
0.11513177595871536,0.16400192276354564,0.5764687418001567,0.0760594464239908,0.20475774072895245,0.9355578404808106,0.526556330237287,0.47239386356161894,0.5328139332534373,0.44911785398592186,0.4499743117382447,0.46696347617105005,0.5167285813120952,0.5191359067329422,0.46180339556024685,0.48528158403426885,0.467204194454672,0.4891998932845418,0.6465163472453669,0.06805818487968783,0.5175719319929063,0.025075804005742428,0.5630012257047741,0.3332883745605513,0.4016494147594158,0.5338692459223677,425,'AG_Pop'
0.045594444138504026,0.05757372224770446,0.5797788223982551,0.1053440110583431,0.06927664224904129,0.8739656731188158,0.7242473257775641,0.4283197852988958,0.5350200293435807,0.4213817734136459,0.42032523054019355,0.44095265062615935,0.511544087703248,0.502222158538529,0.44050085035538533,0.47413151212322524,0.4574077190551314,0.4927537100917433,0.8666732423105132,0.01008331666101682,0.5099464857918914,0.01941167525288731,0.5275838761848398,0.2907298065644466,0.363652629353099,0.1932983454239915,442,'NOT_AG_Pop'
0.05835235427996531,0.06758949880452067,0.6035491142575211,0.1000726316516458,0.07878143444293349,0.8923388109395768,0.7161187361728124,0.405986045828382,0.5286416978114393,0.433844680728353,0.4206192592111965,0.4781975606624831,0.5181350146207057,0.5189365450263556,0.4666881754832058,0.4501691480635451,0.4624961311846012,0.5209104056071379,0.8704107689155886,0.013949621632048449,0.46027119503230074,0.027345220047788624,0.5943114143356404,0.2040299074895181,0.45121599981568106,0.27690336597211623,467,'NOT_AG_Pop'
0.11342199864099413,0.4297116459213094,0.5448760627274525,0.07682055281261436,0.2147952193094365,0.965401906694153,0.517094437395232,0.4694127137422585,0.5327285147154491,0.44567841898738036,0.47887495880179054,0.5050055640287109,0.5168996221553602,0.5285950808213371,0.46317324322850445,0.44497933137360973,0.4444338210055888,0.4973833360066752,0.6367655602064662,0.16700126266993803,0.5401380525774693,0.010834873318971403,0.5624981386554451,0.1497845988152723,0.21346746952559992,0.7648321723324042,468,'AG_Pop'
0.08427274710338667,0.26918977915165954,0.6012888552794212,0.08139707151966996,0.1799173320248484,0.9449748390911239,0.5814523227529159,0.5283861917242904,0.5485183262313588,0.4791648814327375,0.43519107973929055,0.48038416795643757,0.5151616487147734,0.5027647375500865,0.4692743840042469,0.47710980813121157,0.4672478640185229,0.48779867749243316,0.620413728640284,0.07453513515910817,0.46557186069325657,0.012726588639074946,0.5860200710151037,0.1711068645084056,0.2331027223675724,0.45903277723521724,489,'AG_Pop'
0.06406438083761802,0.15682931135308625,0.5216668853032473,0.08522682199576309,0.16663337980343496,0.9352235941681655,0.584244563334436,0.5056485549178577,0.5202169415470369,0.4655152217578212,0.4237895457159198,0.4915176152880259,0.518591599033686,0.5262384447041211,0.48284013223109185,0.5073047528289427,0.4716454674932007,0.489051656172378,0.6170465770006993,0.03364339546684585,0.5542786611262143,0.016805726888286136,0.5518286125701414,0.09144943560528845,0.16462227265055906,0.493366569806302,497,'NOT_AG_Pop'
0.08808401729819862,0.2453825077642688,0.5415364606584351,0.06992146814299376,0.17470767961145336,0.9355556853363368,0.5465915161345322,0.5071621690967422,0.5559910548100582,0.47127725408561755,0.4680540640512185,0.477216029805558,0.49866683796824973,0.5075226723989059,0.4701329118917413,0.4875461708197652,0.44215634441171175,0.47824837086863486,0.6829931060219866,0.0745697496401359,0.4067605935608313,0.02165441697844362,0.5027682017122764,0.31920709749227555,0.38665827395938795,0.5792444226130345,516,'NOT_AG_Pop'
0.1452433461250844,0.3895655070892263,0.5593068134051868,0.07709347179838329,0.2845529557521734,0.9585873752635542,0.4917188569836733,0.4984407691475213,0.5208930128236015,0.44399784189243796,0.45274261507704544,0.5177391065280796,0.4969725745224766,0.5327940077809439,0.48170299707694875,0.48672436000238245,0.47484790155280693,0.4695802762892799,0.5291315238505917,0.17225637397606752,0.5502038944661803,0.019787845438287054,0.4748894353155742,0.15851998638882844,0.2550891731219603,0.7094717721875039,524,'NOT_AG_Pop'
0.08197640958116115,0.3468718591802669,0.5433905295291628,0.06999111414167927,0.1601595626422991,0.9520201855839787,0.5683975073755733,0.4839597616986355,0.5361168643205201,0.438734432597221,0.47056802896588534,0.4800679635001023,0.5022222013106891,0.5052051495080055,0.48949873252995235,0.48805627907212396,0.4680473757538946,0.4799209586606076,0.6961751978944135,0.09403978095605396,0.4617633191890558,0.022823052703292025,0.6310471955289811,0.24479019330501658,0.35624705327679795,0.7076714391353085,550,'AG_Pop'
0.05702215984148291,0.48218330776895113,0.5307278543219207,0.15628941471340876,0.1808091679358674,0.9479076194338596,0.5543004887835439,0.523706040905318,0.5759475471128132,0.49470087858097744,0.45993940525009125,0.4834477734887392,0.5088798414590606,0.5182041652098224,0.47751377743165224,0.49850971985123477,0.4754718317208951,0.4865327820907281,0.6337618524648749,0.10706602572437235,0.7029334788942672,0.011844333560123481,0.41362793681703874,0.1529512678925616,0.21393585238544793,1.1232896788664068,559,'NOT_AG_Pop'
0.09553926399326453,0.3999833334470437,0.5604612625889466,0.10094111179555536,0.2028419677398815,0.9437777364387038,0.5326503629624567,0.5256858130749461,0.5610378654501973,0.4761612324117848,0.45860873579720535,0.4870771275982166,0.5455073740584996,0.5202332701675791,0.4733093347253798,0.46575825267599386,0.4583734131430307,0.4766996629478054,0.5823074050684032,0.11622771468942376,0.5701739318760696,0.013931926009524453,0.48342713436462165,0.1711072774902319,0.22446845851102218,0.6670308656673364,569,'NOT_AG_Pop'
0.0969065882998433,0.12593556152796376,0.5793360506120978,0.08902129002143197,0.2057577891943564,0.9246474156743711,0.5407486996604217,0.5147406322322584,0.5204015879315221,0.4265483719695034,0.44583780264463546,0.46684373628200004,0.5084538376524854,0.5378605930626598,0.47519221615783824,0.4753155635447642,0.4503311284012144,0.4848668913161534,0.602900299698742,0.054566420233593524,0.5232319951575394,0.018111693798480637,0.5217350703072986,0.19307196441705993,0.2695383865859416,0.23939615569958578,585,'NOT_AG_Pop'
0.10712246437858129,0.4596511280119625,0.5396585354497004,0.08157924065526033,0.21980177112790755,0.9591692480842962,0.5391949806068668,0.528392804331994,0.5858029093392406,0.4649460977104006,0.4789350708513196,0.49601268116390484,0.5294006705140878,0.5392413929165825,0.46151513502338726,0.5002915985051793,0.4609057302711693,0.47594251308579805,0.5669607941304475,0.1823124250211657,0.4956772859368429,0.013318191874174089,0.5619361612126665,0.1734308714967921,0.23738942688736506,0.8145149319179296,603,'AG_Pop'
0.1590925524967557,0.33472365443767155,0.5822533992917829,0.06778748042491671,0.2999341168450343,0.9436016787970098,0.4883364923341093,0.5577391520754682,0.5410875992631102,0.44451603330834155,0.4509587157739575,0.45131881606102126,0.5013603701514133,0.48174733072282216,0.45376369282088064,0.4820158029938298,0.4758360380737111,0.48906829491064147,0.5008139533405487,0.17031966153426573,0.5824507339226433,0.02563157552018719,0.4772105623897191,0.19663990484685645,0.26576919957829725,0.5587035427114444,631,'NOT_AG_Pop'
0.08159817418986891,0.08514695872822095,0.5835597352838829,0.08640503074502605,0.14815812567902809,0.9123832865008742,0.5915523670845622,0.46807166317490034,0.5511565967551191,0.44396858456755406,0.44369031072738524,0.46116397900657935,0.5111126248826456,0.5150693450543736,0.4597164671348665,0.48611772208239623,0.4906852487983217,0.4971380255748852,0.7219491521623801,0.024886967524757123,0.4952147146580097,0.018162187517655134,0.627699946778459,0.12303005123942687,0.21758507383765655,0.23451784324574623,646,'AG_Pop'
0.06106196754870013,0.12965722708826546,0.5772752442905746,0.08156896719559685,0.14419941756805582,0.9216540776883181,0.5900262513268762,0.4865393578845378,0.5695949897270003,0.4736655321614465,0.4483204496779925,0.4737964976297268,0.5282775597780878,0.5213011826338999,0.48470850927512893,0.5055530288799999,0.4838562818217705,0.4784855913819854,0.6925696794082647,0.03017877359993934,0.5509024907290145,0.026574366362773345,0.5872760047284585,0.3126944085536956,0.402169110038285,0.3512678027758786,652,'AG_Pop'
0.1526520713317382,0.6678034023186377,0.5389394812392803,0.0725759791429848,0.2812830104075696,0.9802715185709324,0.45421376944782627,0.5282997083606359,0.5944176995850692,0.5019220364114904,0.4817715524169014,0.49779132668426773,0.5288490732198079,0.530628418346595,0.4781379866213296,0.4784937453283142,0.4698856160997541,0.5084712938392216,0.5294644833227207,0.34060814026866587,0.5399621368013885,0.03214492217564065,0.521567110539774,0.2458547114074315,0.3153121469032213,1.040611489342752,659,'AG_Pop'
0.131880557041061,0.39544203189357063,0.6228093381008135,0.09138886650909205,0.25453234106979333,0.9521582089929894,0.5200906110197598,0.5396336521889942,0.5639439764691171,0.4621378927287851,0.4656939404535784,0.4938416142405098,0.5202899115916286,0.5083452133280175,0.4482285962168424,0.4678190730621003,0.45336033630608885,0.49568580727811923,0.5266360830316026,0.14784779041807528,0.5013056501369753,0.01224853292692172,0.43743979560654406,0.08415469820706468,0.15975653465093073,0.5916924854437633,689,'NOT_AG_Pop'
0.10939044324472062,0.29928084653778025,0.5932859300557043,0.06115914050169387,0.22539936409175368,0.958117016137906,0.5175215173110009,0.51722595175289,0.5613007533374248,0.4775154751753822,0.4871848928984181,0.5036210469198174,0.5226835296805707,0.5255922132313094,0.47537482411127274,0.4763052707326225,0.452190122046303,0.47391004355338645,0.5945649478657411,0.11430408738106684,0.5133331731269946,0.027074550636073908,0.5950580375961942,0.35866106656486435,0.43041837887203,0.6828942395793198,691,'AG_Pop'
0.04479461327912341,0.1725493438410264,0.6101866302510248,0.10698127514326025,0.09175788275971229,0.9172485739367432,0.6766094370032476,0.46061050661682545,0.5493748524241618,0.491248590423772,0.44497593162887794,0.4902964715596136,0.5116767248580164,0.5148379213455674,0.4656492066387829,0.4858154411869863,0.4764678365632313,0.49976073073466293,0.7756035757882096,0.02670844983448106,0.5099005072181028,0.013457761324374758,0.49902164367277485,0.1811397234143861,0.23072571205618778,0.501392469199767,699,'NOT_AG_Pop'
0.09322814416292528,0.5464256286883321,0.5464330203871037,0.07430936694613124,0.21271338854427418,0.9658968452843172,0.5175937913573043,0.5340700415040139,0.5747300708590812,0.4517839078012543,0.47832393281379726,0.5071809946021869,0.5296434957067929,0.5278232787799918,0.4758374093972949,0.5010659103998316,0.4722199050527671,0.4914881498136071,0.5544105444098908,0.1683717093699526,0.6181669028264671,0.032530620796710555,0.4995880474781268,0.5097757724911431,0.5374375419494808,0.7349011084378522,724,'NOT_AG_Pop'
0.15203711058121044,0.5588503715895412,0.49776907496129397,0.08091061936490865,0.25450769850531013,0.9770765158407761,0.45849469724492925,0.48283934519940747,0.5887029013145219,0.44729343795437393,0.475456308283282,0.46700192665915585,0.5254472156134489,0.48708502795819386,0.4557200309871844,0.4732965811787617,0.45947614871568704,0.5021854172316315,0.6079674310694665,0.27769512700717813,0.5575611792537193,0.014758924977869486,0.5030053117760052,0.07324391962484844,0.1508458740035406,0.9775931263884453,740,'AG_Pop'
0.0810629395524839,0.462546072016563,0.5617265315176289,0.12195214002459469,0.20863900397161528,0.9519191316060742,0.5399051367406487,0.5173702492108406,0.5870873688015412,0.4936343068613152,0.46100317335779917,0.49995449631613587,0.525545336204049,0.5190765474351972,0.48546630185443007,0.5058338889973024,0.45834224956891023,0.4628440028152755,0.5444001203656621,0.10605870961348962,0.6208501728586552,0.0033595525338901743,0.5488574068577685,0.033309528060463695,0.08460339874372366,0.6063179239816712,748,'NOT_AG_Pop'
0.10914652053120005,0.46076996114084945,0.49538242042146147,0.09173084328814099,0.23974444252056631,0.9621649809898852,0.5518390399050034,0.5261213857131429,0.5573793624632905,0.4957035356624051,0.46163897283221533,0.4786708862159684,0.5164491958668644,0.5184130088582389,0.4701981919857266,0.49850492921063877,0.45520984850659757,0.49221158916573676,0.5309809605686862,0.18017138715862147,0.5634060542962307,0.0212837449287556,0.4552150962078791,0.2627489540556086,0.34663921884118176,0.9044768417877337,763,'NOT_AG_Pop'
0.12086203898218575,0.4959103294830788,0.5508264428476964,0.08017306327627287,0.22115809718175947,0.9649336124040347,0.5141593821994379,0.5025071095479962,0.5912207187760866,0.47480423617596257,0.45464820677892537,0.5010958864012495,0.5368496785108328,0.5211057326092539,0.46118202397485236,0.4567754937099588,0.47214705713542776,0.49562998410659675,0.6077035630214241,0.19965628996754597,0.45362093227194944,0.012582154464466568,0.4892995870925464,0.10396570203642452,0.17304881613562537,0.725888819573606,781,'AG_Pop'
0.1736242700584991,0.4125302144097312,0.5534545094237446,0.09231117857071482,0.29777334005046724,0.9538598232428461,0.456220969799148,0.49270999200826887,0.5373522908401487,0.48871346429507967,0.4598298058790787,0.45799427310328283,0.49558201908517435,0.5100818834340836,0.4695501041488532,0.4629408459482279,0.4452388661364386,0.4623775633740233,0.5221166945756965,0.17675031156741589,0.48705424549810183,0.005245523993233618,0.3551336323437799,0.005338188483880196,0.03493073641329019,0.7383680804642115,800,'NOT_AG_Pop'
0.0663876730307463,0.14572694192331703,0.5893589677574526,0.08724574351397885,0.16367333875732556,0.9055611098532889,0.5726726529985834,0.49387015653891214,0.5261751442558004,0.44875260600032396,0.44015162447959677,0.44001675015086894,0.5193331313961205,0.5048125840072668,0.4781951988345293,0.5128261692858382,0.4736650951547771,0.49325275699933563,0.6637280839357491,0.04067139704801564,0.5210376921294534,0.020818852596768335,0.44180128113942047,0.3181110167091538,0.3595041322314361,0.3084678584527467,805,'NOT_AG_Pop'
0.15149665703490603,0.37277228772323945,0.6164707442277657,0.06216318006844204,0.29586344998016345,0.9628599568343674,0.4737853841315957,0.504112802175419,0.5408542682418863,0.46993678694594015,0.4653787100463766,0.4866129213167636,0.5367082877521454,0.5158304291339039,0.48603368524023605,0.506098321535898,0.48892344835279467,0.4976719546722558,0.5144763961041253,0.18963261378974192,0.6180680343849178,0.01624022419181573,0.4956977062453887,0.1257048852255849,0.19672802203517065,0.6822356254749873,815,'AG_Pop'
0.0972409349274437,0.3326138872751242,0.5783991678300919,0.07927620330260418,0.20559785462333158,0.9538555434552888,0.5629003818203726,0.508391179634536,0.512572884045022,0.4600976241342732,0.44490201386953115,0.4809648668256282,0.5307566705229766,0.5022248294549393,0.4695641653237767,0.4831504610432627,0.4614695632391959,0.48831245000557827,0.5996063895571601,0.11211870892603772,0.5560209137445031,0.01840944693465486,0.4771785761324062,0.1934240021412471,0.2580137417535746,0.6009936811259421,828,'NOT_AG_Pop'
0.13630068734774947,0.2790567902148403,0.5713256453615585,0.07153577615200488,0.252677857173684,0.9573860454662529,0.5223516962023873,0.5442899227515641,0.5394887349662268,0.44991637680314395,0.4386278506826261,0.48150825417977305,0.5181084518833147,0.5159956127884194,0.455725298601273,0.47091599157433045,0.46991384839903544,0.4795557991086832,0.5611849627511076,0.13898986633562188,0.482934390246413,0.024095121318740552,0.6027722299349619,0.2824248897026358,0.3873302194620291,0.6536721345379974,835,'AG_Pop'
0.08707563833678407,0.1437690129488493,0.5674269566978167,0.08608672374106521,0.17440339729349136,0.9258600101491948,0.5899567987049608,0.48417292823025815,0.5329911623151831,0.4150007752454103,0.41577676019793863,0.4756205610489518,0.5324081689665356,0.5366220657926197,0.45543788016935444,0.4707963044203973,0.47288653685705906,0.46813278647141027,0.6722238728838811,0.04577627146127963,0.38533588034895916,0.0181231195480184,0.5374192832348766,0.24537619831506446,0.30304497477928255,0.4645901286265709,850,'NOT_AG_Pop'
0.13750720823634327,0.4265713241346367,0.5336903168228448,0.06567443189596348,0.28197043184656434,0.957424793104947,0.5141210856442704,0.5274419568377032,0.5903381073282721,0.5234367491230419,0.4562717423347962,0.5009929207509364,0.49988334587430694,0.5335138631952872,0.4567864389914592,0.5089482555789243,0.49303054626113396,0.5083634091700544,0.48230749546034185,0.1861422732052125,0.5791417417923078,0.012707783655882288,0.4200387941900718,0.10373116397212284,0.1576515853624211,0.7636666380881126,856,'NOT_AG_Pop'
0.13860741213934508,0.28143694627546934,0.623585608999301,0.06570281140802382,0.25302556566466594,0.9542867841843725,0.5354173067321023,0.5152500970987958,0.5033559400863917,0.46373769178187574,0.4585110961679495,0.4872999250462662,0.5124187452504574,0.527635217550049,0.46074066258483726,0.4748571401260451,0.45464548716848585,0.46212159707567513,0.5499337351925503,0.1249554204549443,0.5027462574090901,0.012478752753354114,0.48273734872426666,0.1645145863223123,0.2223888816428222,0.592064761704219,877,'NOT_AG_Pop'
0.1359932837210793,0.42691053308697857,0.5440237964360009,0.0668546901523809,0.26966965365406115,0.9516280915175492,0.525725899225984,0.505917488548419,0.5144558313064291,0.5062735993075291,0.47497213899821816,0.5002849962089296,0.553851498890612,0.5425124519714536,0.47039529870682184,0.4794916166003796,0.4684754025044516,0.5043228207605177,0.5068491472303864,0.1981721355452385,0.5231746254517473,0.036073092248031534,0.5765030523316186,0.33334405420468827,0.5494982632188584,0.7593979215767266,893,'AG_Pop'
0.11232039064705436,0.45359047900583543,0.5403820411572413,0.0765885265120459,0.24217062744078763,0.9580135534756571,0.5235489482499412,0.5662023599259262,0.5686193071854746,0.47735822379638965,0.4733568966456191,0.4893157823182771,0.5115163027316504,0.5343389252052659,0.47279870708792443,0.49803566090687573,0.46397618628201687,0.4852555135971933,0.5391572388114935,0.18120515489468944,0.44676667002248754,0.013461457581786362,0.5565730155362273,0.18335589188299795,0.2322494043424583,0.766471438440519,909,'NOT_AG_Pop'
0.10924500552150974,0.07460282465210855,0.5289607870655243,0.0721871468140954,0.13558682754349838,0.8813588771908483,0.5752545317042832,0.43865768005818057,0.5470502991428944,0.3952653449295707,0.5054172663591125,0.4699760040038764,0.485133605933947,0.4990310075699964,0.43893189427763785,0.49367291877276465,0.461869141876382,0.4698944892934344,0.7256946098232185,0.0262013365922651,0.5038216147941749,0.022235015107950624,0.5752388011084404,0.22192534536673394,0.32150144120216645,0.3719867027158942,930,'NOT_AG_Pop'
0.08889614828025345,0.25430414425662773,0.5475876152832685,0.0825702342454833,0.18627580871532273,0.9508347522019565,0.5381652398334998,0.4920911803167501,0.5608120919142721,0.4584275026569369,0.4600775965525272,0.46883825320442046,0.5318010007100915,0.5370206675143865,0.4701125794365011,0.5022701242866746,0.47578979068197513,0.4829493237886912,0.6613604509360216,0.08031508563359183,0.530541501976235,0.029533435608774573,0.4611527996103507,0.30627536231891717,0.3466007905137437,0.5944463812846799,941,'NOT_AG_Pop'
0.05060528458472328,0.08169026127105568,0.5336244189426308,0.0882597032807996,0.07285535247351531,0.8770483245874668,0.6916293795948637,0.39221916291842707,0.5290060958047555,0.41065868855547644,0.4209235511532522,0.4278229105635678,0.5021294834098341,0.5003284061141878,0.4282874437290045,0.45759873850437477,0.4582368248308037,0.4835833629290657,0.863899800005629,0.007397262596811396,0.5761394664986396,0.028983424828499117,0.48497340799520083,0.15141543559942733,0.23125393824825882,0.626404354873634,955,'NOT_AG_Pop'
0.14009910562699265,0.597272484491829,0.5559217840559871,0.06499573838721077,0.2812209924576652,0.9549010744925633,0.44569227356928576,0.5323285717173579,0.6014218019011414,0.5008466388906713,0.4767539766704889,0.5090204716181433,0.5144118296520189,0.5224145615896422,0.4955254103206079,0.4706549504966277,0.4645566135853782,0.5092843195163227,0.5097376171905447,0.2840469372582185,0.639916528439189,0.026270118913787728,0.4870062003031563,0.30506834085407625,0.3681737920702108,1.150215167899385,977,'AG_Pop'
0.13117956075123954,0.28388495441709855,0.4870291228118669,0.08570303485017344,0.18420140511848024,0.9419783414567453,0.49833842432376574,0.4216193052775827,0.583953201645445,0.41626788093804096,0.46778620505776936,0.4599500070027559,0.5377990116114987,0.5451523163370413,0.47338040636970574,0.4562803207812715,0.4484972381575782,0.5023151638052274,0.7509339945576377,0.12989397106464246,0.4815464088627249,0.01683726311143106,0.5450799095763726,0.16025153405342812,0.23096552010289906,0.5952076722104604,983,'AG_Pop'
0.024392609488522735,0.13443061517175672,0.5966886371531405,0.1292093186526959,0.06267212924557701,0.9047273244725631,0.6942903056495897,0.5414182150690389,0.5344814068895067,0.4866257281017008,0.4610564426881855,0.5134373598037713,0.5328800775931439,0.5224123878594948,0.4570190728354623,0.4552064838773327,0.4399023610367513,0.48237642202282094,0.8087831726736786,0.010761964928454581,0.5944130902594715,0.01751534841316532,0.5402939336274415,0.1794451888243544,0.23422794266921507,0.25645476844252735,1002,'NOT_AG_Pop'
0.1415547213205979,0.3251266664417912,0.5502636086810885,0.07552072973485843,0.2514098283353603,0.9677598302193797,0.5097807012523686,0.4728326585006572,0.5196691638319678,0.45386572119732654,0.43376224354353543,0.4881306419071882,0.5178275617681978,0.510768491488767,0.47259579702309473,0.4994828883157299,0.4726432008142089,0.4877419395081954,0.5709791501661101,0.1561141997832083,0.47298765524603376,0.015555936442713613,0.6458002064488695,0.20248643450783266,0.2565798100518943,0.7832474816822289,1017,'NOT_AG_Pop'
0.2128760075200156,0.45694036461103305,0.5255361766806876,0.08289817951326577,0.3150202638706629,0.9777683454175066,0.43551736055306833,0.47553364783133634,0.5609011078147044,0.46189823621707865,0.461864855526658,0.5095627605024049,0.5165623158456992,0.5218090432502677,0.49047054926528744,0.48615132319311444,0.4553488891312253,0.487689164216535,0.5569549202361592,0.3197803660335162,0.4528149424711824,0.01957668256318943,0.5403645427350431,0.1863971263011541,0.25424940826497805,0.726041590193038,1028,'AG_Pop'
0.16026242253636255,0.28817759185822905,0.5747718916928427,0.07567132241721687,0.27247168194446725,0.9556943147065861,0.49655264444541347,0.49142919346446906,0.5711707383627929,0.45073414266925776,0.4627682091198003,0.48722656234475764,0.5208957674057301,0.5248485892516392,0.4721287055856637,0.4939255726797921,0.4609617732611389,0.4951243015526673,0.5498370172987799,0.1575424631127461,0.4687843363294201,0.027497596701015196,0.6283509675622166,0.28120115360060144,0.37699263288722007,0.6094005285493591,1060,'AG_Pop'
0.04892483934234377,0.3747041651279161,0.5592191823146188,0.10649752501778308,0.11568851187558267,0.9331464464424479,0.6362506568713553,0.5265657360982857,0.561584873063456,0.46240773752323794,0.45244197045630424,0.4765195197073759,0.526487235847522,0.5096490031004434,0.46220312397272273,0.4799510816146094,0.45218442788540064,0.48430625780966285,0.7091884677302633,0.06532383277491126,0.5002239140170084,0.02405426339896382,0.5049712567380645,0.28248112931349,0.34566075464234725,0.4891651110496833,1066,'AG_Pop'
0.07482469355059447,0.4756978946162638,0.5585259090881067,0.11288297670632244,0.21931077656480616,0.9579959509924806,0.5167736750211263,0.5506844564410105,0.5926711744604727,0.4805640665484659,0.4791373081955196,0.4987833820725657,0.5443630804875255,0.5598531919083926,0.4748503487154972,0.49091021575857247,0.46134504490737066,0.4868619411394006,0.5300284537528741,0.1242858580077587,0.6290408701886373,0.008762601402471249,0.3983177941799727,0.02946057317596121,0.05915167787965359,0.7782277721357527,1085,'NOT_AG_Pop'
0.1714899507135808,0.4887972022303473,0.5163154948743295,0.08933032742273993,0.3232922235787661,0.9631722106570799,0.48262576709989174,0.5228510787271533,0.5735106077081561,0.4874458752598203,0.48036955658159436,0.48929646550709865,0.5216317245524938,0.5036764510494811,0.47201478369347033,0.48805938772503105,0.47738773087973096,0.5130965338246756,0.4594765461781871,0.282713651053051,0.5876693308649509,0.021956251737534783,0.5276690376743532,0.15331897395729022,0.2114388450789464,0.8255357632340865,1108,'AG_Pop'
0.13225796968288306,0.4951709561178904,0.492354053951335,0.07472994650286126,0.23778611191263108,0.9690041142527956,0.5022480084332702,0.4800307460202052,0.5725068316570763,0.4676440970179471,0.4858761862727576,0.5089901783459413,0.5413591929152085,0.532484014954096,0.4696279936391223,0.4780347469702869,0.47370338288990926,0.4842238157363492,0.603063373718422,0.20462820977384671,0.5909587438899168,0.023978125993766194,0.5873677083356165,0.30427101455136124,0.3683478798177269,0.7724440726496244,1110,'AG_Pop'
0.06423309356867317,0.24884360362940722,0.5403093774368417,0.0991264886415784,0.17515272462544476,0.9351430618480188,0.5804477843384843,0.5410956085872595,0.5440690773987993,0.4663002410098612,0.4171102109942824,0.4666405628901346,0.5167322178145021,0.5300459485955874,0.470684169614398,0.4883160381671,0.475341614681767,0.49030732743836697,0.610943264477879,0.0510213697703249,0.45099722539575515,0.03470472455281565,0.4671884728071976,0.4564771593856813,0.4812632609759207,0.47289288207434854,1124,'NOT_AG_Pop'
0.08560639905064858,0.15297722964603336,0.6076932612749768,0.10921621951991889,0.2160994232457242,0.9235616817543465,0.5284548408586217,0.5311230750397757,0.5288503161336786,0.4674102046091459,0.45418882671242844,0.48436666521219235,0.5200558585481829,0.5166059285600275,0.48239890082235337,0.5064016771117934,0.47651390087497686,0.4947459133225997,0.5675982214843343,0.03324133388546214,0.638911528022882,0.01676818635085015,0.5017848340268499,0.1555400818173665,0.22157162186756474,0.4911809400509481,1134,'NOT_AG_Pop'
0.09557913081165842,0.10563362368910056,0.546515825597383,0.0859185977785818,0.14361926747282383,0.9248184787613796,0.5567680809458307,0.4231463003019088,0.5530366396819902,0.43693592694702016,0.4450751082916668,0.4599714275059259,0.5313618626551849,0.5252252317168774,0.4690950045172044,0.4833440377566449,0.4707051759985527,0.47112055724483715,0.7754934128198426,0.03529634785166545,0.4502613586047184,0.02484391870639133,0.5684390625822918,0.24037643817518387,0.31482067176923384,0.31745138381015864,1141,'NOT_AG_Pop'
0.07437209054384927,0.14316961979207488,0.5609193294518621,0.09077245659478558,0.11277303942865927,0.9203489444240424,0.5804251636018416,0.4682568573240416,0.5904644549192655,0.47702436264762516,0.4795345270008094,0.47550497129256564,0.5493891687081497,0.5109787232106614,0.4804097380916568,0.48701925283763253,0.4700504083482044,0.5094653392766304,0.7826791751023494,0.04548554673130633,0.5185177908324526,0.022156926234913117,0.5546276412432571,0.19120860648846705,0.26852270271333106,0.42166751031714067,1148,'NOT_AG_Pop'
0.05982508772065998,0.04689082569327596,0.5614794760562931,0.08744426655856374,0.10293598822416684,0.9051168717678021,0.6159505916024586,0.4428871018678969,0.5118408356073681,0.4272948442094639,0.4379612370957088,0.43734771355732655,0.4938010437468063,0.4782707427262219,0.4601253739714274,0.4622216368947797,0.48892074716881795,0.4931688963519721,0.8227708672061405,0.00918699282775801,0.4766077704948725,0.03247758499482899,0.5756480117569066,0.2697259955881251,0.395240809347352,0.2839475233254955,1162,'NOT_AG_Pop'
0.1076270290819396,0.5027375453684605,0.5288431571315735,0.08034056105872829,0.20334692983994004,0.9714317948747071,0.5350921226921379,0.4959188480403215,0.5717108116991737,0.4561159426939157,0.45053833402146265,0.49200790408776796,0.5108865331560551,0.5039926476324006,0.48143858242050397,0.46473923111262594,0.4537961822878645,0.4813835734794531,0.6192918750843421,0.18418050813030126,0.4699061088310667,0.013202125706137196,0.5595528981222152,0.13056187073723577,0.21681331010656088,0.9044098079676631,1173,'AG_Pop'
0.07404317967111441,0.04659722085007453,0.5797930048735157,0.09915734756072662,0.13150628053717914,0.8976294447719037,0.5974515410294193,0.45902233012589855,0.544743003877003,0.46720013055176296,0.4474255656200457,0.4732207576891712,0.5247051811651219,0.5251533565687664,0.47125868930211284,0.4729909418068984,0.4597640036487351,0.5083184307369943,0.7324680208749524,0.013251102589129708,0.5108749935421613,0.02307841360173915,0.4939615693928115,0.2584454126412595,0.34686321445176876,0.1435793826973264,1183,'NOT_AG_Pop'
0.09865512618677394,0.4868589043433319,0.558971765647002,0.07592891959104933,0.23216680836565112,0.9602101363063508,0.5123189946194333,0.5215586032122662,0.5819311480118375,0.4934878268989798,0.5044604340575365,0.49534253345766965,0.5205983363389963,0.5440487656082464,0.48615024972327797,0.4814588085854788,0.4649884603311369,0.5049586292150915,0.5414970352399744,0.17151099619807897,0.5543416788602883,0.022508464497185254,0.6058566081296642,0.2908067542214081,0.3617601910284745,0.8298015269313119,1208,'AG_Pop'
0.09601657891862345,0.47505240849237435,0.5154445956515914,0.08759348890297244,0.23097471842127718,0.9605184743477495,0.5314559690109661,0.5371654523958587,0.547093945960272,0.5078129521302754,0.46783450449533587,0.47983726157434786,0.4960141784138093,0.51544286194624,0.45038794112016844,0.4790718456500183,0.48095812809935834,0.49539051107476245,0.5239512290509639,0.15437611522285005,0.575567166770248,0.024916083841044764,0.5096766352372503,0.2891161351704714,0.3756881324798097,0.7908725084669136,1223,'AG_Pop'
0.13995362845926568,0.32437340016676225,0.6457157640276758,0.07359453764447131,0.260570019217017,0.9620935574275155,0.48338363990254807,0.5542630217512643,0.5972498722471514,0.4623387499171829,0.47059336457602313,0.5128405981759198,0.5409837017452084,0.5176593317793776,0.46138433991821287,0.4833625951666733,0.4833613152778298,0.4560183801256321,0.573046187736839,0.15198931760772663,0.566390784661197,0.030246632842586614,0.534858495915153,0.38688418821149767,0.5430225104633903,0.8705239938310811,1231,'AG_Pop'
0.07986045030049024,0.1391331987217478,0.5421196597667195,0.08260433182633119,0.1482957445413855,0.9197483980518577,0.5521182790412963,0.3939049516852097,0.46407338538022286,0.40720928551287305,0.42703890542901257,0.46190905835839896,0.5041067369014399,0.5546988169009184,0.5138686908733958,0.48257995008589927,0.46481064406582007,0.4847850022041558,0.7883393785033235,0.034539914606991996,0.4408512790865833,0.009256791523226754,0.49046312626032673,0.09846611317199142,0.1611022787493438,0.3056350491114136,1252,'NOT_AG_Pop'
0.14990499311400535,0.4912039368319496,0.5475765329803592,0.06878235123310406,0.2762026878347463,0.9704337432193013,0.4667864545766155,0.4866894714007334,0.538476061693011,0.4662389340445847,0.4685348598770428,0.4936657522097194,0.5323360399158619,0.5215095425439514,0.4694396669600237,0.4800927590979629,0.45455492304537964,0.48068384978513357,0.5464485276346653,0.23954210050907848,0.5790601440941924,0.010000390481710636,0.4313047357113868,0,0.025398323160243978,0.818611027171424,1264,'NOT_AG_Pop'
0.15978892947490875,0.2526201539408653,0.515827359556104,0.05180173944545156,0.26223354139018384,0.9366637090598958,0.4876855023352844,0.5219128253394409,0.5865498777420799,0.4812537438474348,0.46541529816103505,0.4831861129780856,0.5240496631799606,0.5340588024968668,0.4896891692615726,0.45330630253605503,0.4795329304736946,0.5072593674126358,0.526085283439774,0.1448272603923765,0.5670220004536097,0.036025360863420904,0.4633630070797624,0.3142435926513824,0.35247118497288477,0.8276883205349397,1297,'NOT_AG_Pop'
0.1274731076522942,0.5642708482578876,0.5226667729783804,0.09056949450762086,0.2773150140756896,0.9626223021127219,0.47222679743044144,0.5569897073271893,0.5563920133195778,0.526865325599846,0.49871675677817734,0.5147855485532867,0.5496285106665136,0.5329394334701799,0.4811133698622208,0.4822118521631514,0.47639500042877675,0.48174902633364686,0.5053211646037733,0.2382611820149337,0.6420226359985374,0.010484325331533118,0.39781234612457483,0.16567419101694947,0.20749455502258982,0.972526127123156,1304,'NOT_AG_Pop'
0.1527493544312719,0.27489338935638247,0.5102806256292532,0.06994309835249062,0.2564864226243871,0.9511688903136185,0.48562658494205524,0.5064119329611447,0.5518001730168551,0.4620934969123706,0.487913936701592,0.4552897726345105,0.561575850382539,0.5353144062866149,0.4764382801084157,0.4624284181790493,0.4718288065027909,0.4869342820526268,0.6038136131659484,0.1459224652251064,0.4985039917187777,0.022555786576897767,0.5372642310619495,0.2773444947053028,0.33241162206999336,0.6581656577370326,1322,'AG_Pop'
0.15462588345587758,0.5146789027910142,0.47201927399946136,0.08814815570753388,0.31796940127442225,0.9573932516443472,0.4739991520315074,0.5179362543838592,0.503983144595277,0.4866320386656328,0.4558334178311166,0.4826539192555743,0.5303576048159803,0.4932189264663,0.47777803887074777,0.4916229570974696,0.4892644656922507,0.4870174337336897,0.45436081675623924,0.2499850351212079,0.638950381524673,0.011243309095421808,0.5057438276484679,0.08978285215907807,0.1643677881301643,0.7049059012994713,1350,'NOT_AG_Pop'
0.15168952539089248,0.1548833269854839,0.5480181645714864,0.06518300702711112,0.2631810297201971,0.9347710561046061,0.4809833218670753,0.5164599458808375,0.5811809847804332,0.4698021957264414,0.4553263563027881,0.4452689827048743,0.5033913528545314,0.5237991647834676,0.47107142483282693,0.4939065795584655,0.4729880126013976,0.5140684957277685,0.5699708138414594,0.0809867693387139,0.4566106733665714,0.04302870289722975,0.46007650404021166,0.38875223074327986,0.4262506412701636,0.5634785167564771,1375,'NOT_AG_Pop'
0.09017287983523256,0.2603786886327388,0.559089073497172,0.07395944802439715,0.20188674497200695,0.9346472061020148,0.5581085580073158,0.4974205301324385,0.527718152100149,0.44071800160162966,0.4531911624346417,0.44966881370059614,0.5030289515272384,0.4980039421050978,0.4617403808878763,0.49696588999621827,0.46304000934282774,0.5163779148179776,0.5864224688627923,0.08535442334880003,0.5612432738600956,0.014896813654975511,0.5402704094604257,0.19741548401982117,0.25243085056167347,0.5335871737393887,1382,'NOT_AG_Pop'
0.17523831804547188,0.4653390485202963,0.4971142449104699,0.07113331555679787,0.2994870112766925,0.9670785903671237,0.46086792266671667,0.5085355658646609,0.5455099414817779,0.48252240819680237,0.4780104539635955,0.4970133624871453,0.5299717016296406,0.5113234405921618,0.4659858299424571,0.48795943155202315,0.4707963745208768,0.4859119930549179,0.5422046847835812,0.27687677090718676,0.5558203673830429,0.03268807129609325,0.6041843206775829,0.37162119188450127,0.5588489358380264,0.8122508488268101,1401,'AG_Pop'
0.07215417279796042,0.08858034871926748,0.5541944932217445,0.09279055935927401,0.11339423292594396,0.9255358588325109,0.6024370257784454,0.4263695070878685,0.5585929810999047,0.43086768096414574,0.4441429299779313,0.44148485410109006,0.5225518361833982,0.5071813431336236,0.47885958538179474,0.47866573473286667,0.4617384279122301,0.46290763927257295,0.8178086732173051,0.021521719316966243,0.3844472182847617,0.03050760366328055,0.5840642964894753,0.3482102069488383,0.4393974654621581,0.3831837917455975,1413,'NOT_AG_Pop'
0.1677004300613785,0.3781074157712891,0.5489573482729251,0.0839879255480135,0.30785819502053186,0.9539169502450191,0.47867852697403757,0.5538239158005653,0.536328233048819,0.47925615987496206,0.4702452965466191,0.45768338286054444,0.5244437471410597,0.49892558902467,0.4562486204356304,0.4685848804555037,0.47640484919124493,0.5017120218917092,0.4975495213380396,0.17973676046161344,0.5868536254749911,0.005092125255728907,0.440574589423532,0.01560788361081724,0.059028317889231796,0.7366531827976691,1425,'NOT_AG_Pop'
0.1283025043498297,0.34402942680245474,0.5354775216685461,0.09279227911937729,0.21747396710754063,0.9673378207937317,0.4940282535750382,0.451932317495597,0.5359439815413339,0.4593649727801228,0.4718332528301899,0.5261196172875939,0.5460922157394891,0.5060374273736074,0.46496851835351716,0.47191539870925975,0.48352405383513214,0.4658933492930278,0.6515186782067529,0.14677995471737734,0.5370854691913282,0.017346330175299466,0.5513285635213878,0.14880165935017745,0.2577210540386416,0.8742502445419476,1428,'AG_Pop'
0.09565766666045543,0.040953567199310946,0.5457550825952803,0.08474783265835474,0.15481866865621788,0.9081425361062256,0.5579512261303329,0.40914962216889283,0.504780030554518,0.41656351654334867,0.4264591759291295,0.43332485793298686,0.4854821835883459,0.49906012225807383,0.46789053359058397,0.47418818521924905,0.466578119450591,0.4890063549328768,0.7690702670340402,0.012137873060773872,0.4316237892117526,0.021929101739587786,0.48342404648431475,0.3011499402628551,0.3588320892205875,0.16583034772334976,1445,'NOT_AG_Pop'
0.08547195564859002,0.08021209549647226,0.5716965453838443,0.08857322223165545,0.1430790366076179,0.918979262714067,0.5664246779885009,0.4437560492170291,0.5509852399578319,0.42261451350100715,0.4319710032011694,0.450502717066824,0.5142249418091661,0.512528647727102,0.47081381519253046,0.47712829060531503,0.47595243220394867,0.46671357314429673,0.7618439387299655,0.024913916352235315,0.4308953007319565,0.016184978096481395,0.5568874833463938,0.15016854660963297,0.2023443301156319,0.2704213685590362,1451,'NOT_AG_Pop'
0.06791967175749708,0.17965199789540262,0.5550416032624238,0.07373998027720234,0.16540370479657743,0.9230585087683253,0.5534879334929835,0.5002425029095041,0.5557616718761492,0.4506048039582111,0.47273455458280983,0.47900653145791716,0.5158976262911987,0.48232603794521023,0.4743067761074065,0.4707732656697747,0.4766523248677872,0.5056971773871936,0.6832978595699589,0.04287617042900888,0.5258790095836857,0.010968053090438166,0.5495489746367331,0.15090714259319812,0.2078634700849463,0.4595684178985355,1470,'AG_Pop'
0.1893644433156908,0.4026240268561922,0.5369731486045193,0.06768422713324963,0.33820870107079426,0.9632862353160334,0.4828798079045272,0.5389187560524298,0.5203807723637798,0.4732243279883244,0.4506054024457785,0.49545958541386187,0.5564929421374543,0.5174889376340293,0.4329756012078379,0.49058783801371225,0.48816719365223216,0.4833850856554237,0.469951492186869,0.22573435425669464,0.5712322834057957,0.01090201170274146,0.43397928479296394,0.035385064709852414,0.07805755932911432,0.8276089360053904,1481,'NOT_AG_Pop'
0.1349207894318884,0.628140820444148,0.5442620032928556,0.08004497293337422,0.23860476923359228,0.9788982980151046,0.48177048510622333,0.48956223251496245,0.588627133544506,0.47146450851462945,0.4883866350336623,0.5109952422604972,0.5259808975587273,0.5443909977611792,0.4859144767914711,0.45663007284408147,0.4505638605883554,0.4888998013574742,0.5876124871232788,0.2698330234200168,0.5456948338005425,0.0164097653800421,0.5441326204586057,0.2648433675966599,0.3248598317981917,1.0014978048931162,1497,'AG_Pop'
0.11226306992486615,0.544165947595739,0.5484760046435756,0.06890576379445931,0.24122337869054306,0.9661253033430346,0.5024072976732192,0.5303435542558018,0.5780085613892145,0.4915189669016416,0.45396222491414406,0.49682422587089153,0.5050782010207638,0.5266277186216652,0.4731401888637579,0.48826321643284176,0.45630111970984677,0.5106626893524547,0.544452730613071,0.21020371965619686,0.5417770747483673,0.02043687960847502,0.48201921793563846,0.13232849384904058,0.22086989813909444,0.9323851462283287,1505,'AG_Pop'
0.11162787470470799,0.2627771348950656,0.545258354125354,0.06669203026160897,0.2286187358271187,0.9390378122581855,0.5484516148481009,0.5262729232849049,0.5666307787022586,0.4630714595890796,0.45096682824582246,0.44604245126898756,0.45486384801896346,0.5248585703585803,0.4794666805097351,0.5224943309626651,0.4832045796537617,0.494877541580431,0.5342231779289577,0.10129688963595851,0.5469131853368127,0.030911584944264887,0.5626844796145015,0.20206427398544538,0.23418847162688156,0.6970005525903942,1523,'AG_Pop'
0.10087395130028898,0.26537974618457905,0.5110154007436214,0.07063167545757673,0.19165572529044864,0.9460812697973514,0.5460912960951199,0.492893814667537,0.5677498681150193,0.4532107587666249,0.46057114065005805,0.48509079618214573,0.5214324363663856,0.5278068106935938,0.47265951284813923,0.4749299553707671,0.47435951734760795,0.4930281247282808,0.65410546793411,0.08280228954605483,0.49006113354581815,0.029360714519841118,0.5382656191589951,0.273321108282954,0.3990251476087773,0.7055405076310636,1529,'NOT_AG_Pop'
0.14851720226696027,0.21445741922249947,0.6004435839121651,0.0791313058815117,0.2524124394561857,0.948854114943919,0.4936426051043187,0.4744061454717099,0.5791530842254116,0.4622295790042341,0.46298200688007035,0.5046875818832413,0.5130288590629938,0.516225703378168,0.47600784407205726,0.493858601377,0.46604307462161976,0.475855645808681,0.590748180478911,0.09221107036911956,0.47108611469664685,0.015077853646062277,0.5802536845085032,0.14995492449852063,0.21359948368060458,0.5884246156517725,1544,'AG_Pop'
0.05568260157866358,0.5301701631385684,0.4618097441678052,0.11469138366384671,0.16532734083411574,0.9460228601095205,0.5569292012665137,0.49615074379567764,0.5219913775054265,0.4535612291049895,0.4560376161223352,0.4626639246964467,0.5106233397691836,0.5002266315374473,0.4709951618270749,0.48251592101938634,0.471779625930578,0.4922919791639762,0.5961434881455582,0.10423044478714753,0.6530049241600351,0.02489399301817665,0.577953906144978,0.28131873444031336,0.35090078509703765,0.70739371619731,1551,'NOT_AG_Pop'
0.14829344319043167,0.5631490768664685,0.553000865619038,0.07911166860498065,0.2619299418857886,0.9722370884474218,0.4735998309387059,0.5068089363362477,0.5527654606983774,0.48242464215283165,0.4870231825969518,0.5045966368948924,0.5345434012783236,0.5304566550207886,0.48248668492520197,0.4936384982378179,0.47130557068859363,0.5068765312776823,0.5571185075990213,0.28055832455673296,0.5303030303030379,0.0238595872825847,0.5739406950932248,0.27495974235104337,0.3574425731797958,0.8701953436626105,1568,'AG_Pop'
0.07518115364850037,0.5420747750267665,0.5630525528186466,0.09926022301915012,0.17864964077534162,0.9597541770743558,0.5699443758525876,0.4985759286072523,0.5630196647116213,0.4668038886160108,0.45837391673029165,0.49003820932810266,0.5176727321971993,0.5261557479670237,0.46305246202174244,0.4835955257960955,0.4671150715028894,0.5033493320584643,0.5714109813387577,0.1274112967637955,0.5824384192805194,0.01315942920340029,0.4730445506650921,0.08860732077105803,0.14432925748713493,0.648135157573787,1582,'NOT_AG_Pop'
0.09023223079112623,0.1052247863289323,0.6019479668988668,0.07712924186178995,0.2006800670781419,0.927771840308093,0.5489798632031834,0.5270295188402876,0.5503396199208617,0.46575377569129683,0.4761777072107532,0.4854862220256085,0.5274539450868161,0.5230422893894047,0.484901369327469,0.48235514982641226,0.4614194052389087,0.4730549605825601,0.5892890953782352,0.035406962032586094,0.5437899624933098,0.021750116575260194,0.5600551677427263,0.3070072036673689,0.3636363636363609,0.43513905588287144,1589,'AG_Pop'
0.13946514834751744,0.4097950320174493,0.5658955001403009,0.08287575887711178,0.2710104334464857,0.950342812909127,0.4689344927636497,0.46304871238215234,0.5140903283557987,0.47826639392389364,0.4567663069360304,0.43239770826992363,0.47684761668807063,0.5074691817253749,0.4496380363466087,0.4807085010894265,0.49566944640187305,0.4773156469356231,0.5308847203850331,0.14280323564649405,0.5218493529040278,0.01303169198500087,0.45454779935088335,0.09033805941356864,0.14358428030302253,0.8618055620408543,1612,'NOT_AG_Pop'
0.13309198181452583,0.2992484180246245,0.6429999453268255,0.08826432321958202,0.26033552103810964,0.9523956371620348,0.4837842962982081,0.4790521564833453,0.5754194434335687,0.4974720565410435,0.4446581990999968,0.4978244716173337,0.5038685440602321,0.5006123802324753,0.4536120741876709,0.4620856028800393,0.49197086936489204,0.48357328573716224,0.5468578697672821,0.11715660424077198,0.6484824811925926,0.006997801987161727,0.5792290466005773,0.08708591410448062,0.14031278692849558,0.5205606125142828,1628,'NOT_AG_Pop'
0.14159785231877378,0.4792922539377822,0.5163385149455739,0.07276797614174838,0.2493434822818328,0.9652458517512916,0.49882037525573536,0.4905311815300724,0.5670130834497833,0.4877123267168257,0.48043591882064196,0.49413694564086724,0.5324379113361299,0.5280386982109735,0.48319023713099973,0.4704604079670328,0.46350943614034323,0.48286629627539535,0.5895448505064071,0.23845169197247357,0.4799866462523044,0.01571906839953883,0.541299296103094,0.16567472879998646,0.2264726535968447,0.7030827512000045,1634,'AG_Pop'
0.12599117001270238,0.4845427150507124,0.5321003542873163,0.07263882052667134,0.23817519541810006,0.9551629931623742,0.509880313609504,0.5151970578936518,0.6111089390913806,0.47791057300792383,0.475222537698896,0.48694658948901365,0.5249688374374388,0.5042776699973973,0.45924172186110496,0.492140017799703,0.4751688534755453,0.4980281975650311,0.5779688751185105,0.209024164998586,0.497814365278364,0.01138236423398101,0.5427224349648883,0.08762509153038085,0.1434974593383171,0.7828139890217924,1652,'AG_Pop'
0.1763967000908734,0.2221258242171914,0.6247384729616593,0.09505474705747058,0.30248820859639075,0.9436164162082894,0.4555944014742801,0.5555196087403271,0.5814363367652433,0.48510440195284166,0.4405893682055298,0.49799930769689316,0.5087169905852269,0.504745671453993,0.4810178178552062,0.47822532083283414,0.4687393484679399,0.4899208475234773,0.5594288250349266,0.1126953692791695,0.5575616678240203,0.015226906624037745,0.3936049403692086,0.11111111111109719,0.1817980536014334,0.7467385076549923,1660,'NOT_AG_Pop'
0.17980317205999624,0.3974288928326341,0.5364214524025513,0.07633154539838057,0.29224673398749496,0.9570317997018326,0.510446639649592,0.48091207247546713,0.5171929391568784,0.44753897300886714,0.43861830557657316,0.47601800951747625,0.4842024859082591,0.5139203920661922,0.4540083807861497,0.4842470984962491,0.4670197673772122,0.48329794100445983,0.5202892273346111,0.21774324255395253,0.4595579459923779,0.021717282036404367,0.4418629854048502,0.10691016589842901,0.16809350285632074,0.6616663799133112,1690,'NOT_AG_Pop'
