@RELATION 'Music feature'
%rows=1
%columns=12922
%sample_rate=22050
%window_size=512
%step_size=512

@ATTRIBUTE 'Root mean square' NUMERIC
@ATTRIBUTE WindowNumber NUMERIC

@DATA
0.0,1
1.657309265E-5,2
1.711307377E-5,3
0.001246948041,4
0.004392130058,5
0.007351946252,6
0.009118958513,7
0.01233396259,8
0.01366803389,9
0.01831203817,10
0.02223344363,11
0.0260817245,12
0.02867390166,13
0.02863842497,14
0.03227747703,15
0.03413551038,16
0.0419748394,17
0.04719031064,18
0.05083046324,19
0.05476343406,20
0.05943298897,21
0.06053506319,22
0.06923898178,23
0.06805402686,24
0.07320245119,25
0.07689809843,26
0.09102273406,27
0.1014268596,28
0.1135569123,29
0.2546314961,30
0.2737591082,31
0.3268918519,32
0.2905989933,33
0.2942345157,34
0.2351085704,35
0.2110322888,36
0.2090388942,37
0.2416715592,38
0.3086007112,39
0.3497006591,40
0.3454754446,41
0.3349626473,42
0.2535478485,43
0.1872555835,44
0.1304919126,45
0.1696422565,46
0.1917228916,47
0.1499862674,48
0.119869732,49
0.1465594781,50
0.1545069367,51
0.1455672239,52
0.2878141332,53
0.2676226626,54
0.3289955269,55
0.2430357956,56
0.2709672721,57
0.1995130887,58
0.119994657,59
0.08213123997,60
0.1249177178,61
0.1393220783,62
0.1155264105,63
0.1218665685,64
0.1279812522,65
0.1346004773,66
0.281189539,67
0.2959501022,68
0.3201791824,69
0.2428397786,70
0.261415724,71
0.179033369,72
0.1718028973,73
0.1015897441,74
0.150414089,75
0.4860364021,76
0.4837900791,77
0.5046773825,78
0.5864778812,79
0.5171791389,80
0.6148709595,81
0.5547975483,82
0.5216644779,83
0.4045605272,84
0.3872854762,85
0.4432362956,86
0.3116173838,87
0.3365764062,88
0.3139117308,89
0.3705669439,90
0.3494032526,91
0.3486833947,92
0.2844792874,93
0.3123444015,94
0.3895124527,95
0.6055279922,96
0.2816379366,97
0.5521668965,98
0.5222039807,99
0.4335276032,100
0.4601699028,101
0.5114573982,102
0.4658043583,103
0.4465422886,104
0.3517455425,105
0.2608082734,106
0.2923683386,107
0.1647902735,108
0.07184465569,109
0.07219780695,110
0.07364799265,111
0.07278539462,112
0.5080638124,113
0.5094571687,114
0.4623763936,115
0.6214972563,116
0.5439227409,117
0.6160743101,118
0.5340170101,119
0.5022610308,120
0.3673859913,121
0.4190132396,122
0.3349050718,123
0.291395274,124
0.2960552173,125
0.2742203266,126
0.3562611975,127
0.3305930973,128
0.271096044,129
0.2713642282,130
0.3257390984,131
0.3647528956,132
0.626812814,133
0.3316374403,134
0.5804084469,135
0.5043446703,136
0.4049182485,137
0.5298978393,138
0.4940033567,139
0.4499424406,140
0.4289586713,141
0.3220437909,142
0.2221235487,143
0.3006502127,144
0.149975418,145
0.03696062676,146
0.02761533036,147
0.03719488175,148
0.1026257103,149
0.4939235875,150
0.530196811,151
0.451400462,152
0.6110333194,153
0.5788977688,154
0.6110000758,155
0.5349581171,156
0.4609820553,157
0.3471824446,158
0.4049080253,159
0.3301571374,160
0.2872340275,161
0.2633381219,162
0.2649466172,163
0.3384340361,164
0.363831396,165
0.2522914969,166
0.2550138803,167
0.340734132,168
0.3943412988,169
0.6035677593,170
0.3618719889,171
0.5652238636,172
0.5056674586,173
0.357768014,174
0.5359790921,175
0.5396515937,176
0.4244210733,177
0.4542158298,178
0.2439732816,179
0.2560786743,180
0.2590503837,181
0.1350772242,182
0.02463778879,183
0.01227648779,184
0.005815864576,185
0.1826731633,186
0.4657275887,187
0.5471802316,188
0.4487833322,189
0.650404479,190
0.5415226984,191
0.6155988843,192
0.5428263369,193
0.4748986168,194
0.2982151502,195
0.4102351468,196
0.3174260915,197
0.2922076572,198
0.2495810714,199
0.2547428821,200
0.3489546744,201
0.3549532567,202
0.2628112048,203
0.2414850778,204
0.3572158485,205
0.3996916764,206
0.5807776959,207
0.3574738508,208
0.6143138714,209
0.4768308135,210
0.3221473736,211
0.5380187169,212
0.5423168973,213
0.4333350271,214
0.4325139289,215
0.23286837,216
0.2627393361,217
0.2556785543,218
0.3098110611,219
0.3322066261,220
0.2759119728,221
0.2855921609,222
0.3144669814,223
0.4504481757,224
0.550939006,225
0.457501244,226
0.653218867,227
0.5499742381,228
0.6047525544,229
0.5219637897,230
0.4837742582,231
0.2896302486,232
0.4024404592,233
0.33850016,234
0.2636737417,235
0.28256472,236
0.2210856204,237
0.3954834202,238
0.3019435704,239
0.2863802751,240
0.2108922085,241
0.3741052621,242
0.4470873129,243
0.5373476643,244
0.392989563,245
0.6050560456,246
0.4611481563,247
0.3943454936,248
0.5121957961,249
0.5285192765,250
0.4321699656,251
0.4291543295,252
0.2238659746,253
0.2813404132,254
0.2387488638,255
0.1202453743,256
0.02282007582,257
0.01201977346,258
0.005940492357,259
0.2567919212,260
0.4501015576,261
0.5453186637,262
0.5232398086,263
0.604212672,264
0.6066293315,265
0.5760252439,266
0.5191781431,267
0.4524279158,268
0.3029339298,269
0.403455187,270
0.34167363,271
0.2424724457,272
0.2889476439,273
0.2344398762,274
0.3859067006,275
0.2974829698,276
0.2895282431,277
0.2069227961,278
0.3967183334,279
0.482516502,280
0.4967204633,281
0.4580764634,282
0.5591330865,283
0.4662266622,284
0.4076661884,285
0.5249424603,286
0.529114344,287
0.4106626262,288
0.4133364269,289
0.2284949649,290
0.279765311,291
0.2414305327,292
0.08588221861,293
0.02370461452,294
0.008161854588,295
0.005741462666,296
0.06605047658,297
0.398360179,298
0.3235516732,299
0.3007600615,300
0.2205466122,301
0.1112239483,302
0.009160619407,303
0.01186184846,304
0.01005069422,305
0.04184473864,306
0.3239281957,307
0.3809859723,308
0.2805994421,309
0.27001569,310
0.1912915137,311
0.4104066228,312
0.2860503448,313
0.2955888267,314
0.1974892794,315
0.09272876742,316
0.008937801706,317
0.009085817827,318
0.006342829161,319
0.0551231473,320
0.3686897717,321
0.3578558135,322
0.2924345573,323
0.2334479528,324
0.3023448951,325
0.3390041785,326
0.3273602688,327
0.2452319987,328
0.2061919576,329
0.04883023162,330
0.008086455175,331
0.007440477418,332
0.005746219277,333
0.1136769439,334
0.396159945,335
0.3148471263,336
0.3055202571,337
0.2120578753,338
0.1086888858,339
0.009144452575,340
0.01301429517,341
0.008643931554,342
0.04886541935,343
0.3330864132,344
0.3871720481,345
0.2721067634,346
0.2649434312,347
0.2184546675,348
0.3993279937,349
0.2995704548,350
0.2752558305,351
0.2026051693,352
0.06147086586,353
0.009695521484,354
0.008471712955,355
0.006108743396,356
0.07548101728,357
0.3968982498,358
0.3251858235,359
0.3006026791,360
0.2220005373,361
0.3093270264,362
0.3348350202,363
0.3280817215,364
0.2413735696,365
0.2073929447,366
0.3205564222,367
0.3141420765,368
0.3225157034,369
0.2264873938,370
0.3329634615,371
0.4564982483,372
0.5791093383,373
0.5922865337,374
0.5477809959,375
0.615555125,376
0.5415763941,377
0.5416039034,378
0.40537545,379
0.274283716,380
0.4435706769,381
0.2809499351,382
0.2692404356,383
0.2733094553,384
0.3245122588,385
0.3212553773,386
0.3204085523,387
0.2418597491,388
0.2406453476,389
0.4035808805,390
0.5754194741,391
0.3646176791,392
0.5209876929,393
0.5665793762,394
0.3985893114,395
0.4381497564,396
0.548291138,397
0.4857191875,398
0.4582858348,399
0.3130761578,400
0.2738610177,401
0.2347686812,402
0.2413069006,403
0.04352964361,404
0.02071326011,405
0.005743662059,406
0.005930145668,407
0.3645142076,408
0.414524797,409
0.6037769536,410
0.5763981764,411
0.5509022468,412
0.637724566,413
0.5382494164,414
0.5125930547,415
0.3906257197,416
0.3036188549,417
0.4425510102,418
0.2460839167,419
0.2735068665,420
0.270085455,421
0.3284877598,422
0.3163235291,423
0.3247741644,424
0.235852791,425
0.3106683856,426
0.3512350497,427
0.5956211455,428
0.3336256628,429
0.5318303997,430
0.5584611955,431
0.3930541216,432
0.4511291531,433
0.5732071857,434
0.4617378451,435
0.4401609891,436
0.3148714479,437
0.2675063846,438
0.2565406529,439
0.2121231174,440
0.03566631377,441
0.01805520037,442
0.005432503599,443
0.006365260628,444
0.4247935714,445
0.4512873967,446
0.5620645985,447
0.5589241347,448
0.5766382862,449
0.6233978309,450
0.5538925064,451
0.5136446813,452
0.3423726779,453
0.3313910602,454
0.4259579017,455
0.2383670568,456
0.2934940181,457
0.2496094928,458
0.3476992038,459
0.2986547137,460
0.3325959158,461
0.222869795,462
0.3226309216,463
0.3434700408,464
0.6332469175,465
0.3023204425,466
0.5180239,467
0.5611258216,468
0.4013389638,469
0.4309056677,470
0.5819482213,471
0.4770084449,472
0.4154479336,473
0.3377024554,474
0.2270330531,475
0.2772800914,476
0.1853199451,477
0.02821273745,478
0.01787194335,479
0.005765627356,480
0.006306521995,481
0.4758429049,482
0.4254144972,483
0.5379622871,484
0.602328569,485
0.5372005447,486
0.6244613319,487
0.5506794959,488
0.5278381928,489
0.3270419039,490
0.3256526151,491
0.4251018215,492
0.2378669822,493
0.297626333,494
0.2451964597,495
0.3460041799,496
0.3217103527,497
0.3085983825,498
0.2414256181,499
0.3129600466,500
0.3441492055,501
0.6244596112,502
0.3154913225,503
0.5506045587,504
0.5291750978,505
0.4065498027,506
0.4485985559,507
0.5528025456,508
0.4889943487,509
0.4193262514,510
0.3205048039,511
0.2196391816,512
0.2830263549,513
0.2174014988,514
0.3793952562,515
0.317759084,516
0.2442994827,517
0.2451076516,518
0.4947699579,519
0.5112937394,520
0.4623315353,521
0.6273148115,522
0.5186177553,523
0.644803282,524
0.5160950083,525
0.5156585564,526
0.3432577181,527
0.3804259149,528
0.3551191236,529
0.2675599482,530
0.273455625,531
0.2575634719,532
0.3376270912,533
0.3486549778,534
0.2774080923,535
0.2494657106,536
0.3231045299,537
0.338174182,538
0.6366683563,539
0.2835295423,540
0.5871047379,541
0.5040279644,542
0.3933965997,543
0.5177294599,544
0.4974250591,545
0.4779894219,546
0.4204056085,547
0.3277940517,548
0.2160610438,549
0.2878443535,550
0.1544363561,551
0.02834625789,552
0.01385084737,553
0.006245038086,554
0.02751969276,555
0.4850642629,556
0.5180393722,557
0.4649267507,558
0.6160878018,559
0.5753809418,560
0.6335046277,561
0.5142993746,562
0.4810490578,563
0.3493303412,564
0.402428882,565
0.3251844856,566
0.2673229146,567
0.2681077612,568
0.2602192348,569
0.3383170839,570
0.3530210677,571
0.2672123681,572
0.2549479351,573
0.3332737489,574
0.3784658836,575
0.6139518484,576
0.3320754172,577
0.5636926671,578
0.5062523507,579
0.3863046631,580
0.5344648811,581
0.5134064835,582
0.4502691739,583
0.4251714137,584
0.3033998769,585
0.2419859282,586
0.2711598238,587
0.1401870523,588
0.02656551865,589
0.01261292646,590
0.006574208113,591
0.1214082908,592
0.4849666411,593
0.5388593085,594
0.4532241336,595
0.6253618167,596
0.5738885642,597
0.6153233445,598
0.5375571833,599
0.4668724506,600
0.3187615048,601
0.408484146,602
0.3200169821,603
0.2870447151,604
0.2464017363,605
0.262494416,606
0.3386377707,607
0.3633886639,608
0.2551829334,609
0.2535298905,610
0.3425315211,611
0.3865657268,612
0.6013052044,613
0.3600061846,614
0.58325584,615
0.5014758137,616
0.3290187123,617
0.5382463517,618
0.5482285767,619
0.41791813,620
0.4514711861,621
0.233743301,622
0.2564143791,623
0.2619535439,624
0.1310481701,625
0.02463517746,626
0.0123945447,627
0.006512133209,628
0.2041690343,629
0.4577325417,630
0.5479147357,631
0.4492593762,632
0.6603901912,633
0.5324396129,634
0.6150934313,635
0.5394985849,636
0.4806278798,637
0.2919812571,638
0.409289826,639
0.3194000238,640
0.2898023154,641
0.2555675166,642
0.2471485246,643
0.3701060535,644
0.3328042128,645
0.2790002815,646
0.2227783508,647
0.3620282925,648
0.436606906,649
0.5595425407,650
0.3614276772,651
0.6195945155,652
0.4681646644,653
0.3463778802,654
0.5286443082,655
0.5354722984,656
0.4411260623,657
0.4268833468,658
0.2290053359,659
0.2705888285,660
0.2475559482,661
0.311785458,662
0.3306192502,663
0.2805654171,664
0.2843362666,665
0.3193588891,666
0.4775225278,667
0.5650951594,668
0.3327816117,669
0.5925155894,670
0.625249036,671
0.5969465334,672
0.5126823462,673
0.4837236612,674
0.2955882854,675
0.4152907548,676
0.4045521916,677
0.2904244962,678
0.2402059204,679
0.193559048,680
0.3201354044,681
0.293783922,682
0.29002078,683
0.2305739902,684
0.3880574306,685
0.4358551645,686
0.5332505831,687
0.4194896306,688
0.5927927096,689
0.6313286627,690
0.7019780646,691
0.6769000952,692
0.4286459524,693
0.3182529927,694
0.4151005528,695
0.3770786792,696
0.2975919872,697
0.2079017712,698
0.05761631098,699
0.01882318378,700
0.008533693178,701
0.003991417436,702
0.2647209325,703
0.4764116339,704
0.5679671689,705
0.4071369434,706
0.5536804821,707
0.6734622902,708
0.5699128128,709
0.5237856904,710
0.4389850029,711
0.3062991839,712
0.4420568781,713
0.3627409058,714
0.2873556403,715
0.2500613766,716
0.182227526,717
0.3152995588,718
0.3116996418,719
0.2765042082,720
0.2293150484,721
0.4089667388,722
0.4936821308,723
0.4630142353,724
0.4620353367,725
0.5655675784,726
0.653547272,727
0.6745460614,728
0.6940396398,729
0.4009211126,730
0.3131626265,731
0.4331713678,732
0.360451594,733
0.2960834412,734
0.1924420516,735
0.05609493966,736
0.01888160456,737
0.005755772379,738
0.003406228291,739
0.2915183122,740
0.4857955719,741
0.550917877,742
0.4296597506,743
0.55304062,744
0.6680497364,745
0.5733068692,746
0.5479150167,747
0.3988153238,748
0.3060251102,749
0.4473223939,750
0.345934708,751
0.2933972144,752
0.258314261,753
0.1858173173,754
0.3130249477,755
0.3254851311,756
0.2644331108,757
0.2071522145,758
0.421592164,759
0.4961149634,760
0.4493149169,761
0.467607368,762
0.6031613948,763
0.6585083109,764
0.664889057,765
0.6628199743,766
0.4264842181,767
0.2983478882,768
0.4466889692,769
0.355870429,770
0.2571179579,771
0.1903751339,772
0.05355128903,773
0.01898158229,774
0.004528907254,775
0.003284934471,776
0.3068098693,777
0.4971388245,778
0.5352978924,779
0.4791073146,780
0.5103433519,781
0.6770523496,782
0.5603728196,783
0.5554990098,784
0.4051116045,785
0.2875517647,786
0.4456840982,787
0.3459756291,788
0.3079475691,789
0.2440398822,790
0.1860432397,791
0.3376377294,792
0.3055188272,793
0.2610294458,794
0.2222357182,795
0.4170906013,796
0.5540150068,797
0.3827043494,798
0.4970179901,799
0.6111191027,800
0.6451917939,801
0.7001676561,802
0.6057560427,803
0.4300430945,804
0.3300980646,805
0.4189247931,806
0.354926406,807
0.2376449471,808
0.2010758732,809
0.3041796113,810
0.2756234343,811
0.2404785908,812
0.2142367007,813
0.3759678625,814
0.5196703512,815
0.4763776928,816
0.5319176898,817
0.4666801248,818
0.6963498719,819
0.5337582802,820
0.5327880194,821
0.4115831161,822
0.2924138942,823
0.4302097692,824
0.3527496633,825
0.3188803095,826
0.233997062,827
0.1841892826,828
0.3554069901,829
0.2945616842,830
0.2364428073,831
0.2753307277,832
0.3853581547,833
0.5734745147,834
0.3630529945,835
0.5308594009,836
0.5863133509,837
0.6439113106,838
0.7391427309,839
0.6011197034,840
0.3612748605,841
0.3904287005,842
0.4048372823,843
0.3139961206,844
0.2340083197,845
0.1941790008,846
0.03883051558,847
0.01488922712,848
0.004235402818,849
0.003031474898,850
0.3813572548,851
0.5200149585,852
0.4780719958,853
0.5462160171,854
0.5220513549,855
0.6824279091,856
0.5372551391,857
0.5130765521,858
0.3787998628,859
0.2979249681,860
0.4245353362,861
0.3689912402,862
0.3006421918,863
0.2436377612,864
0.2301274952,865
0.3278641527,866
0.2906026706,867
0.226157241,868
0.3186098188,869
0.3473793039,870
0.6130381994,871
0.3063085089,872
0.5292751243,873
0.6382593674,874
0.6390780688,875
0.7045669079,876
0.6224237254,877
0.3132021552,878
0.3907216511,879
0.4078503465,880
0.292489783,881
0.2357246767,882
0.1916719117,883
0.0369392976,884
0.01428434562,885
0.003918716349,886
0.003018294992,887
0.3913007075,888
0.5311718055,889
0.4643962292,890
0.5693984176,891
0.5196985206,892
0.6686643541,893
0.5522984635,894
0.5229143588,895
0.3347009978,896
0.3108493835,897
0.4228120845,898
0.3851841456,899
0.2915929555,900
0.2161580621,901
0.2700480981,902
0.3178589151,903
0.2656666685,904
0.2256810943,905
0.3299360239,906
0.3442740478,907
0.6231571051,908
0.3135469541,909
0.5264398195,910
0.6717776172,911
0.6528280809,912
0.6928949064,913
0.5715411659,914
0.3134974483,915
0.4239245853,916
0.3707877878,917
0.2878574566,918
0.2471840395,919
0.1771312653,920
0.03635051278,921
0.01377668246,922
0.003804795527,923
0.003140266053,924
0.4276579849,925
0.5155555669,926
0.446509628,927
0.6093347459,928
0.48117452,929
0.6805350372,930
0.5329475982,931
0.5327173051,932
0.3374332217,933
0.2938996251,934
0.4384911864,935
0.3636683162,936
0.3003348762,937
0.1933742181,938
0.2864867421,939
0.3118747063,940
0.2560440615,941
0.2269171073,942
0.3337816229,943
0.3585738613,944
0.6269012024,945
0.3005450109,946
0.5724363426,947
0.6352270604,948
0.6768323464,949
0.7220426036,950
0.4972214781,951
0.3248666917,952
0.4303352298,953
0.3425561398,954
0.2919200179,955
0.2560321799,956
0.1723660534,957
0.3115356744,958
0.2682249635,959
0.2393252983,960
0.2233068481,961
0.4858507805,962
0.4678339678,963
0.4324018515,964
0.6061186749,965
0.5352796253,966
0.6750954433,967
0.5067366122,968
0.5080043175,969
0.3546729105,970
0.2905659051,971
0.463722334,972
0.3490408046,973
0.2661107138,974
0.1883654052,975
0.3115529303,976
0.2886751483,977
0.2556734109,978
0.2381920503,979
0.350359069,980
0.3457366767,981
0.6316233534,982
0.2967494969,983
0.5840327624,984
0.6567031116,985
0.6428602805,986
0.7429419141,987
0.4709235203,988
0.3129628634,989
0.4340553996,990
0.340418201,991
0.3056113329,992
0.2497280599,993
0.14249284,994
0.02261900486,995
0.01167977904,996
0.00393260946,997
0.0581819903,998
0.5074253082,999
0.5103924261,1000
0.3728237212,1001
0.6154083947,1002
0.5850975651,1003
0.6423501489,1004
0.5201668159,1005
0.475036348,1006
0.3455821871,1007
0.3297326774,1008
0.4341909206,1009
0.3613924425,1010
0.2397350552,1011
0.1983706234,1012
0.3121818266,1013
0.281809769,1014
0.2574801236,1015
0.2558494611,1016
0.3577938804,1017
0.379886332,1018
0.5983961326,1019
0.3451698865,1020
0.5633932213,1021
0.6914371541,1022
0.6322715648,1023
0.7042981723,1024
0.4803709451,1025
0.3124355054,1026
0.4270922559,1027
0.3434318322,1028
0.3175899588,1029
0.2400293,1030
0.1209576867,1031
0.02342389898,1032
0.00941118113,1033
0.004094604648,1034
0.1306002895,1035
0.5224143683,1036
0.5331922393,1037
0.328482911,1038
0.6166178014,1039
0.5837028194,1040
0.6314123875,1041
0.5396512001,1042
0.4758708078,1043
0.308990245,1044
0.4034160944,1045
0.4028288074,1046
0.3252318569,1047
0.2338167487,1048
0.1986043666,1049
0.3134093465,1050
0.2823547551,1051
0.2706754131,1052
0.2510261617,1053
0.3642161719,1054
0.3802838981,1055
0.5946569887,1056
0.3568548371,1057
0.6062394121,1058
0.6542865422,1059
0.6754099405,1060
0.6649065507,1061
0.4798799071,1062
0.3021252597,1063
0.4177396179,1064
0.3628694996,1065
0.3065260412,1066
0.2449029327,1067
0.07619666052,1068
0.02256709969,1069
0.008722212912,1070
0.004158939907,1071
0.2346357492,1072
0.4834106399,1073
0.5497166756,1074
0.311826837,1075
0.6132686783,1076
0.5992867299,1077
0.6229060778,1078
0.5302023853,1079
0.4907687121,1080
0.2913530512,1081
0.4029195825,1082
0.4204597329,1083
0.2941381843,1084
0.2336141154,1085
0.1981052967,1086
0.314843789,1087
0.2842221473,1088
0.2926186499,1089
0.231652054,1090
0.3685420828,1091
0.4508057433,1092
0.5391729483,1093
0.3733785377,1094
0.6219220857,1095
0.6268696959,1096
0.6985886134,1097
0.6601793132,1098
0.4550500577,1099
0.3055769549,1100
0.4119664192,1101
0.3780470565,1102
0.2962359438,1103
0.2281784113,1104
0.1884152153,1105
0.320735493,1106
0.2644796582,1107
0.2295930736,1108
0.3022109046,1109
0.4681342962,1110
0.5691033373,1111
0.3532419559,1112
0.573751649,1113
0.6544418996,1114
0.5865238588,1115
0.5157806706,1116
0.4725629842,1117
0.2994450768,1118
0.42885834,1119
0.3877705273,1120
0.2881425189,1121
0.2407164041,1122
0.1868494907,1123
0.3176728469,1124
0.2982472681,1125
0.2854212617,1126
0.2344878995,1127
0.3902437431,1128
0.4541563272,1129
0.5188875087,1130
0.4458354248,1131
0.5738262565,1132
0.638938151,1133
0.6942357481,1134
0.6816932335,1135
0.4145276584,1136
0.3214392796,1137
0.4238054924,1138
0.3680441844,1139
0.3022894131,1140
0.1992963207,1141
0.05780190232,1142
0.01869027835,1143
0.007720288524,1144
0.003637203571,1145
0.2715724829,1146
0.4828995645,1147
0.5597035066,1148
0.4265039983,1149
0.5458197238,1150
0.6754603149,1151
0.5686164884,1152
0.5337286245,1153
0.4196094525,1154
0.3128378257,1155
0.4455115835,1156
0.3531184786,1157
0.2876135956,1158
0.25138427,1159
0.1866298235,1160
0.3130304111,1161
0.3268590424,1162
0.2635170385,1163
0.2215441508,1164
0.4207506207,1165
0.4971508086,1166
0.4526795122,1167
0.4649406706,1168
0.5768629793,1169
0.6586392176,1170
0.6681677619,1171
0.6876114142,1172
0.4082736414,1173
0.3061836508,1174
0.4496255679,1175
0.3493070595,1176
0.2817101099,1177
0.1906856142,1178
0.05464322989,1179
0.01900215879,1180
0.004903463192,1181
0.003331572469,1182
0.3026612326,1183
0.4799101555,1184
0.5526623713,1185
0.4370288364,1186
0.5503098248,1187
0.6665912637,1188
0.5732626054,1189
0.5536457639,1190
0.3971637012,1191
0.296793287,1192
0.450416738,1193
0.3448025043,1194
0.3008931694,1195
0.2572006739,1196
0.1892825404,1197
0.3200753025,1198
0.3206451975,1199
0.2715119706,1200
0.2108640042,1201
0.4269528085,1202
0.51517594,1203
0.4331740535,1204
0.4832080092,1205
0.6144630754,1206
0.6326908054,1207
0.6483143073,1208
0.6038911919,1209
0.4129196378,1210
0.4196435538,1211
0.5283446266,1212
0.4124828523,1213
0.4627918515,1214
0.2269884856,1215
0.2196776867,1216
0.2169709768,1217
0.2100368693,1218
0.2290456015,1219
0.3999776521,1220
0.5238493284,1221
0.5283105468,1222
0.5910694716,1223
0.6034779458,1224
0.6870725939,1225
0.5129767243,1226
0.4510934759,1227
0.3653282472,1228
0.283527872,1229
0.4747731727,1230
0.3918271379,1231
0.4428901693,1232
0.3233616379,1233
0.307949524,1234
0.5133814716,1235
0.3449118362,1236
0.380008368,1237
0.2264682064,1238
0.4371337799,1239
0.5547917611,1240
0.3651971282,1241
0.4769663105,1242
0.6774233378,1243
0.6012362591,1244
0.7216790814,1245
0.5607606266,1246
0.4311180787,1247
0.4582008175,1248
0.5132685204,1249
0.3274160052,1250
0.4111622968,1251
0.178596852,1252
0.2810892706,1253
0.2695994641,1254
0.2255105721,1255
0.294965639,1256
0.3718845232,1257
0.4437653567,1258
0.5855668717,1259
0.5605538819,1260
0.4889841256,1261
0.6012211488,1262
0.5801509199,1263
0.51908963,1264
0.435925509,1265
0.3809929541,1266
0.5186800534,1267
0.3179204632,1268
0.3138220095,1269
0.3410183853,1270
0.3776279083,1271
0.2825627234,1272
0.3907068879,1273
0.2802973082,1274
0.302536538,1275
0.4026496536,1276
0.5861654307,1277
0.3306455319,1278
0.5195130161,1279
0.5364820294,1280
0.4230907884,1281
0.456779859,1282
0.5522044932,1283
0.4538917091,1284
0.4900281006,1285
0.3759611379,1286
0.3424012675,1287
0.2757452627,1288
0.2106767911,1289
0.09453118445,1290
0.08457601285,1291
0.07785609627,1292
0.06905130983,1293
0.427003371,1294
0.4642876539,1295
0.5805304734,1296
0.5551706558,1297
0.5695873035,1298
0.5937480969,1299
0.5664715509,1300
0.524217506,1301
0.3699328952,1302
0.3716169254,1303
0.479578944,1304
0.2875191823,1305
0.3267902273,1306
0.2764392029,1307
0.3647255748,1308
0.2932460244,1309
0.3185378808,1310
0.2475851051,1311
0.3252911082,1312
0.3622867743,1313
0.6266976695,1314
0.3129752202,1315
0.5347336803,1316
0.5686187726,1317
0.4005962041,1318
0.4416670191,1319
0.5766626995,1320
0.4638705126,1321
0.4660812555,1322
0.3832459328,1323
0.2434771495,1324
0.301336559,1325
0.2022432809,1326
0.05430937244,1327
0.04915737379,1328
0.04584331681,1329
0.03096520885,1330
0.4799230501,1331
0.4373192691,1332
0.5402642553,1333
0.5816248558,1334
0.5517523959,1335
0.6095969125,1336
0.5606822731,1337
0.5257499628,1338
0.3392392008,1339
0.3690549689,1340
0.4631418481,1341
0.2785141375,1342
0.3184044052,1343
0.2549108766,1344
0.3487318376,1345
0.306593773,1346
0.3218853737,1347
0.227534751,1348
0.3241267098,1349
0.3514128383,1350
0.6262878863,1351
0.3255642536,1352
0.5413696368,1353
0.5408966383,1354
0.4093182137,1355
0.4376761334,1356
0.5724700832,1357
0.4929678723,1358
0.4579631491,1359
0.36251238,1360
0.2463767663,1361
0.286255438,1362
0.185506041,1363
0.05118489848,1364
0.04456644756,1365
0.03120963002,1366
0.02269844582,1367
0.4888907127,1368
0.4997481115,1369
0.4848496664,1370
0.6311056612,1371
0.5203705518,1372
0.6456042302,1373
0.5273774027,1374
0.5303644484,1375
0.3407122244,1376
0.3963777433,1377
0.4159041935,1378
0.2904471305,1379
0.2854606958,1380
0.2637729273,1381
0.3357487319,1382
0.3449755738,1383
0.2827218427,1384
0.2500892644,1385
0.3200547976,1386
0.3594599781,1387
0.6482072691,1388
0.2900843843,1389
0.5815850376,1390
0.5090723642,1391
0.3956315636,1392
0.5025034307,1393
0.5126660662,1394
0.489872376,1395
0.4622754408,1396
0.3604939398,1397
0.2358836492,1398
0.2901488724,1399
0.2150480223,1400
0.3873421028,1401
0.308916709,1402
0.237900291,1403
0.2452939691,1404
0.5123297027,1405
0.547085393,1406
0.4712666742,1407
0.6289334891,1408
0.5579671387,1409
0.6408239263,1410
0.5061628342,1411
0.4983662585,1412
0.355609765,1413
0.4419326469,1414
0.3643930879,1415
0.2889641972,1416
0.2787778595,1417
0.2673119065,1418
0.3258270454,1419
0.3327581451,1420
0.2687505206,1421
0.2376402359,1422
0.3394296223,1423
0.3774339758,1424
0.6304829938,1425
0.3031678035,1426
0.5852195804,1427
0.5003035402,1428
0.3919652778,1429
0.5312775926,1430
0.5135637837,1431
0.4720165152,1432
0.4616930008,1433
0.34744186,1434
0.2518131056,1435
0.2916862391,1436
0.1538188522,1437
0.06867741807,1438
0.06736775062,1439
0.04402264996,1440
0.09954795521,1441
0.5021997951,1442
0.5484370993,1443
0.4651954836,1444
0.6291846865,1445
0.5966202078,1446
0.6249280343,1447
0.5433060731,1448
0.4875393379,1449
0.3335862781,1450
0.42129452,1451
0.3408840983,1452
0.2677954051,1453
0.2479383592,1454
0.2528698974,1455
0.3177755767,1456
0.3390263422,1457
0.2509779232,1458
0.2347908107,1459
0.3471375041,1460
0.410528678,1461
0.5998193132,1462
0.34983567,1463
0.5811539734,1464
0.5207761812,1465
0.3984504395,1466
0.5585046536,1467
0.54492167,1468
0.4395690664,1469
0.4754263149,1470
0.2866169671,1471
0.2633185279,1472
0.2729466801,1473
0.1429492944,1474
0.08363905609,1475
0.07043815983,1476
0.04901009817,1477
0.1909720904,1478
0.4601072791,1479
0.5315626074,1480
0.4115340394,1481
0.6502385118,1482
0.5655910579,1483
0.6177687053,1484
0.5582975116,1485
0.4852907304,1486
0.3003017903,1487
0.4560179156,1488
0.3657866225,1489
0.3260964865,1490
0.2641502799,1491
0.2607787974,1492
0.3340808709,1493
0.3646497333,1494
0.259170102,1495
0.2501949177,1496
0.3594993058,1497
0.410132261,1498
0.5558891114,1499
0.359676192,1500
0.6314805937,1501
0.4891076336,1502
0.3532892647,1503
0.5604751785,1504
0.5370131215,1505
0.4471821615,1506
0.4715515519,1507
0.2858247204,1508
0.2846706364,1509
0.2525759663,1510
0.149474789,1511
0.1048576188,1512
0.08380997377,1513
0.04905257948,1514
0.2556139917,1515
0.4857973609,1516
0.5848910844,1517
0.4586424335,1518
0.6417329332,1519
0.5779197954,1520
0.6140595494,1521
0.5512200803,1522
0.4824522826,1523
0.2880573354,1524
0.4508109866,1525
0.3850564808,1526
0.2783929473,1527
0.2817616829,1528
0.2290657509,1529
0.3876156181,1530
0.3460210312,1531
0.2973718369,1532
0.2345428629,1533
0.3870416165,1534
0.4481446428,1535
0.5263010737,1536
0.4025754475,1537
0.598587889,1538
0.5170230351,1539
0.4358886226,1540
0.528216402,1541
0.5275313083,1542
0.4382104472,1543
0.4641755653,1544
0.2675753894,1545
0.3033973075,1546
0.2498404114,1547
0.3543354627,1548
0.3225646688,1549
0.302222354,1550
0.2920673165,1551
0.32211014,1552
0.5124273622,1553
0.5756316702,1554
0.5443477764,1555
0.5965111248,1556
0.6271479798,1557
0.5633816598,1558
0.5511005761,1559
0.4459218268,1560
0.3030127797,1561
0.4644362337,1562
0.3867260963,1563
0.2768624255,1564
0.3045245852,1565
0.2388739927,1566
0.3982612397,1567
0.3203275684,1568
0.3005800702,1569
0.2186702397,1570
0.4182269323,1571
0.5171117842,1572
0.5060773352,1573
0.4639664089,1574
0.5665372015,1575
0.4888159735,1576
0.4287062211,1577
0.5399995294,1578
0.5382737898,1579
0.4601410764,1580
0.4698920539,1581
0.3186297129,1582
0.3050612067,1583
0.2752035704,1584
0.1248352468,1585
0.1184704586,1586
0.08748992477,1587
0.07264223898,1588
0.2928770427,1589
0.4948903678,1590
0.56421293,1591
0.5392648909,1592
0.6237495875,1593
0.6046688302,1594
0.5814003313,1595
0.5439544408,1596
0.4170263656,1597
0.3244327871,1598
0.4611406377,1599
0.3880779856,1600
0.2915447465,1601
0.3235917499,1602
0.2389602753,1603
0.4246101635,1604
0.2945106862,1605
0.3219845923,1606
0.2102783442,1607
0.4421206527,1608
0.5013084415,1609
0.4407408048,1610
0.4798249939,1611
0.5975796405,1612
0.4484541143,1613
0.4354423224,1614
0.5504644475,1615
0.5379395695,1616
0.4975615194,1617
0.4083459247,1618
0.3239547973,1619
0.2940405043,1620
0.2695379359,1621
0.1344773123,1622
0.12829007,1623
0.1052658238,1624
0.06213641811,1625
0.2968046233,1626
0.5123461256,1627
0.5782647876,1628
0.5474901845,1629
0.6108505334,1630
0.6059661303,1631
0.5837953697,1632
0.5620839337,1633
0.4110282131,1634
0.3099180533,1635
0.4882454113,1636
0.4245809497,1637
0.3139088786,1638
0.340330052,1639
0.2717954091,1640
0.4491927948,1641
0.3305477158,1642
0.3258195334,1643
0.2550422219,1644
0.467413108,1645
0.5491195653,1646
0.4422217416,1647
0.4983027171,1648
0.6421055421,1649
0.4149603168,1650
0.4925745315,1651
0.5274630753,1652
0.5246046595,1653
0.5098860121,1654
0.4272246018,1655
0.3580334302,1656
0.2642299774,1657
0.2771012173,1658
0.1078786226,1659
0.112339061,1660
0.09123012613,1661
0.06758006274,1662
0.3155577513,1663
0.543025389,1664
0.6176484701,1665
0.5763805941,1666
0.5465196237,1667
0.6503040933,1668
0.5706321821,1669
0.5459628421,1670
0.4045591554,1671
0.283250886,1672
0.5213840661,1673
0.3439073416,1674
0.3134662248,1675
0.2677113507,1676
0.3219229694,1677
0.3377588034,1678
0.3170219417,1679
0.2435253402,1680
0.2599687997,1681
0.4563390888,1682
0.6295742895,1683
0.407938637,1684
0.5382072627,1685
0.5672626845,1686
0.40895489,1687
0.457390532,1688
0.5459440069,1689
0.4634332083,1690
0.4919126968,1691
0.3957633664,1692
0.3043735118,1693
0.2555836663,1694
0.2295433485,1695
0.3426639738,1696
0.3660728673,1697
0.2757190917,1698
0.2267618716,1699
0.4250450759,1700
0.5249821241,1701
0.6256268823,1702
0.5611751056,1703
0.5627556759,1704
0.6485695379,1705
0.5755400521,1706
0.5099264051,1707
0.3822720709,1708
0.3359908967,1709
0.4931954773,1710
0.3140949305,1711
0.3127346702,1712
0.2722256524,1713
0.3369557888,1714
0.3149954639,1715
0.3146010191,1716
0.2226176713,1717
0.3189275277,1718
0.4497625281,1719
0.6745954918,1720
0.3744776628,1721
0.5392458833,1722
0.5618896704,1723
0.3934632933,1724
0.4600857782,1725
0.5592191317,1726
0.465023167,1727
0.4901345584,1728
0.3904260914,1729
0.2962994385,1730
0.2815610538,1731
0.2360895789,1732
0.1306860361,1733
0.1212226599,1734
0.08660844771,1735
0.05904989088,1736
0.4376943083,1737
0.5149729496,1738
0.5682957446,1739
0.5649656264,1740
0.5816775672,1741
0.5970797581,1742
0.5164767876,1743
0.5130670045,1744
0.3555951197,1745
0.3551829726,1746
0.4810460509,1747
0.3071506898,1748
0.3217746334,1749
0.2656496756,1750
0.3794696175,1751
0.3404935991,1752
0.3615013497,1753
0.2432247118,1754
0.3341919367,1755
0.3918982213,1756
0.6293711387,1757
0.3023499363,1758
0.522932181,1759
0.5649177866,1760
0.385813392,1761
0.4350804359,1762
0.5739217941,1763
0.4873655872,1764
0.4720556799,1765
0.3823618151,1766
0.2518826407,1767
0.286693097,1768
0.2170805962,1769
0.1399581928,1770
0.1416792748,1771
0.1006880918,1772
0.06509269023,1773
0.4988264843,1774
0.4743143551,1775
0.5548009399,1776
0.6343350153,1777
0.5350363329,1778
0.6278398714,1779
0.5553897546,1780
0.5357011612,1781
0.3361402709,1782
0.3962982313,1783
0.4813065702,1784
0.3214229335,1785
0.3295643319,1786
0.2714740281,1787
0.3702264065,1788
0.3484464356,1789
0.3483243652,1790
0.2588931526,1791
0.3392543238,1792
0.4169377502,1793
0.6471751662,1794
0.3561861288,1795
0.5575994005,1796
0.5276471886,1797
0.4285512707,1798
0.4536699073,1799
0.5513449123,1800
0.5025431873,1801
0.512519627,1802
0.408782518,1803
0.2666747149,1804
0.3109570214,1805
0.2088771917,1806
0.1576036323,1807
0.1442887323,1808
0.09410562672,1809
0.07555695549,1810
0.5159643479,1811
0.5629527505,1812
0.4821140137,1813
0.6362901265,1814
0.5211176184,1815
0.6534150281,1816
0.4995074966,1817
0.5317353774,1818
0.3540686508,1819
0.4432236842,1820
0.4273635757,1821
0.3416425511,1822
0.3045792062,1823
0.281551734,1824
0.342016309,1825
0.3474447727,1826
0.2966896492,1827
0.2589876859,1828
0.3440034053,1829
0.4040477629,1830
0.6439230112,1831
0.3098642934,1832
0.5848049298,1833
0.5308706728,1834
0.4352048302,1835
0.521912855,1836
0.5072888075,1837
0.4812226965,1838
0.4661508176,1839
0.3578922897,1840
0.256125392,1841
0.2880501917,1842
0.2360574991,1843
0.4439282943,1844
0.2933013831,1845
0.2339871947,1846
0.2748120148,1847
0.5190504312,1848
0.5009357636,1849
0.3655339414,1850
0.6279869304,1851
0.5491307014,1852
0.6588993652,1853
0.5098074188,1854
0.5063667239,1855
0.3721191815,1856
0.3647328553,1857
0.4328508213,1858
0.4037668296,1859
0.279241949,1860
0.2194092851,1861
0.3354111331,1862
0.3226536454,1863
0.2788379073,1864
0.2606141107,1865
0.3506234772,1866
0.4487673204,1867
0.5813212734,1868
0.364039297,1869
0.5509356732,1870
0.6651840896,1871
0.5840227823,1872
0.6580869734,1873
0.4473441621,1874
0.3106512468,1875
0.4789164992,1876
0.3579790265,1877
0.3743320477,1878
0.2667431164,1879
0.178380184,1880
0.1428624094,1881
0.1438619962,1882
0.09919347,1883
0.1440109975,1884
0.5535499302,1885
0.5285146047,1886
0.3449481576,1887
0.6173824977,1888
0.5773619029,1889
0.6358123214,1890
0.5564734441,1891
0.4902837667,1892
0.3259447242,1893
0.4233194344,1894
0.4815962429,1895
0.3837400339,1896
0.2729956629,1897
0.2071315714,1898
0.3495116949,1899
0.3206496864,1900
0.3012128601,1901
0.2710364674,1902
0.3737269721,1903
0.4503430461,1904
0.5819126789,1905
0.3762893921,1906
0.5819188917,1907
0.6771346409,1908
0.6253206427,1909
0.623618034,1910
0.4528338906,1911
0.3170180357,1912
0.4582579596,1913
0.4308991562,1914
0.3368238245,1915
0.2647109769,1916
0.1384836812,1917
0.1706119258,1918
0.1470474745,1919
0.1121733913,1920
0.2340301233,1921
0.5174191569,1922
0.5473549918,1923
0.335632051,1924
0.6142242808,1925
0.5978201191,1926
0.6172892975,1927
0.538984785,1928
0.5155858592,1929
0.3058203945,1930
0.4591967508,1931
0.4870595209,1932
0.3434733944,1933
0.2688785645,1934
0.2159105096,1935
0.3320248046,1936
0.3052683765,1937
0.2915325063,1938
0.2466780623,1939
0.4012187782,1940
0.5062309216,1941
0.5315751929,1942
0.3850291274,1943
0.6151264983,1944
0.6199361086,1945
0.6718111502,1946
0.6037582906,1947
0.4222635839,1948
0.3086149313,1949
0.4521480744,1950
0.3957872041,1951
0.3183131412,1952
0.257741527,1953
0.1314414538,1954
0.1773913947,1955
0.1544733875,1956
0.1141133467,1957
0.2682784411,1958
0.5246512699,1959
0.5641619834,1960
0.3704149416,1961
0.581955527,1962
0.6337583927,1963
0.5880662855,1964
0.5303343428,1965
0.5112703826,1966
0.310381319,1967
0.4814690694,1968
0.4522228221,1969
0.3130258508,1970
0.2609496062,1971
0.1995527451,1972
0.345703209,1973
0.3374712078,1974
0.3171965765,1975
0.2536829682,1976
0.4066979618,1977
0.5107095409,1978
0.4995301298,1979
0.4427730243,1980
0.5845761466,1981
0.6191248164,1982
0.674452595,1983
0.6400695322,1984
0.3976071525,1985
0.3351196287,1986
0.4557746816,1987
0.4013239159,1988
0.3165401008,1989
0.2023460551,1990
0.288869997,1991
0.3391213792,1992
0.2865567781,1993
0.2424084681,1994
0.3232285279,1995
0.5336491472,1996
0.5581106937,1997
0.4504989523,1998
0.5473102318,1999
0.6805085624,2000
0.554906309,2001
0.5358824231,2002
0.4426497557,2003
0.3237472513,2004
0.5023243125,2005
0.3948008059,2006
0.3294361307,2007
0.2919447633,2008
0.1950659064,2009
0.3486652107,2010
0.3387578461,2011
0.3073040803,2012
0.2403680568,2013
0.4369543452,2014
0.528215411,2015
0.4832673729,2016
0.4661322065,2017
0.5811527475,2018
0.6517284307,2019
0.6214882055,2020
0.6523975337,2021
0.3791383127,2022
0.3412726934,2023
0.5082558198,2024
0.4126216131,2025
0.3348621654,2026
0.2132780373,2027
0.1331457211,2028
0.158726655,2029
0.1537348408,2030
0.09704366867,2031
0.303552898,2032
0.4990177156,2033
0.5626799284,2034
0.4452838049,2035
0.5558074398,2036
0.6638334259,2037
0.5601986845,2038
0.5604588809,2039
0.4117227794,2040
0.320176878,2041
0.5025114338,2042
0.4089759628,2043
0.3304606434,2044
0.2745817964,2045
0.2060074776,2046
0.3575750899,2047
0.3589771916,2048
0.3004981966,2049
0.2210973235,2050
0.4534031852,2051
0.5256746689,2052
0.479659668,2053
0.4820988738,2054
0.6123761144,2055
0.6167915998,2056
0.6218054832,2057
0.6163527744,2058
0.4382481758,2059
0.3269906792,2060
0.4642700202,2061
0.3660609172,2062
0.2642801458,2063
0.1930528246,2064
0.1530051097,2065
0.1644664726,2066
0.1383080514,2067
0.09182636384,2068
0.3324273035,2069
0.4878147537,2070
0.5726067409,2071
0.4316189553,2072
0.538891703,2073
0.6977449811,2074
0.5627789172,2075
0.5572131586,2076
0.4208126206,2077
0.2947518177,2078
0.4617550023,2079
0.4054960387,2080
0.3534755748,2081
0.2706437681,2082
0.1784790698,2083
0.2923904896,2084
0.2753123262,2085
0.2427527617,2086
0.2174487002,2087
0.48372646,2088
0.5613162656,2089
0.4308817089,2090
0.5051205659,2091
0.6178020057,2092
0.621158912,2093
0.6486753768,2094
0.553008577,2095
0.4005198972,2096
0.3523210733,2097
0.397815724,2098
0.3402968453,2099
0.232825466,2100
0.1915526632,2101
0.1354201391,2102
0.1598202574,2103
0.1227058903,2104
0.09467363142,2105
0.3786405723,2106
0.5781984355,2107
0.4692783159,2108
0.5679782368,2109
0.4524142818,2110
0.7145013217,2111
0.5194273011,2112
0.5328657412,2113
0.4165042185,2114
0.3027703164,2115
0.5131158676,2116
0.435202167,2117
0.3709387575,2118
0.2662362597,2119
0.2168817872,2120
0.3838500638,2121
0.3551766823,2122
0.2629779946,2123
0.2889788345,2124
0.4483216351,2125
0.5655507337,2126
0.3377521121,2127
0.5533027251,2128
0.5880672631,2129
0.6061277228,2130
0.6510147034,2131
0.5478882939,2132
0.358542267,2133
0.4300382291,2134
0.4777776572,2135
0.3636595968,2136
0.2853960345,2137
0.2360136917,2138
0.333249081,2139
0.28956688,2140
0.2431648462,2141
0.2205823215,2142
0.3788161831,2143
0.5558972746,2144
0.4710465436,2145
0.5466429246,2146
0.5119903614,2147
0.7014237925,2148
0.5316323264,2149
0.508957488,2150
0.375111767,2151
0.3351362495,2152
0.5073015267,2153
0.4726295864,2154
0.3623565138,2155
0.2706080174,2156
0.2322083302,2157
0.3515418842,2158
0.3205099946,2159
0.2378391026,2160
0.3217813441,2161
0.4020177678,2162
0.6345487835,2163
0.3063587183,2164
0.5195874148,2165
0.6377894454,2166
0.6282246849,2167
0.6658313764,2168
0.5859158396,2169
0.3046603745,2170
0.4000294811,2171
0.4635291592,2172
0.3412110702,2173
0.2605889311,2174
0.2096371639,2175
0.1496207515,2176
0.1541093947,2177
0.1416467759,2178
0.09999779827,2179
0.40547791,2180
0.5653904515,2181
0.47215658,2182
0.5881457293,2183
0.5149736351,2184
0.6849056909,2185
0.5603417058,2186
0.5377331137,2187
0.3372432722,2188
0.3317728348,2189
0.4860750902,2190
0.4130573245,2191
0.3313889094,2192
0.2310447317,2193
0.2802642297,2194
0.3737532307,2195
0.3061200529,2196
0.2524494219,2197
0.3541237946,2198
0.4115650876,2199
0.6271085947,2200
0.3267247918,2201
0.5337111582,2202
0.6712458255,2203
0.6178219707,2204
0.6620552199,2205
0.5286797287,2206
0.3139453404,2207
0.4142506124,2208
0.3947276731,2209
0.3239703113,2210
0.2717890708,2211
0.1866178842,2212
0.1530802295,2213
0.1588805838,2214
0.1336004849,2215
0.08959547094,2216
0.4626530727,2217
0.5506095821,2218
0.4420865642,2219
0.623254659,2220
0.4872135249,2221
0.6951804819,2222
0.5204368443,2223
0.5430350749,2224
0.3502402157,2225
0.3330337277,2226
0.5273818334,2227
0.39645465,2228
0.3268873382,2229
0.2154701828,2230
0.2967466858,2231
0.359967766,2232
0.3014410015,2233
0.2555570612,2234
0.3520682817,2235
0.4279472527,2236
0.6272629968,2237
0.3432172317,2238
0.5538725005,2239
0.6442135572,2240
0.6231500464,2241
0.6953844933,2242
0.4755797562,2243
0.3221975051,2244
0.4333304019,2245
0.4178386666,2246
0.3310219902,2247
0.2788693345,2248
0.1572961905,2249
0.1605312216,2250
0.1775084993,2251
0.1330413516,2252
0.08671186922,2253
0.5121933243,2254
0.5071985477,2255
0.4497586267,2256
0.6313754597,2257
0.5251899908,2258
0.6690025083,2259
0.5150958095,2260
0.5274696097,2261
0.3655402764,2262
0.3615937519,2263
0.5162848145,2264
0.4107963854,2265
0.291930686,2266
0.2207717197,2267
0.3266672229,2268
0.3118118338,2269
0.2764199128,2270
0.2626631638,2271
0.3516060733,2272
0.4102112671,2273
0.6482072017,2274
0.3351641406,2275
0.5746034835,2276
0.6533394105,2277
0.5951712495,2278
0.6952214159,2279
0.439508843,2280
0.3092992558,2281
0.4398020326,2282
0.3727326052,2283
0.3516630389,2284
0.2614032613,2285
0.2078673146,2286
0.3492579424,2287
0.295937841,2288
0.2317713433,2289
0.2274634788,2290
0.5589257905,2291
0.5216357213,2292
0.3549078402,2293
0.6208577347,2294
0.5859433444,2295
0.6290638362,2296
0.5327190828,2297
0.4986434809,2298
0.3553944082,2299
0.3937995745,2300
0.4991025699,2301
0.4278971501,2302
0.272769511,2303
0.2144411022,2304
0.3416436357,2305
0.3208625415,2306
0.2921217718,2307
0.2704964683,2308
0.385114661,2309
0.4322021935,2310
0.6108416011,2311
0.3755284929,2312
0.5620518869,2313
0.6994289853,2314
0.6102942858,2315
0.63378003,2316
0.4858426357,2317
0.3265203932,2318
0.4922375544,2319
0.3979543846,2320
0.3594320998,2321
0.2429490736,2322
0.1621057272,2323
0.1829910052,2324
0.1783334944,2325
0.1262801853,2326
0.1731572144,2327
0.5568007117,2328
0.5437743784,2329
0.3461030316,2330
0.648100115,2331
0.5792663017,2332
0.6149448345,2333
0.593190658,2334
0.5212905628,2335
0.3182242525,2336
0.4277155909,2337
0.4908253367,2338
0.3672746639,2339
0.2560475125,2340
0.2151136615,2341
0.3429224588,2342
0.3157662785,2343
0.3039603644,2344
0.2571188249,2345
0.3667337553,2346
0.4657022161,2347
0.6129843806,2348
0.3429687661,2349
0.624182389,2350
0.664148161,2351
0.6216334026,2352
0.5968009824,2353
0.4558141612,2354
0.3317614395,2355
0.4692966237,2356
0.3989764668,2357
0.3178574153,2358
0.2614976665,2359
0.1446632048,2360
0.1306658661,2361
0.1345339931,2362
0.1059561453,2363
0.2623195374,2364
0.5147771753,2365
0.5456757017,2366
0.3907160552,2367
0.6086612522,2368
0.6103965384,2369
0.6232950507,2370
0.5387237002,2371
0.4997853206,2372
0.3038094165,2373
0.4112246761,2374
0.4330934383,2375
0.301667619,2376
0.2448141921,2377
0.2092529433,2378
0.3700414088,2379
0.3489884174,2380
0.3305492619,2381
0.2803603309,2382
0.4017438096,2383
0.5104745602,2384
0.5382956489,2385
0.4185282132,2386
0.6231361581,2387
0.5864278603,2388
0.6368826204,2389
0.6025269926,2390
0.4235543801,2391
0.3787648147,2392
0.4905163868,2393
0.4357216585,2394
0.428667588,2395
0.2896638583,2396
0.2914386623,2397
0.2699177175,2398
0.2695390332,2399
0.2541011884,2400
0.3297823525,2401
0.557541358,2402
0.586113473,2403
0.4709061901,2404
0.6473648454,2405
0.7163460296,2406
0.5285616751,2407
0.4779346723,2408
0.4051519365,2409
0.3275936833,2410
0.4723446435,2411
0.4248298022,2412
0.4083877294,2413
0.3271685521,2414
0.3379863694,2415
0.4173980009,2416
0.3943539781,2417
0.2970939867,2418
0.3074357956,2419
0.4329728324,2420
0.445130121,2421
0.5210609961,2422
0.4136414071,2423
0.6576022089,2424
0.606100201,2425
0.629931873,2426
0.6018918611,2427
0.3783370167,2428
0.3723132348,2429
0.5072915356,2430
0.3560702332,2431
0.3901161907,2432
0.2150972352,2433
0.3243761523,2434
0.3405394889,2435
0.2079717138,2436
0.3191939535,2437
0.3289343741,2438
0.5263254458,2439
0.5367097693,2440
0.5248201996,2441
0.5440902641,2442
0.6062616899,2443
0.5684035113,2444
0.4730721936,2445
0.428647609,2446
0.4000985154,2447
0.4853926581,2448
0.4237035079,2449
0.3218401798,2450
0.3983045661,2451
0.2974162647,2452
0.4144853313,2453
0.3807201425,2454
0.3574975794,2455
0.2367432956,2456
0.4635571856,2457
0.5305896513,2458
0.4076852517,2459
0.4772776837,2460
0.5546981215,2461
0.5108432608,2462
0.4568482536,2463
0.5109265324,2464
0.5506384214,2465
0.4862388447,2466
0.4280139801,2467
0.36956831,2468
0.3390420185,2469
0.2603278191,2470
0.1557301254,2471
0.1504777295,2472
0.1447277467,2473
0.08849978501,2474
0.3101981075,2475
0.4982545933,2476
0.5337038169,2477
0.5329018135,2478
0.6236171868,2479
0.5493579062,2480
0.5972218991,2481
0.5866508623,2482
0.4200038488,2483
0.3100235305,2484
0.4878266584,2485
0.4019638357,2486
0.3060601001,2487
0.331807594,2488
0.2720285035,2489
0.4368189821,2490
0.2966361253,2491
0.3324875865,2492
0.21949596,2493
0.4970807735,2494
0.5793529425,2495
0.4715450714,2496
0.5093696506,2497
0.6154097715,2498
0.3929494343,2499
0.456878457,2500
0.5191524915,2501
0.5339706347,2502
0.4891235403,2503
0.3769096383,2504
0.3031313173,2505
0.2860105848,2506
0.2919174646,2507
0.1554660863,2508
0.1532802833,2509
0.1204678407,2510
0.08992281748,2511
0.3354686076,2512
0.5457486219,2513
0.6151645652,2514
0.5653384441,2515
0.5688310542,2516
0.6012701246,2517
0.5531085595,2518
0.5595442529,2519
0.4251878596,2520
0.2977832708,2521
0.5205115817,2522
0.3552873728,2523
0.3184245007,2524
0.2807858078,2525
0.3104086135,2526
0.3561954457,2527
0.3212424674,2528
0.2549710368,2529
0.2407632871,2530
0.4266754008,2531
0.6191967183,2532
0.3792580568,2533
0.5400940488,2534
0.5754308375,2535
0.4039697537,2536
0.4575196154,2537
0.5394217437,2538
0.4886134439,2539
0.4996913663,2540
0.4021484167,2541
0.3191851057,2542
0.2583130224,2543
0.2636195858,2544
0.1389208943,2545
0.1394438144,2546
0.09598066681,2547
0.06077009359,2548
0.3754096217,2549
0.5356723861,2550
0.6418761654,2551
0.5813387205,2552
0.5582627637,2553
0.6310773921,2554
0.585173278,2555
0.5029978435,2556
0.4132354154,2557
0.3425582611,2558
0.4955415577,2559
0.3274612861,2560
0.2981767134,2561
0.2807207641,2562
0.300616414,2563
0.3231135041,2564
0.3034163849,2565
0.243170076,2566
0.3038657274,2567
0.3944371817,2568
0.6113368236,2569
0.3392054328,2570
0.5460960966,2571
0.5698297977,2572
0.4099473239,2573
0.47876004,2574
0.5683248389,2575
0.4643114582,2576
0.4921961426,2577
0.4090335503,2578
0.3091951314,2579
0.2785868902,2580
0.2449368501,2581
0.3610652166,2582
0.3617677284,2583
0.264693819,2584
0.2124159032,2585
0.4556422799,2586
0.5100600887,2587
0.5958793985,2588
0.5564091476,2589
0.5960948861,2590
0.6199757102,2591
0.5616773648,2592
0.5160353735,2593
0.3684600244,2594
0.3870968202,2595
0.4572958581,2596
0.3036621051,2597
0.3065184027,2598
0.2847313471,2599
0.3345895967,2600
0.333215358,2601
0.3325403054,2602
0.2422779493,2603
0.3345306249,2604
0.4149912174,2605
0.6504007467,2606
0.3176760846,2607
0.5453385247,2608
0.5809992354,2609
0.3645097943,2610
0.4826237455,2611
0.5907071045,2612
0.4853106479,2613
0.4749572746,2614
0.4089861515,2615
0.321935113,2616
0.3146628916,2617
0.222880516,2618
0.1277778957,2619
0.1392991233,2620
0.08918888966,2621
0.06844403085,2622
0.5007029913,2623
0.4701832109,2624
0.5631978965,2625
0.592444624,2626
0.5928640314,2627
0.6412950148,2628
0.5763135971,2629
0.5613533245,2630
0.3424870651,2631
0.3492129765,2632
0.4326954526,2633
0.2546997525,2634
0.2865387661,2635
0.2407654985,2636
0.3207589189,2637
0.3000605801,2638
0.3230058746,2639
0.2196289968,2640
0.3251105383,2641
0.3808116143,2642
0.6137734017,2643
0.3136413907,2644
0.5570127721,2645
0.565742282,2646
0.4847570749,2647
0.4796218901,2648
0.5769320698,2649
0.4784549487,2650
0.4498528375,2651
0.3529729288,2652
0.2817890112,2653
0.2884670792,2654
0.2265281193,2655
0.1325047356,2656
0.1286542801,2657
0.08669757984,2658
0.05449937306,2659
0.4788543062,2660
0.4693979168,2661
0.4489502648,2662
0.6131197418,2663
0.5410105119,2664
0.6504287424,2665
0.5344384279,2666
0.5537169715,2667
0.3538845454,2668
0.4018843914,2669
0.4308551231,2670
0.316859081,2671
0.3039419781,2672
0.2655415911,2673
0.3422135044,2674
0.3447487108,2675
0.2773000609,2676
0.2393869245,2677
0.3512191141,2678
0.4458025688,2679
0.6693691177,2680
0.3089060982,2681
0.599277135,2682
0.5287661505,2683
0.4295109873,2684
0.5231151193,2685
0.5263567255,2686
0.4881657141,2687
0.5052818142,2688
0.4239002878,2689
0.2926837672,2690
0.3179847846,2691
0.2032990159,2692
0.1290787405,2693
0.112805151,2694
0.06935895377,2695
0.05149795115,2696
0.5013823259,2697
0.5442830839,2698
0.4787577907,2699
0.6305938129,2700
0.5922788626,2701
0.6563796345,2702
0.512972832,2703
0.5078529104,2704
0.3412803095,2705
0.4238153556,2706
0.3796240416,2707
0.2836235214,2708
0.2750690013,2709
0.2488421482,2710
0.3224535973,2711
0.3535722732,2712
0.3172112568,2713
0.2560131585,2714
0.3490258902,2715
0.4135736947,2716
0.5878902599,2717
0.3165106406,2718
0.5721386869,2719
0.5424555159,2720
0.438013088,2721
0.5459761731,2722
0.5173009979,2723
0.4740127248,2724
0.4496471564,2725
0.3946314763,2726
0.2979982396,2727
0.3350530481,2728
0.2983522952,2729
0.4325813246,2730
0.2921735824,2731
0.3043506343,2732
0.246913116,2733
0.5458061743,2734
0.5935613201,2735
0.4896728687,2736
0.6295042645,2737
0.6038151225,2738
0.6341541287,2739
0.5572398132,2740
0.4703012901,2741
0.3278104537,2742
0.4510179512,2743
0.4022288959,2744
0.3265317192,2745
0.2810351741,2746
0.2803167499,2747
0.3446073497,2748
0.3651499658,2749
0.2627674921,2750
0.2498040903,2751
0.3534035895,2752
0.4430697279,2753
0.5851007332,2754
0.3680459811,2755
0.5805689831,2756
0.5291450991,2757
0.3945496946,2758
0.5406951838,2759
0.5472735246,2760
0.4351470988,2761
0.5199645045,2762
0.3263566197,2763
0.3089421743,2764
0.2804568963,2765
0.1925219751,2766
0.1566304865,2767
0.1291585435,2768
0.09027305089,2769
0.2023401056,2770
0.5210189058,2771
0.6154853938,2772
0.4606270316,2773
0.6557280655,2774
0.5567802055,2775
0.6240599142,2776
0.5647201193,2777
0.4856705227,2778
0.2890865095,2779
0.4783457504,2780
0.3983551306,2781
0.3448423211,2782
0.3036429118,2783
0.2709669297,2784
0.3770060699,2785
0.3723294755,2786
0.2862461685,2787
0.2486750342,2788
0.3876773106,2789
0.5217127674,2790
0.6075052091,2791
0.3634113223,2792
0.6221504461,2793
0.5055982565,2794
0.3696428032,2795
0.5598280403,2796
0.5366749406,2797
0.4646853768,2798
0.4879012382,2799
0.3168531726,2800
0.3194874673,2801
0.273201123,2802
0.1984615049,2803
0.1500050804,2804
0.1173781513,2805
0.09313930948,2806
0.26400296,2807
0.5182027028,2808
0.5981765664,2809
0.509744176,2810
0.6455764003,2811
0.5785395634,2812
0.5976644113,2813
0.5553462344,2814
0.4886128105,2815
0.2988601297,2816
0.4670586399,2817
0.4322341865,2818
0.3296066773,2819
0.3285303575,2820
0.2488204065,2821
0.4231707319,2822
0.3483500488,2823
0.3066767957,2824
0.2469556872,2825
0.431937677,2826
0.5356623149,2827
0.5716416312,2828
0.411909651,2829
0.615303119,2830
0.4787254971,2831
0.4122075864,2832
0.5314850996,2833
0.5309140483,2834
0.4442682359,2835
0.4843148789,2836
0.3069711936,2837
0.3014716846,2838
0.2629642506,2839
0.1556320281,2840
0.1460168788,2841
0.1150453261,2842
0.06980825623,2843
0.2834741619,2844
0.5031939677,2845
0.5373541758,2846
0.4607783233,2847
0.5809180819,2848
0.6331908179,2849
0.5416535967,2850
0.5377323095,2851
0.4444955414,2852
0.3097932054,2853
0.4736972072,2854
0.3720579656,2855
0.2737861616,2856
0.2939520117,2857
0.2426855471,2858
0.3991075554,2859
0.3054120529,2860
0.2852190969,2861
0.2103667134,2862
0.4556275769,2863
0.5397704602,2864
0.5055027251,2865
0.4704117634,2866
0.5757285209,2867
0.4890577374,2868
0.4205026048,2869
0.5403183586,2870
0.5088946242,2871
0.4602664816,2872
0.4850579073,2873
0.3322756813,2874
0.3157341032,2875
0.2798554592,2876
0.3546721572,2877
0.345769003,2878
0.346414467,2879
0.2730763804,2880
0.3671441177,2881
0.4986723614,2882
0.5580109308,2883
0.5303728949,2884
0.6136333218,2885
0.6207675141,2886
0.5940103174,2887
0.5673017242,2888
0.4080532814,2889
0.3084388381,2890
0.4792001955,2891
0.398895218,2892
0.2817683564,2893
0.2899679089,2894
0.2500170826,2895
0.3662207284,2896
0.2851638871,2897
0.2772369847,2898
0.2063321029,2899
0.4623751452,2900
0.5438853499,2901
0.4801844133,2902
0.474362669,2903
0.60904924,2904
0.4121784688,2905
0.4158776881,2906
0.5386193207,2907
0.5231058771,2908
0.4837237464,2909
0.3718145542,2910
0.2817685281,2911
0.2684227463,2912
0.2593086763,2913
0.1810072647,2914
0.1689464749,2915
0.1118475901,2916
0.06927826868,2917
0.2815146036,2918
0.5464756099,2919
0.6337114003,2920
0.5564715251,2921
0.5774054855,2922
0.5833471056,2923
0.5397254435,2924
0.5430669952,2925
0.4019652616,2926
0.3291803428,2927
0.4626591841,2928
0.4212526498,2929
0.2955033395,2930
0.3439267078,2931
0.3333336785,2932
0.4317734239,2933
0.3789505327,2934
0.2830963164,2935
0.266815889,2936
0.4521646967,2937
0.5741821499,2938
0.3965763675,2939
0.5018699312,2940
0.5945320311,2941
0.3903007349,2942
0.4656487777,2943
0.5034205418,2944
0.5394006322,2945
0.5058844953,2946
0.4052878802,2947
0.2907072557,2948
0.2682842323,2949
0.2655485729,2950
0.1584661482,2951
0.1518237802,2952
0.1219655406,2953
0.09119457181,2954
0.2873052848,2955
0.446083652,2956
0.5283876726,2957
0.6518314015,2958
0.5354964262,2959
0.616251805,2960
0.5608917601,2961
0.5249609562,2962
0.4103480187,2963
0.3206754753,2964
0.5199132908,2965
0.3113469011,2966
0.2895032749,2967
0.2877971509,2968
0.3319914426,2969
0.3678489373,2970
0.3481008798,2971
0.2871624929,2972
0.289139727,2973
0.4270426452,2974
0.603067827,2975
0.3755803626,2976
0.5406512878,2977
0.5500199663,2978
0.3846147747,2979
0.4517654421,2980
0.532277464,2981
0.5020356688,2982
0.5010692062,2983
0.4250209478,2984
0.3470320337,2985
0.2939270673,2986
0.2827487095,2987
0.15060038,2988
0.1476133043,2989
0.1039603648,2990
0.07951612464,2991
0.3804055663,2992
0.5086531098,2993
0.6158059109,2994
0.5697164908,2995
0.5605901714,2996
0.6275049362,2997
0.5782114958,2998
0.5181225089,2999
0.3965694645,3000
0.3467828301,3001
0.5140873439,3002
0.3393721361,3003
0.3400353518,3004
0.2870800388,3005
0.351891918,3006
0.3491064411,3007
0.3438405981,3008
0.2636913806,3009
0.3266321581,3010
0.3675662836,3011
0.577707427,3012
0.3058093398,3013
0.5484718501,3014
0.5959911899,3015
0.4600095632,3016
0.5084785314,3017
0.5938573038,3018
0.4794591967,3019
0.4740339379,3020
0.4013921704,3021
0.3289761272,3022
0.3060890506,3023
0.2594549583,3024
0.3834419435,3025
0.354605797,3026
0.3002765625,3027
0.2544361857,3028
0.3926271755,3029
0.4918111514,3030
0.4111688153,3031
0.5580687716,3032
0.5223458605,3033
0.6851732787,3034
0.5509131125,3035
0.5363017231,3036
0.3492466163,3037
0.3374035019,3038
0.4642460173,3039
0.4082826154,3040
0.3262761905,3041
0.2432865218,3042
0.3217019374,3043
0.4010810186,3044
0.3313175465,3045
0.2868772181,3046
0.3636521783,3047
0.4124629694,3048
0.6352921494,3049
0.3396501125,3050
0.5078005521,3051
0.6778332585,3052
0.5799814026,3053
0.6494887461,3054
0.516230659,3055
0.3043491428,3056
0.4889497465,3057
0.4432919252,3058
0.3609517025,3059
0.315682363,3060
0.2377514901,3061
0.1820501923,3062
0.162817188,3063
0.1469297488,3064
0.09547680242,3065
0.4314687942,3066
0.5640148006,3067
0.4251831813,3068
0.5974936164,3069
0.4826880968,3070
0.6702941115,3071
0.5415299028,3072
0.5460618026,3073
0.3508364575,3074
0.3300100424,3075
0.5026527717,3076
0.4270286184,3077
0.3573872166,3078
0.2304001242,3079
0.3110084144,3080
0.3782275646,3081
0.3217425331,3082
0.2679539046,3083
0.3758845699,3084
0.4160060354,3085
0.6284916646,3086
0.352791753,3087
0.5404343316,3088
0.6516945412,3089
0.62616778,3090
0.6451971731,3091
0.5074875879,3092
0.3512054169,3093
0.4878420421,3094
0.4218382035,3095
0.3537607073,3096
0.3121441648,3097
0.19966929,3098
0.1784568357,3099
0.1644194211,3100
0.1213756746,3101
0.07420032875,3102
0.4736394654,3103
0.5071530033,3104
0.4265209327,3105
0.6022875868,3106
0.5236402222,3107
0.6742296591,3108
0.5087554141,3109
0.5146471681,3110
0.3545485051,3111
0.3381403207,3112
0.5585980101,3113
0.4381912783,3114
0.3263466643,3115
0.2314833795,3116
0.3250327954,3117
0.345122122,3118
0.3040500441,3119
0.2816016482,3120
0.3753469646,3121
0.4152847783,3122
0.6463522721,3123
0.3191573224,3124
0.5820993754,3125
0.6451551274,3126
0.6058161867,3127
0.645592534,3128
0.4343834247,3129
0.3231619407,3130
0.4949206484,3131
0.3939237633,3132
0.3426665094,3133
0.2830050293,3134
0.19014331,3135
0.1383595291,3136
0.1489489358,3137
0.1155137418,3138
0.07962035395,3139
0.4985305188,3140
0.4908544939,3141
0.3885870937,3142
0.6113095505,3143
0.5755365003,3144
0.6435638011,3145
0.5247895927,3146
0.4994499191,3147
0.3567644688,3148
0.3635173897,3149
0.4632028887,3150
0.4151806031,3151
0.2830107997,3152
0.2206380547,3153
0.3471324276,3154
0.3647141375,3155
0.3055819775,3156
0.2977018956,3157
0.4168782719,3158
0.4525882878,3159
0.5846747314,3160
0.3733772039,3161
0.5599242949,3162
0.6958532682,3163
0.5770294624,3164
0.6271897823,3165
0.4572697099,3166
0.3444401457,3167
0.4856808541,3168
0.3805791931,3169
0.3665662667,3170
0.2758873864,3171
0.2351121819,3172
0.3677998406,3173
0.3221691822,3174
0.2814522571,3175
0.2950915952,3176
0.569059674,3177
0.4997341637,3178
0.3599450802,3179
0.63912036,3180
0.5907526416,3181
0.59559064,3182
0.5241385102,3183
0.4692603778,3184
0.32945334,3185
0.4347768958,3186
0.4633093874,3187
0.4087826313,3188
0.2873783359,3189
0.2416336133,3190
0.3750656566,3191
0.3662271891,3192
0.327805818,3193
0.3272846602,3194
0.4031265287,3195
0.4898403502,3196
0.5235253069,3197
0.4367076126,3198
0.5636645675,3199
0.6860749619,3200
0.6281167493,3201
0.5858622919,3202
0.4291437853,3203
0.3393213777,3204
0.5075945393,3205
0.4374648531,3206
0.346363512,3207
0.310315718,3208
0.1708771322,3209
0.1774708078,3210
0.1350858901,3211
0.09551784919,3212
0.2367652244,3213
0.4984515937,3214
0.522883713,3215
0.3562531575,3216
0.6476803627,3217
0.5944160899,3218
0.6120615584,3219
0.5256509841,3220
0.4846521555,3221
0.3077536077,3222
0.4209133777,3223
0.4232337489,3224
0.327568244,3225
0.2675436986,3226
0.2269349973,3227
0.3591619441,3228
0.3355203207,3229
0.3128027307,3230
0.276949732,3231
0.4324011567,3232
0.5229047078,3233
0.55574487,3234
0.3895910758,3235
0.626583002,3236
0.6014236041,3237
0.6634943118,3238
0.5962380584,3239
0.4047382429,3240
0.3291783623,3241
0.451604209,3242
0.4382651887,3243
0.3566875107,3244
0.2952289719,3245
0.189568988,3246
0.194333984,3247
0.1734858569,3248
0.1243449681,3249
0.2734462766,3250
0.5312861249,3251
0.5399296048,3252
0.3828656007,3253
0.6342075703,3254
0.6458399803,3255
0.5854076039,3256
0.5320920704,3257
0.5113027798,3258
0.3206567631,3259
0.4540590268,3260
0.4356644165,3261
0.3341863922,3262
0.2642168971,3263
0.2360125195,3264
0.3211039114,3265
0.3181937545,3266
0.3029123153,3267
0.2913036385,3268
0.4019622702,3269
0.4876627578,3270
0.5137395616,3271
0.4805110935,3272
0.5802482835,3273
0.6050032743,3274
0.6377891561,3275
0.6028257629,3276
0.3777313699,3277
0.3713899984,3278
0.4637541073,3279
0.3998802801,3280
0.321852465,3281
0.2607577789,3282
0.1841023268,3283
0.1807962907,3284
0.1701812019,3285
0.1220045561,3286
0.2759920928,3287
0.5013208671,3288
0.5255855866,3289
0.4697134837,3290
0.5684432879,3291
0.6890097169,3292
0.5651838725,3293
0.5138687758,3294
0.4199659537,3295
0.3186523728,3296
0.472229526,3297
0.3716824151,3298
0.3469050072,3299
0.2973625035,3300
0.2496425853,3301
0.3585514189,3302
0.3514699819,3303
0.3300650003,3304
0.2695216522,3305
0.427461488,3306
0.5352892812,3307
0.4771869114,3308
0.4904551963,3309
0.5661908757,3310
0.620114703,3311
0.5790319243,3312
0.5850049682,3313
0.3590415847,3314
0.331948595,3315
0.4796669254,3316
0.4004551183,3317
0.3161037942,3318
0.2227794014,3319
0.3175779226,3320
0.3163356733,3321
0.2566588725,3322
0.2284021488,3323
0.3143826,3324
0.4786176159,3325
0.5653545901,3326
0.439844567,3327
0.5499195143,3328
0.6637903646,3329
0.5746181566,3330
0.56398552,3331
0.4251049138,3332
0.3262946527,3333
0.4837835809,3334
0.4155652185,3335
0.3650233704,3336
0.2882718604,3337
0.225856894,3338
0.3186385996,3339
0.3536223399,3340
0.2902147726,3341
0.2387491271,3342
0.4568614,3343
0.5210692499,3344
0.452965766,3345
0.5204277412,3346
0.6006110114,3347
0.6252045391,3348
0.6045274849,3349
0.5756589099,3350
0.4124984973,3351
0.384609926,3352
0.438440265,3353
0.3858476617,3354
0.2628417515,3355
0.1983039438,3356
0.1414926661,3357
0.1601748337,3358
0.1446130103,3359
0.1018436137,3360
0.3119660659,3361
0.527300229,3362
0.5279886815,3363
0.5126338014,3364
0.4997920394,3365
0.696992173,3366
0.5241375075,3367
0.5564358615,3368
0.4323668533,3369
0.3207922719,3370
0.4790340115,3371
0.4394836049,3372
0.403927045,3373
0.2968366374,3374
0.2384609643,3375
0.3250246627,3376
0.3154936827,3377
0.2788110407,3378
0.2356123243,3379
0.4663516598,3380
0.5780192986,3381
0.4113532221,3382
0.530754851,3383
0.6052442419,3384
0.6273006601,3385
0.6361492863,3386
0.5535299509,3387
0.4088006039,3388
0.3840809487,3389
0.4081179058,3390
0.3782191014,3391
0.2792817022,3392
0.2292302406,3393
0.1576176053,3394
0.1839881795,3395
0.1406935666,3396
0.09772742171,3397
0.3570616704,3398
0.5280843145,3399
0.4718816788,3400
0.5243523305,3401
0.4842199527,3402
0.6967026833,3403
0.533927967,3404
0.5319927014,3405
0.4068723822,3406
0.3130476903,3407
0.4870347358,3408
0.4576062503,3409
0.3848884834,3410
0.2692674287,3411
0.2439714343,3412
0.3338359345,3413
0.3186375391,3414
0.2474316437,3415
0.2872260524,3416
0.4691752918,3417
0.5928719784,3418
0.3673033143,3419
0.5555336076,3420
0.5863989625,3421
0.6218037268,3422
0.6468271724,3423
0.5488072036,3424
0.3240092074,3425
0.3918422577,3426
0.4367144089,3427
0.3201748192,3428
0.2568351233,3429
0.2022608234,3430
0.1892337134,3431
0.1868464314,3432
0.1412291179,3433
0.08847632368,3434
0.4410681923,3435
0.573951564,3436
0.4327995841,3437
0.5282163854,3438
0.5279616606,3439
0.6743131839,3440
0.5617600976,3441
0.5451500892,3442
0.3802920418,3443
0.327713144,3444
0.4603501369,3445
0.4481873703,3446
0.3294088166,3447
0.2636385195,3448
0.2706478459,3449
0.3722597393,3450
0.3354747264,3451
0.2633766752,3452
0.3332661675,3453
0.4030447009,3454
0.6107642772,3455
0.3345587396,3456
0.5025238143,3457
0.6774200531,3458
0.6078863744,3459
0.5992653436,3460
0.5408598972,3461
0.3047409702,3462
0.436582752,3463
0.3979797118,3464
0.3056206932,3465
0.2635555513,3466
0.2514460286,3467
0.4620711642,3468
0.3401296275,3469
0.28021057,3470
0.2894229854,3471
0.438655928,3472
0.5896107089,3473
0.3651855232,3474
0.6195379892,3475
0.4852908316,3476
0.657024581,3477
0.5544639976,3478
0.5231981547,3479
0.3414828539,3480
0.3474280134,3481
0.4688760855,3482
0.4281350602,3483
0.3551040685,3484
0.2633477945,3485
0.3269716443,3486
0.4101757644,3487
0.3172664486,3488
0.2789045096,3489
0.3564833378,3490
0.4059409323,3491
0.6298412203,3492
0.3448350828,3493
0.5143390314,3494
0.6698404481,3495
0.6337781562,3496
0.6509849835,3497
0.5134516845,3498
0.342784619,3499
0.4657922121,3500
0.4094124969,3501
0.3257742277,3502
0.290907064,3503
0.2182497298,3504
0.1684848386,3505
0.1721621932,3506
0.1172550184,3507
0.06814274167,3508
0.4673026778,3509
0.511313275,3510
0.4219264685,3511
0.6453808708,3512
0.4726361628,3513
0.6635544405,3514
0.5561419146,3515
0.5742348984,3516
0.3644310576,3517
0.3608507889,3518
0.4588532197,3519
0.4231211827,3520
0.3540081845,3521
0.2537400611,3522
0.363902527,3523
0.3766477497,3524
0.3145292527,3525
0.2886377952,3526
0.3587792515,3527
0.4249322033,3528
0.65295431,3529
0.3245673089,3530
0.5865307467,3531
0.6333346365,3532
0.6330573772,3533
0.678552108,3534
0.4401251313,3535
0.3370928651,3536
0.4308546167,3537
0.4036191336,3538
0.3251938265,3539
0.2720857299,3540
0.2128860281,3541
0.1784059236,3542
0.1937904463,3543
0.1428796837,3544
0.112336589,3545
0.507329788,3546
0.4630458084,3547
0.5407889185,3548
0.6660387518,3549
0.537631627,3550
0.5996198472,3551
0.4705137962,3552
0.5020085276,3553
0.37037255,3554
0.3842373392,3555
0.4404219985,3556
0.3585270448,3557
0.2842864419,3558
0.2334710529,3559
0.4183707024,3560
0.3748114002,3561
0.3432579611,3562
0.3001072604,3563
0.3862503218,3564
0.4719622723,3565
0.648376398,3566
0.3578797228,3567
0.5874116231,3568
0.6230922111,3569
0.5218176241,3570
0.6425456207,3571
0.445924163,3572
0.386152167,3573
0.5221191663,3574
0.4273226186,3575
0.3852154707,3576
0.3940488824,3577
0.2924977524,3578
0.3154870101,3579
0.2635001935,3580
0.2581315266,3581
0.2772047125,3582
0.5433395228,3583
0.5447788578,3584
0.41491439,3585
0.7048539888,3586
0.6200340466,3587
0.5878131032,3588
0.4922938534,3589
0.4254785511,3590
0.3375449919,3591
0.415240061,3592
0.4570683841,3593
0.4874964093,3594
0.3275511667,3595
0.2994994608,3596
0.4584006022,3597
0.4347904313,3598
0.288077129,3599
0.372247946,3600
0.387744107,3601
0.4715887808,3602
0.6217819274,3603
0.3718643617,3604
0.6170723449,3605
0.6315361836,3606
0.5891209544,3607
0.6343649439,3608
0.4312740409,3609
0.4150573558,3610
0.5010769463,3611
0.4034820095,3612
0.300513231,3613
0.3419613613,3614
0.3150419953,3615
0.3677360934,3616
0.2720668537,3617
0.2724898903,3618
0.2751182445,3619
0.444802529,3620
0.397941812,3621
0.3724119697,3622
0.3128446236,3623
0.2601833631,3624
0.2357240892,3625
0.2113570726,3626
0.1882511066,3627
0.1948872466,3628
0.3921351132,3629
0.3634114813,3630
0.4044878906,3631
0.2816232791,3632
0.3009421405,3633
0.3463648133,3634
0.3814323748,3635
0.3053975953,3636
0.262175716,3637
0.1874882425,3638
0.1490092073,3639
0.1290627829,3640
0.09609797658,3641
0.096874693,3642
0.3701280078,3643
0.3618209306,3644
0.3288437716,3645
0.259062613,3646
0.2016463947,3647
0.4026628816,3648
0.3490897344,3649
0.3277034439,3650
0.2032152954,3651
0.155231762,3652
0.08285867595,3653
0.1019840033,3654
0.09470958046,3655
0.08487021136,3656
0.3786386342,3657
0.3672069483,3658
0.2582772865,3659
0.2947882565,3660
0.1542211827,3661
0.07107706098,3662
0.05649456998,3663
0.0626255179,3664
0.0537976142,3665
0.3595871349,3666
0.3713829163,3667
0.3655459106,3668
0.2785395415,3669
0.2186515741,3670
0.4203866849,3671
0.3092764344,3672
0.3058468361,3673
0.2357740041,3674
0.1491621842,3675
0.08230977638,3676
0.06431814094,3677
0.05846326918,3678
0.06004768041,3679
0.3491056498,3680
0.3931409541,3681
0.2990810355,3682
0.2609282843,3683
0.1970205951,3684
0.4386434584,3685
0.3114605409,3686
0.3235166097,3687
0.2207515612,3688
0.139820982,3689
0.05645427949,3690
0.05535634512,3691
0.06442960974,3692
0.1039228107,3693
0.391198754,3694
0.4005280795,3695
0.2778583173,3696
0.2694373039,3697
0.1594480406,3698
0.1036892618,3699
0.09883721859,3700
0.06222137679,3701
0.05270172883,3702
0.3323746124,3703
0.3911442092,3704
0.31864092,3705
0.2815075347,3706
0.2160290261,3707
0.420981263,3708
0.3333515566,3709
0.3230576894,3710
0.2351000781,3711
0.1341032871,3712
0.07412976996,3713
0.06835181143,3714
0.05184137498,3715
0.06032672641,3716
0.3275566936,3717
0.3922666032,3718
0.2700348805,3719
0.2681306952,3720
0.2673006536,3721
0.4220542243,3722
0.3180641207,3723
0.3176533331,3724
0.2222795226,3725
0.1080826793,3726
0.08917632474,3727
0.08344032846,3728
0.05471277825,3729
0.09933170674,3730
0.4436198613,3731
0.3528917801,3732
0.3151428252,3733
0.2307800106,3734
0.1441714827,3735
0.06246742798,3736
0.06869495578,3737
0.07211401526,3738
0.06417960201,3739
0.337001486,3740
0.3953286347,3741
0.2888458743,3742
0.2726066534,3743
0.2324045404,3744
0.4358272426,3745
0.362358542,3746
0.3283889044,3747
0.2178270285,3748
0.1281645159,3749
0.06561127937,3750
0.05544934816,3751
0.05361285077,3752
0.06305364786,3753
0.3484981371,3754
0.3643218317,3755
0.2832388988,3756
0.2388871836,3757
0.3185490637,3758
0.3655242649,3759
0.3568174802,3760
0.2554111952,3761
0.2418282357,3762
0.3468890762,3763
0.3078658671,3764
0.305905545,3765
0.2502976236,3766
0.1951282081,3767
0.4096873233,3768
0.3251630594,3769
0.3063843503,3770
0.2146359429,3771
0.1329619322,3772
0.07860138604,3773
0.07790989115,3774
0.06603067135,3775
0.07120040259,3776
0.3502612468,3777
0.3856781586,3778
0.2796714119,3779
0.2564592919,3780
0.2286483135,3781
0.4018528101,3782
0.291587462,3783
0.2702694284,3784
0.2017241798,3785
0.1347624969,3786
0.1591936159,3787
0.1167537789,3788
0.118308123,3789
0.1466432543,3790
0.3931432907,3791
0.3229081703,3792
0.2923863792,3793
0.2301529124,3794
0.3520286341,3795
0.4005544781,3796
0.3915707338,3797
0.298198622,3798
0.2475257756,3799
0.08875554006,3800
0.06426238541,3801
0.05913813007,3802
0.05551582245,3803
0.1611998289,3804
0.444066437,3805
0.3278467034,3806
0.3192142668,3807
0.223456301,3808
0.1465756205,3809
0.1250064988,3810
0.09985558351,3811
0.07868411789,3812
0.0855705082,3813
0.3487036018,3814
0.3377402136,3815
0.2724772136,3816
0.2335406903,3817
0.29723827,3818
0.3753355885,3819
0.3396195905,3820
0.2608764323,3821
0.2052848109,3822
0.09208179932,3823
0.069799318,3824
0.06536520149,3825
0.06883585559,3826
0.1149265134,3827
0.3689104763,3828
0.2935490051,3829
0.2884091652,3830
0.2146055368,3831
0.3471339612,3832
0.361625466,3833
0.3571587631,3834
0.258452108,3835
0.2356941963,3836
0.107279278,3837
0.07294455915,3838
0.05752623049,3839
0.05777994257,3840
0.2000471265,3841
0.4141239773,3842
0.3131097659,3843
0.2969480983,3844
0.2085624985,3845
0.1237280002,3846
0.1155116688,3847
0.1148898822,3848
0.08229469371,3849
0.1052451736,3850
0.4205967055,3851
0.3598873452,3852
0.3247871845,3853
0.2375019563,3854
0.3108965134,3855
0.3617955325,3856
0.3754873857,3857
0.2896238061,3858
0.2470913345,3859
0.1015385412,3860
0.09647016994,3861
0.08151882685,3862
0.06049266996,3863
0.1148473855,3864
0.4051944999,3865
0.2993694262,3866
0.3075245182,3867
0.2046435154,3868
0.3684523271,3869
0.3524287614,3870
0.3481155353,3871
0.276735542,3872
0.1992672439,3873
0.09944839669,3874
0.08517902517,3875
0.08307937093,3876
0.05993214683,3877
0.2873615243,3878
0.3752014708,3879
0.356764555,3880
0.2832133722,3881
0.2371533191,3882
0.1516758377,3883
0.153848138,3884
0.1509127039,3885
0.1188554252,3886
0.1374149528,3887
0.4130448548,3888
0.3209929029,3889
0.3135048692,3890
0.2121541637,3891
0.4063028135,3892
0.3866429785,3893
0.3503282672,3894
0.231499698,3895
0.2063710803,3896
0.09869008329,3897
0.07968265551,3898
0.06863140668,3899
0.04382142388,3900
0.1874985572,3901
0.4238071207,3902
0.3410863003,3903
0.3087674628,3904
0.2445690003,3905
0.4510316009,3906
0.4417298552,3907
0.329473048,3908
0.2920351615,3909
0.1938144951,3910
0.3698382993,3911
0.3279311112,3912
0.2746883071,3913
0.2432402796,3914
0.2173399027,3915
0.335985079,3916
0.3058986831,3917
0.229521341,3918
0.1942528806,3919
0.1443160852,3920
0.1528787875,3921
0.1116956282,3922
0.0971297633,3923
0.1809190528,3924
0.3685465571,3925
0.3902482203,3926
0.3167882922,3927
0.2395862252,3928
0.2091716421,3929
0.3127785984,3930
0.2481782486,3931
0.2010609146,3932
0.1999609441,3933
0.2213423012,3934
0.2198458467,3935
0.2059223499,3936
0.1324705549,3937
0.1456275183,3938
0.3459214616,3939
0.3096560358,3940
0.2472690571,3941
0.1997248762,3942
0.381366192,3943
0.3212922789,3944
0.2752478831,3945
0.2665665261,3946
0.2160155488,3947
0.1463323576,3948
0.156073132,3949
0.1386403303,3950
0.09284072199,3951
0.3205650574,3952
0.3714543755,3953
0.3519974971,3954
0.3028816077,3955
0.2535577149,3956
0.1366459884,3957
0.137359302,3958
0.1147609008,3959
0.1030633069,3960
0.1642665697,3961
0.4042803135,3962
0.3568185621,3963
0.2921987561,3964
0.2136236752,3965
0.3041198264,3966
0.3409608819,3967
0.3102317453,3968
0.2885770365,3969
0.227957685,3970
0.1281031306,3971
0.1215400183,3972
0.09133368491,3973
0.07801559074,3974
0.1688111359,3975
0.3402347197,3976
0.3149426972,3977
0.2236189685,3978
0.1917069223,3979
0.3517684628,3980
0.3475892219,3981
0.3378361738,3982
0.3116322845,3983
0.2500583253,3984
0.1493646657,3985
0.1421362618,3986
0.1068336292,3987
0.07024348117,3988
0.3308433129,3989
0.386263283,3990
0.3009562455,3991
0.2737913901,3992
0.2483119899,3993
0.1850918206,3994
0.1571533436,3995
0.1269660175,3996
0.103651436,3997
0.2271649547,3998
0.4059991363,3999
0.3708973232,4000
0.2604340616,4001
0.2240882604,4002
0.3305684098,4003
0.3016786113,4004
0.295219272,4005
0.3103027498,4006
0.2582150139,4007
0.1457388288,4008
0.1304325277,4009
0.1080909715,4010
0.0845068408,4011
0.2595778929,4012
0.3451268097,4013
0.2800636581,4014
0.2354739448,4015
0.2269000161,4016
0.3938401123,4017
0.3523555311,4018
0.3176986639,4019
0.2389297426,4020
0.1882387192,4021
0.1485301902,4022
0.1501159092,4023
0.1072088142,4024
0.07628158648,4025
0.3783873418,4026
0.3439586257,4027
0.3033856875,4028
0.3029789973,4029
0.2241219774,4030
0.09238719341,4031
0.09891848676,4032
0.07988981705,4033
0.09287208525,4034
0.2702333772,4035
0.3752346514,4036
0.3214407153,4037
0.2473158227,4038
0.2126309953,4039
0.3434767865,4040
0.342008979,4041
0.3893541463,4042
0.3751035199,4043
0.2720021636,4044
0.1462547373,4045
0.1314927548,4046
0.1100008026,4047
0.08933022654,4048
0.2725431637,4049
0.3426448783,4050
0.2769411371,4051
0.2423629257,4052
0.2188190294,4053
0.3419866286,4054
0.3236592946,4055
0.3203857459,4056
0.2523996094,4057
0.178661156,4058
0.353094092,4059
0.267580597,4060
0.23167284,4061
0.2210896957,4062
0.3838027934,4063
0.3384038916,4064
0.3055460702,4065
0.2989506641,4066
0.1872282531,4067
0.1212636515,4068
0.1353212177,4069
0.128042325,4070
0.1073717551,4071
0.331148122,4072
0.4108140976,4073
0.3289871866,4074
0.2795621965,4075
0.262814475,4076
0.3011869442,4077
0.275250517,4078
0.2621712385,4079
0.2437737483,4080
0.1577030498,4081
0.1681308851,4082
0.168831105,4083
0.1512854016,4084
0.1195785021,4085
0.3119717113,4086
0.3068675761,4087
0.2652847332,4088
0.2362382911,4089
0.2551805395,4090
0.3677993784,4091
0.33363106,4092
0.2827635911,4093
0.2801888451,4094
0.1741225227,4095
0.1773884573,4096
0.1703888925,4097
0.1544113366,4098
0.1634463616,4099
0.4046953278,4100
0.3626497653,4101
0.3348916262,4102
0.2996434864,4103
0.1895424365,4104
0.1419256156,4105
0.115441761,4106
0.0947801256,4107
0.08107103143,4108
0.2782102713,4109
0.3174457015,4110
0.2520603727,4111
0.2213794923,4112
0.2280422846,4113
0.3287823096,4114
0.3217110978,4115
0.3088566901,4116
0.2426405023,4117
0.1942082636,4118
0.1333382835,4119
0.1063634288,4120
0.08673590244,4121
0.1104509087,4122
0.2958332813,4123
0.2681282458,4124
0.2413709955,4125
0.2433893157,4126
0.223271272,4127
0.3672905394,4128
0.3553324043,4129
0.2791155524,4130
0.2327248782,4131
0.1225565662,4132
0.114862212,4133
0.1108519032,4134
0.0742374649,4135
0.1616869101,4136
0.4431593672,4137
0.362857118,4138
0.2890915043,4139
0.267858051,4140
0.1902111583,4141
0.1984102077,4142
0.1983582151,4143
0.1079290366,4144
0.07085775744,4145
0.3593778503,4146
0.3220160249,4147
0.29316773,4148
0.2714394348,4149
0.3054965095,4150
0.5056680486,4151
0.4611550899,4152
0.4361813433,4153
0.2976471779,4154
0.1724313009,4155
0.165467177,4156
0.1568273004,4157
0.1295004609,4158
0.1081660252,4159
0.3010289227,4160
0.2908855531,4161
0.2783116847,4162
0.2232369267,4163
0.2611634755,4164
0.4221655766,4165
0.3758697182,4166
0.3007466717,4167
0.2520986546,4168
0.1735580153,4169
0.1674532691,4170
0.1342927618,4171
0.0953941337,4172
0.1016904943,4173
0.3771425148,4174
0.3687814402,4175
0.3487928035,4176
0.2803056172,4177
0.1892595526,4178
0.1647042052,4179
0.1164912753,4180
0.07872646084,4181
0.07341040745,4182
0.3375900583,4183
0.3044589535,4184
0.2768500554,4185
0.2632380875,4186
0.2043509281,4187
0.352793008,4188
0.3701132014,4189
0.3535274194,4190
0.2831354313,4191
0.2363795789,4192
0.1867529175,4193
0.1350335203,4194
0.1130563609,4195
0.09712342946,4196
0.3065720977,4197
0.2877255381,4198
0.2896403169,4199
0.2322810212,4200
0.260704951,4201
0.3858783242,4202
0.3149495959,4203
0.2647917021,4204
0.2196923784,4205
0.3151389794,4206
0.3603584957,4207
0.2054659789,4208
0.2147112327,4209
0.1927262728,4210
0.3341537988,4211
0.2768046075,4212
0.2662672022,4213
0.2156073286,4214
0.1033043307,4215
0.1305854591,4216
0.1363644444,4217
0.1135487651,4218
0.1261569805,4219
0.3401255511,4220
0.3173049927,4221
0.3010076659,4222
0.2731142043,4223
0.1765305303,4224
0.2882599117,4225
0.2751790176,4226
0.2479369069,4227
0.207774923,4228
0.1982680585,4229
0.1521869727,4230
0.151758597,4231
0.1343766277,4232
0.1415007582,4233
0.3243950456,4234
0.303668024,4235
0.2571911499,4236
0.2240668898,4237
0.3228886491,4238
0.3591547489,4239
0.3039898129,4240
0.2653599584,4241
0.2182566579,4242
0.1417063804,4243
0.1228244218,4244
0.1102964553,4245
0.07791312387,4246
0.1692236972,4247
0.3675542677,4248
0.3136432932,4249
0.2717591374,4250
0.2655950297,4251
0.2240533871,4252
0.143561574,4253
0.09914493944,4254
0.0914697648,4255
0.07958576717,4256
0.3329745213,4257
0.3044402616,4258
0.2696279845,4259
0.2277984689,4260
0.2408717871,4261
0.3542763624,4262
0.3267055375,4263
0.2822086986,4264
0.252869032,4265
0.1642042473,4266
0.1167191808,4267
0.09899044253,4268
0.05848342457,4269
0.07003036708,4270
0.3068442955,4271
0.2925519325,4272
0.2520732357,4273
0.2159552522,4274
0.2717549812,4275
0.3330786652,4276
0.3205954218,4277
0.2804323431,4278
0.2138989819,4279
0.1048352522,4280
0.111160578,4281
0.1066884741,4282
0.07542278558,4283
0.217056857,4284
0.3600035908,4285
0.3411033187,4286
0.2950673111,4287
0.2804551866,4288
0.1933297054,4289
0.169439769,4290
0.1438617156,4291
0.1010334576,4292
0.07793077811,4293
0.3472160083,4294
0.3229197092,4295
0.2819698195,4296
0.2364980364,4297
0.2460763022,4298
0.3184466633,4299
0.332389474,4300
0.2925163682,4301
0.2363905585,4302
0.1477866323,4303
0.1285670956,4304
0.1215534698,4305
0.09525285219,4306
0.09603753675,4307
0.2970598092,4308
0.2862562008,4309
0.2539202843,4310
0.2129090751,4311
0.3424138156,4312
0.3270569852,4313
0.3020194097,4314
0.2809563148,4315
0.1937397536,4316
0.1094875896,4317
0.09767775032,4318
0.08882640852,4319
0.07802659613,4320
0.314200163,4321
0.3714475377,4322
0.3378979233,4323
0.3018628593,4324
0.2432778898,4325
0.1387891146,4326
0.1038150417,4327
0.107279995,4328
0.08285453219,4329
0.09341713647,4330
0.361134651,4331
0.3304899133,4332
0.2886258301,4333
0.2430332761,4334
0.2192594205,4335
0.296565345,4336
0.2918758118,4337
0.2383090203,4338
0.1907087023,4339
0.1385460508,4340
0.1193904419,4341
0.09280010078,4342
0.0737503266,4343
0.1248541687,4344
0.2947429298,4345
0.2813859248,4346
0.2498813772,4347
0.2220869331,4348
0.2906300083,4349
0.3086483521,4350
0.283542252,4351
0.2870175384,4352
0.2374542574,4353
0.3190692476,4354
0.2649538649,4355
0.2009894743,4356
0.217600017,4357
0.1963379178,4358
0.3206173017,4359
0.2874528434,4360
0.2494591023,4361
0.1993390095,4362
0.1318422273,4363
0.1227827791,4364
0.09327087919,4365
0.07900757183,4366
0.1618134157,4367
0.368076883,4368
0.3378791877,4369
0.298152805,4370
0.2709013999,4371
0.2353634889,4372
0.2686555598,4373
0.2473959086,4374
0.2158754437,4375
0.1646265462,4376
0.1848557218,4377
0.19687461,4378
0.1783270401,4379
0.1631351623,4380
0.2074614755,4381
0.3469231222,4382
0.3318465226,4383
0.301939796,4384
0.2857573486,4385
0.4211148137,4386
0.3347981913,4387
0.2860387731,4388
0.2543976267,4389
0.1659447067,4390
0.146475611,4391
0.1525151114,4392
0.1038490319,4393
0.0863875429,4394
0.2678133109,4395
0.3565277672,4396
0.3012024214,4397
0.2893229252,4398
0.2440224059,4399
0.1875146504,4400
0.1522297458,4401
0.1162650151,4402
0.08090386807,4403
0.1339608094,4404
0.262265683,4405
0.2480827833,4406
0.2190224573,4407
0.1985539763,4408
0.3183260313,4409
0.3405030949,4410
0.3085254555,4411
0.2850927098,4412
0.2174218982,4413
0.1281929323,4414
0.1225776721,4415
0.1018569995,4416
0.08359662998,4417
0.1276456126,4418
0.2372671478,4419
0.2249495492,4420
0.2021238835,4421
0.214312028,4422
0.4259030444,4423
0.3705957996,4424
0.3115063371,4425
0.2730245876,4426
0.1573962784,4427
0.1526054596,4428
0.1601566728,4429
0.1178579479,4430
0.08850291812,4431
0.2768442211,4432
0.3543640496,4433
0.3451069713,4434
0.3312288573,4435
0.2930891846,4436
0.2548466254,4437
0.2158734639,4438
0.1849514897,4439
0.1577302091,4440
0.1690483506,4441
0.3212792013,4442
0.3087177699,4443
0.2780424629,4444
0.2586480913,4445
0.3214874301,4446
0.3454550129,4447
0.3573502844,4448
0.3366320569,4449
0.2350796289,4450
0.1446787713,4451
0.1217744195,4452
0.107256092,4453
0.08146445478,4454
0.1737277215,4455
0.3091844703,4456
0.2984166077,4457
0.2602309935,4458
0.239374512,4459
0.4154099162,4460
0.3909868726,4461
0.3616722019,4462
0.359158907,4463
0.3085003191,4464
0.2252963859,4465
0.1650099783,4466
0.1134873345,4467
0.08388125995,4468
0.3308354475,4469
0.3154924961,4470
0.2940027573,4471
0.3098438155,4472
0.2492387652,4473
0.1981591727,4474
0.1484922308,4475
0.1283336285,4476
0.1293552251,4477
0.2197367466,4478
0.3257594148,4479
0.3009185861,4480
0.260205051,4481
0.2358096016,4482
0.3282529623,4483
0.3116119467,4484
0.275492893,4485
0.2695389387,4486
0.2280250816,4487
0.2041733962,4488
0.1276470823,4489
0.09212709884,4490
0.08486451859,4491
0.2078811089,4492
0.2857524986,4493
0.2618554151,4494
0.2205803661,4495
0.2225531108,4496
0.3768118004,4497
0.3508744068,4498
0.3195078878,4499
0.2813613585,4500
0.2043180271,4501
0.2821368751,4502
0.267026641,4503
0.2453795315,4504
0.1967360547,4505
0.3417097476,4506
0.3284174741,4507
0.2997465066,4508
0.2478136754,4509
0.2049771173,4510
0.1784658659,4511
0.1299952988,4512
0.1038451916,4513
0.0923784983,4514
0.3655590708,4515
0.3536198316,4516
0.3287190124,4517
0.2610939302,4518
0.2042510733,4519
0.2831800007,4520
0.2748573697,4521
0.2470102394,4522
0.2261386424,4523
0.2552294338,4524
0.2243004062,4525
0.1681848331,4526
0.1802490816,4527
0.1660382249,4528
0.3021533371,4529
0.3034404334,4530
0.2678017306,4531
0.2322632809,4532
0.271011201,4533
0.4054372395,4534
0.3237853757,4535
0.2893239512,4536
0.2522070196,4537
0.1708137633,4538
0.1122643558,4539
0.09095792358,4540
0.1047466013,4541
0.1956583652,4542
0.4142039126,4543
0.4003765612,4544
0.3386662725,4545
0.2784745749,4546
0.2412899882,4547
0.1379940187,4548
0.1184630786,4549
0.1102696252,4550
0.09724736897,4551
0.3053009794,4552
0.3569103714,4553
0.2784364443,4554
0.2392440455,4555
0.2454392659,4556
0.3252123034,4557
0.3211177479,4558
0.2891075546,4559
0.3153275253,4560
0.1842694286,4561
0.1189110522,4562
0.1191527053,4563
0.1076650621,4564
0.09281628439,4565
0.3084460176,4566
0.2885180491,4567
0.2591882645,4568
0.227643937,4569
0.3135909388,4570
0.3529516993,4571
0.3624545995,4572
0.3427493185,4573
0.2634754381,4574
0.1527113618,4575
0.1010440109,4576
0.09770036359,4577
0.08226160399,4578
0.1998610283,4579
0.3826782981,4580
0.3378839531,4581
0.3368616955,4582
0.3284368745,4583
0.2443309534,4584
0.1051883068,4585
0.127708291,4586
0.1094776163,4587
0.07731974503,4588
0.3563595986,4589
0.3249413836,4590
0.2856066039,4591
0.250870816,4592
0.2633331023,4593
0.3656519869,4594
0.3751200944,4595
0.3436584847,4596
0.3430146903,4597
0.2135870654,4598
0.1417977275,4599
0.1274248223,4600
0.1161270241,4601
0.08695929255,4602
0.3031513224,4603
0.2808903052,4604
0.2517552607,4605
0.2243957884,4606
0.3021809854,4607
0.3958647756,4608
0.3704634425,4609
0.3303560628,4610
0.3276590901,4611
0.2060272074,4612
0.1306525994,4613
0.1081436204,4614
0.08155215362,4615
0.1629460576,4616
0.4496302395,4617
0.3755190341,4618
0.3356196627,4619
0.2801438205,4620
0.1877092373,4621
0.143525654,4622
0.125768146,4623
0.1044909969,4624
0.1163094582,4625
0.3496608929,4626
0.3022967752,4627
0.2768109567,4628
0.2368872831,4629
0.2527231718,4630
0.3412805676,4631
0.3421841098,4632
0.2976592688,4633
0.259768136,4634
0.1925052683,4635
0.1776375588,4636
0.1538322639,4637
0.1224131368,4638
0.1088062046,4639
0.3090271852,4640
0.2899045378,4641
0.2609762413,4642
0.2358921216,4643
0.3636642182,4644
0.4363864594,4645
0.3716564641,4646
0.3130685829,4647
0.284552823,4648
0.3043261659,4649
0.321532253,4650
0.2323786684,4651
0.2069503646,4652
0.1838710383,4653
0.3782398307,4654
0.3379629133,4655
0.3062567013,4656
0.2477327458,4657
0.1787192381,4658
0.1189477901,4659
0.1093323336,4660
0.0886905378,4661
0.2208612042,4662
0.41774599,4663
0.33660443,4664
0.3216952135,4665
0.2932821843,4666
0.2124819229,4667
0.3191299329,4668
0.3254843228,4669
0.2685273193,4670
0.2241235534,4671
0.3026621448,4672
0.2164807918,4673
0.2228149582,4674
0.1881517155,4675
0.1590023736,4676
0.3369832951,4677
0.3042356311,4678
0.2726115441,4679
0.2290224929,4680
0.2869582967,4681
0.4319837002,4682
0.3944966174,4683
0.3126579427,4684
0.2736456116,4685
0.1933450673,4686
0.1278705492,4687
0.128829912,4688
0.1145823999,4689
0.2894220281,4690
0.4246410086,4691
0.4088836805,4692
0.347007419,4693
0.3169736269,4694
0.2536053298,4695
0.1934945427,4696
0.1610855898,4697
0.1352476854,4698
0.161668948,4699
0.3209326481,4700
0.2721068662,4701
0.2391924607,4702
0.2465176755,4703
0.2758556662,4704
0.3602793423,4705
0.3307938616,4706
0.3040857927,4707
0.2506134652,4708
0.1984805996,4709
0.1547136212,4710
0.1237188299,4711
0.08808942205,4712
0.1452358618,4713
0.2330384305,4714
0.2362033254,4715
0.2283921427,4716
0.2288380535,4717
0.3551368151,4718
0.3422649736,4719
0.3330943134,4720
0.2521594242,4721
0.2355977403,4722
0.1809961484,4723
0.1731562873,4724
0.1143280689,4725
0.08251269766,4726
0.2559733022,4727
0.3836105267,4728
0.3493329197,4729
0.3153404909,4730
0.2902585253,4731
0.231846824,4732
0.1584795348,4733
0.1314670855,4734
0.09593213619,4735
0.1306715752,4736
0.3477671111,4737
0.3029224733,4738
0.2875929069,4739
0.2594870393,4740
0.3361486626,4741
0.3028406043,4742
0.2828069434,4743
0.2718071127,4744
0.2510275225,4745
0.2121666026,4746
0.1735431931,4747
0.1639713508,4748
0.1200019496,4749
0.1947934276,4750
0.3350106664,4751
0.3241330945,4752
0.3050500618,4753
0.2550890133,4754
0.4574498024,4755
0.3761207544,4756
0.494148164,4757
0.3607530646,4758
0.4674793042,4759
0.3354758921,4760
0.2520507052,4761
0.2438550889,4762
0.2511751458,4763
0.3747113745,4764
0.4612260511,4765
0.4028098984,4766
0.4148827982,4767
0.4114848038,4768
0.3025952669,4769
0.2239383924,4770
0.2042117228,4771
0.2375629719,4772
0.2246321555,4773
0.3884974901,4774
0.3689688086,4775
0.3694756911,4776
0.3024097969,4777
0.4414863278,4778
0.4484880841,4779
0.3919558238,4780
0.2926563179,4781
0.4389562202,4782
0.2914944008,4783
0.2164284115,4784
0.1495578149,4785
0.1724577907,4786
0.2381740411,4787
0.4171097284,4788
0.3981542762,4789
0.3191054431,4790
0.2488551241,4791
0.4594484576,4792
0.4593861021,4793
0.4013771026,4794
0.303396544,4795
0.466337291,4796
0.3511847309,4797
0.4046096819,4798
0.3137762237,4799
0.1889607923,4800
0.359915537,4801
0.4201755832,4802
0.4635363733,4803
0.3166647568,4804
0.3276975616,4805
0.3093719603,4806
0.2575451163,4807
0.2483968585,4808
0.2098867118,4809
0.3141410914,4810
0.5220309591,4811
0.4418597558,4812
0.4023537517,4813
0.3303263409,4814
0.4163767087,4815
0.4039283687,4816
0.3803350099,4817
0.3121053366,4818
0.278338683,4819
0.3037104265,4820
0.2230407749,4821
0.1600227326,4822
0.1809467395,4823
0.3610035033,4824
0.3933274349,4825
0.407140491,4826
0.2641214107,4827
0.2694564207,4828
0.4363583053,4829
0.5018005479,4830
0.3523715377,4831
0.3732261273,4832
0.2558471176,4833
0.2018724654,4834
0.1845061975,4835
0.1335037601,4836
0.1193627709,4837
0.4799976086,4838
0.4409866607,4839
0.3776985169,4840
0.3129923292,4841
0.258211739,4842
0.199448241,4843
0.1824255086,4844
0.1636895084,4845
0.1305271286,4846
0.3530738536,4847
0.4205485171,4848
0.4083128933,4849
0.3207506006,4850
0.2943326096,4851
0.4387896517,4852
0.4170990642,4853
0.336401173,4854
0.3250813974,4855
0.2410225559,4856
0.1891279234,4857
0.1421337653,4858
0.1111084332,4859
0.08086006683,4860
0.3507632231,4861
0.3679150498,4862
0.4049490936,4863
0.2766437426,4864
0.2930785342,4865
0.4512179207,4866
0.4370126245,4867
0.3314515308,4868
0.3411845226,4869
0.2176920609,4870
0.1736393858,4871
0.1546791781,4872
0.1001487296,4873
0.08089328207,4874
0.4115349197,4875
0.435123313,4876
0.3499231433,4877
0.3615951207,4878
0.3572156897,4879
0.2093274107,4880
0.1378926177,4881
0.1172247891,4882
0.1017685091,4883
0.3472213763,4884
0.378018469,4885
0.3981898831,4886
0.2749971106,4887
0.2642799195,4888
0.4291848751,4889
0.4370252143,4890
0.3489979439,4891
0.3291567167,4892
0.2814756572,4893
0.1647001126,4894
0.1114713248,4895
0.08212267247,4896
0.06821413206,4897
0.3440744461,4898
0.3529051594,4899
0.3251948796,4900
0.2609200306,4901
0.2465880267,4902
0.4887472361,4903
0.3733504793,4904
0.3418862127,4905
0.2806441377,4906
0.2152371381,4907
0.1868460647,4908
0.1425037394,4909
0.1067726648,4910
0.1380200052,4911
0.4318260768,4912
0.4737886485,4913
0.3529220372,4914
0.2917903643,4915
0.2350844782,4916
0.1923002161,4917
0.1458438532,4918
0.1121228893,4919
0.1231233135,4920
0.3689300283,4921
0.3781509028,4922
0.4065690502,4923
0.2803610353,4924
0.2731881537,4925
0.4110206039,4926
0.4231835913,4927
0.3173338042,4928
0.2998254203,4929
0.2304105147,4930
0.182670497,4931
0.166103953,4932
0.1308067271,4933
0.1006414308,4934
0.3563926447,4935
0.4126410458,4936
0.3537304057,4937
0.2897203724,4938
0.2844167498,4939
0.5078392722,4940
0.4107420792,4941
0.3877809084,4942
0.284074977,4943
0.3043827057,4944
0.3339936253,4945
0.2878612915,4946
0.2907802217,4947
0.2428897439,4948
0.3684368383,4949
0.4256681326,4950
0.3122598742,4951
0.2700635709,4952
0.2016164534,4953
0.1732915587,4954
0.1523475678,4955
0.1190459087,4956
0.08661390422,4957
0.4555296382,4958
0.4593160957,4959
0.4164688345,4960
0.3414129564,4961
0.2551281226,4962
0.3781336357,4963
0.3515311031,4964
0.2980868278,4965
0.2560557671,4966
0.2374898295,4967
0.2488648782,4968
0.2314443394,4969
0.1653874462,4970
0.1951594405,4971
0.4016455829,4972
0.4467716204,4973
0.3764210154,4974
0.3028033089,4975
0.355193066,4976
0.4898933752,4977
0.4071894919,4978
0.3015970247,4979
0.2514997564,4980
0.1901691175,4981
0.1979655477,4982
0.1730171765,4983
0.116611404,4984
0.163471745,4985
0.4554743006,4986
0.4765781767,4987
0.3873610769,4988
0.3199226934,4989
0.2834714376,4990
0.1971601398,4991
0.1551155429,4992
0.1377276554,4993
0.1306400151,4994
0.3102503347,4995
0.3184556003,4996
0.3229568492,4997
0.2577386208,4998
0.2712279313,4999
0.4443179787,5000
0.3992167989,5001
0.3185788308,5002
0.2567501625,5003
0.1716908391,5004
0.1515918816,5005
0.1415484267,5006
0.1175432313,5007
0.1569075811,5008
0.2919839012,5009
0.3481827878,5010
0.289476998,5011
0.2970937783,5012
0.3376688166,5013
0.5193919554,5014
0.3858431154,5015
0.3646983332,5016
0.2800413762,5017
0.2077605745,5018
0.1538103563,5019
0.1100852479,5020
0.08926419202,5021
0.1873429595,5022
0.3996135282,5023
0.3843660851,5024
0.3825244218,5025
0.3175090953,5026
0.2515200372,5027
0.2644933655,5028
0.242473633,5029
0.1703289029,5030
0.1361841928,5031
0.4046775495,5032
0.4517156367,5033
0.3250470936,5034
0.2868563746,5035
0.2433647402,5036
0.4235807771,5037
0.3539196335,5038
0.328785759,5039
0.2697117701,5040
0.2222312182,5041
0.159365258,5042
0.1477997145,5043
0.1058634748,5044
0.1293867742,5045
0.3812660925,5046
0.3887879389,5047
0.3118368184,5048
0.239949089,5049
0.3530656329,5050
0.4415411025,5051
0.355478218,5052
0.316138613,5053
0.244232817,5054
0.2335960866,5055
0.1936080123,5056
0.1407762451,5057
0.09601025985,5058
0.2385950554,5059
0.55874943,5060
0.4224253937,5061
0.3695722226,5062
0.2684854792,5063
0.2410332715,5064
0.2329962644,5065
0.2071785919,5066
0.1489078924,5067
0.1491256388,5068
0.360030153,5069
0.422369034,5070
0.3009324928,5071
0.2818701028,5072
0.3149086246,5073
0.5204868476,5074
0.3511699715,5075
0.3034052571,5076
0.2602276146,5077
0.1850860288,5078
0.1450714504,5079
0.1405234161,5080
0.1412049898,5081
0.1598927051,5082
0.4218617777,5083
0.4060236203,5084
0.3657816234,5085
0.2978525366,5086
0.471112613,5087
0.5139227845,5088
0.4832398399,5089
0.3627151984,5090
0.3819343952,5091
0.3655224418,5092
0.3330122029,5093
0.290825432,5094
0.2524497803,5095
0.1961797531,5096
0.3991976602,5097
0.3697961051,5098
0.3086826911,5099
0.238911333,5100
0.1766267049,5101
0.1796445287,5102
0.1554239974,5103
0.1402225825,5104
0.2248064296,5105
0.4077705996,5106
0.3992627154,5107
0.425896461,5108
0.3059673189,5109
0.2367230573,5110
0.3869541588,5111
0.3639008172,5112
0.2789874463,5113
0.2394810058,5114
0.2674627033,5115
0.2912648097,5116
0.1771640523,5117
0.1723889055,5118
0.2091984517,5119
0.3672796265,5120
0.3899379138,5121
0.3354847874,5122
0.2861223966,5123
0.3567541486,5124
0.493893784,5125
0.3783166741,5126
0.3265250966,5127
0.2600196984,5128
0.2036432424,5129
0.188941232,5130
0.1661840151,5131
0.1259355761,5132
0.2568954636,5133
0.5239007506,5134
0.4872470638,5135
0.3658203868,5136
0.2801082231,5137
0.1717011439,5138
0.1691605449,5139
0.137847239,5140
0.08894487077,5141
0.1260923496,5142
0.3768126769,5143
0.3938026613,5144
0.3611612996,5145
0.2961064443,5146
0.2542247835,5147
0.5229412142,5148
0.4289892396,5149
0.3665374011,5150
0.3080391152,5151
0.2248644914,5152
0.1563636304,5153
0.1323244791,5154
0.09499665214,5155
0.1331077385,5156
0.4135882482,5157
0.4263748841,5158
0.3735150776,5159
0.2509688647,5160
0.4148480445,5161
0.5431780604,5162
0.4434436565,5163
0.3660629752,5164
0.3153302454,5165
0.1489024071,5166
0.153887759,5167
0.1370462833,5168
0.08130704644,5169
0.3061952862,5170
0.5640601946,5171
0.5048614263,5172
0.3419064707,5173
0.283621252,5174
0.2591968598,5175
0.2326978448,5176
0.1979013251,5177
0.1360661308,5178
0.130549106,5179
0.3627584719,5180
0.4005032687,5181
0.3386370018,5182
0.3009656153,5183
0.3466646042,5184
0.5502526344,5185
0.4285352175,5186
0.3419880164,5187
0.3190828913,5188
0.1722318779,5189
0.1392464285,5190
0.1361253559,5191
0.09188602835,5192
0.1465592899,5193
0.4073096089,5194
0.4006181989,5195
0.3443586861,5196
0.2514757906,5197
0.3881205524,5198
0.4454520998,5199
0.3355974803,5200
0.2911057965,5201
0.265482123,5202
0.1330749885,5203
0.1409363098,5204
0.149625796,5205
0.1041091669,5206
0.3229042644,5207
0.5115576355,5208
0.4579521965,5209
0.3432321164,5210
0.2972759722,5211
0.1879082813,5212
0.2356229454,5213
0.1806126439,5214
0.1072526435,5215
0.1335830808,5216
0.3522806387,5217
0.3664310063,5218
0.3212072758,5219
0.2393592624,5220
0.3891393409,5221
0.5197964353,5222
0.3822348827,5223
0.3263326778,5224
0.2930554974,5225
0.1493790443,5226
0.1849012824,5227
0.1454616007,5228
0.09608513429,5229
0.1446510773,5230
0.4418606103,5231
0.4199135195,5232
0.3116749547,5233
0.266698632,5234
0.4156991971,5235
0.4552981141,5236
0.3739533116,5237
0.3361257215,5238
0.2647731746,5239
0.3000211458,5240
0.2466928534,5241
0.2344315688,5242
0.2660968792,5243
0.3366097605,5244
0.4171184314,5245
0.3575665347,5246
0.3108598937,5247
0.2928479435,5248
0.191684846,5249
0.237278832,5250
0.1722728359,5251
0.1227677483,5252
0.2252740803,5253
0.4462795378,5254
0.3372089151,5255
0.3012911073,5256
0.2632422017,5257
0.3097690129,5258
0.3613077287,5259
0.3209607784,5260
0.2888629801,5261
0.3019719548,5262
0.3136867445,5263
0.3166023949,5264
0.2662000712,5265
0.2262243804,5266
0.2255323928,5267
0.2935126673,5268
0.3001605143,5269
0.2525479621,5270
0.2229608651,5271
0.3525836407,5272
0.3663082761,5273
0.3374948562,5274
0.3229383368,5275
0.2511235141,5276
0.2363132044,5277
0.2290124849,5278
0.1673869071,5279
0.110746208,5280
0.3259552637,5281
0.4642338405,5282
0.3969736143,5283
0.348139362,5284
0.3400125571,5285
0.1994069936,5286
0.1420262746,5287
0.1346934534,5288
0.08662360648,5289
0.160392557,5290
0.314627332,5291
0.3097623872,5292
0.2428073096,5293
0.2444608091,5294
0.3144609367,5295
0.3805687569,5296
0.359406778,5297
0.3356651714,5298
0.3115110649,5299
0.1624204045,5300
0.1291432725,5301
0.09869314623,5302
0.07866396959,5303
0.2441138586,5304
0.2657909635,5305
0.2752807807,5306
0.2509608847,5307
0.2435031104,5308
0.4154615647,5309
0.4602086499,5310
0.3882124447,5311
0.3858738442,5312
0.2790170394,5313
0.1658324785,5314
0.1583036706,5315
0.1188017502,5316
0.116724412,5317
0.3199531171,5318
0.3358168324,5319
0.3187282425,5320
0.2781223797,5321
0.2506303109,5322
0.225450018,5323
0.1973390135,5324
0.1739502939,5325
0.1051280193,5326
0.2686411075,5327
0.3257294752,5328
0.2894955717,5329
0.2287420832,5330
0.2261799843,5331
0.3688523002,5332
0.3700813747,5333
0.3243187148,5334
0.3188107389,5335
0.2388744129,5336
0.1828366716,5337
0.1831307581,5338
0.1573655262,5339
0.105917411,5340
0.2798904493,5341
0.3204095616,5342
0.2707632164,5343
0.2474948979,5344
0.2217606196,5345
0.3850628266,5346
0.4074070475,5347
0.3591588236,5348
0.3205534069,5349
0.2200994417,5350
0.1911410076,5351
0.1943894274,5352
0.1245306732,5353
0.1317289214,5354
0.4186506766,5355
0.3936470009,5356
0.3516710069,5357
0.3109666811,5358
0.2399377182,5359
0.169409911,5360
0.177882232,5361
0.1242385211,5362
0.1201346368,5363
0.3101420057,5364
0.3839184877,5365
0.3016129314,5366
0.2355449651,5367
0.2901737455,5368
0.42542883,5369
0.4049579719,5370
0.3742932742,5371
0.349903722,5372
0.2458010495,5373
0.1478706592,5374
0.1582924553,5375
0.1079264932,5376
0.08531426039,5377
0.3445265453,5378
0.3224881163,5379
0.2868641831,5380
0.2699851619,5381
0.2551827397,5382
0.4395232865,5383
0.359886557,5384
0.3120601848,5385
0.2674530935,5386
0.2502731002,5387
0.4313703067,5388
0.3330512383,5389
0.2326450592,5390
0.2275485787,5391
0.3588009836,5392
0.3049124456,5393
0.2730371694,5394
0.2398412512,5395
0.1282993753,5396
0.1807883102,5397
0.1253368185,5398
0.1286236244,5399
0.1060704621,5400
0.3354726827,5401
0.4170965413,5402
0.39216686,5403
0.3938473054,5404
0.3376177209,5405
0.3440607983,5406
0.3067213422,5407
0.2597600358,5408
0.2289662941,5409
0.2450846504,5410
0.2587142925,5411
0.2115650378,5412
0.1540724278,5413
0.1455530525,5414
0.2961593838,5415
0.3333684428,5416
0.3159807511,5417
0.2951271131,5418
0.30563114,5419
0.4340289798,5420
0.3695754753,5421
0.3413215623,5422
0.3277379922,5423
0.2068735667,5424
0.1120041369,5425
0.1129754412,5426
0.1012830274,5427
0.1909239408,5428
0.394556425,5429
0.3486436909,5430
0.2903236281,5431
0.2568877381,5432
0.1876221676,5433
0.1837357646,5434
0.1590432986,5435
0.1294004041,5436
0.1151178528,5437
0.3010486332,5438
0.3332337001,5439
0.2968949242,5440
0.2866950828,5441
0.2389684568,5442
0.4067492565,5443
0.3916624812,5444
0.3802217761,5445
0.3454902962,5446
0.2397925257,5447
0.178474537,5448
0.1621862985,5449
0.1123457699,5450
0.1160843098,5451
0.2866208249,5452
0.2679964297,5453
0.2273811487,5454
0.2142381976,5455
0.270900978,5456
0.3718774609,5457
0.3982071627,5458
0.338326078,5459
0.2618333645,5460
0.1462204894,5461
0.1125563471,5462
0.1227421283,5463
0.07834152607,5464
0.1686830049,5465
0.421987793,5466
0.379524082,5467
0.3540591217,5468
0.3117468891,5469
0.177787747,5470
0.1235774649,5471
0.1380599291,5472
0.1305317777,5473
0.1019874486,5474
0.3377264325,5475
0.3299788829,5476
0.2818594687,5477
0.2479024682,5478
0.2318468388,5479
0.3936676951,5480
0.3317936242,5481
0.3230139281,5482
0.314146688,5483
0.2144984996,5484
0.1557032394,5485
0.1382102592,5486
0.09883474832,5487
0.1176756076,5488
0.3563788786,5489
0.3315567368,5490
0.2756724593,5491
0.2373788658,5492
0.2398622495,5493
0.4225364751,5494
0.3791799215,5495
0.3310240029,5496
0.3128792927,5497
0.1697531436,5498
0.1448462124,5499
0.1036543758,5500
0.0882857778,5501
0.1545274512,5502
0.4133848437,5503
0.3786383687,5504
0.3653370156,5505
0.3042327574,5506
0.1800150483,5507
0.1901273487,5508
0.1523689765,5509
0.1445598182,5510
0.1086944491,5511
0.3496038829,5512
0.3426738232,5513
0.3226939337,5514
0.2806744439,5515
0.2120735986,5516
0.4607355422,5517
0.3956683154,5518
0.3708813124,5519
0.3376565749,5520
0.1983789617,5521
0.1807040773,5522
0.1483216023,5523
0.1347531545,5524
0.1394456223,5525
0.3243314187,5526
0.289135289,5527
0.2581463127,5528
0.2240160493,5529
0.3065963098,5530
0.4207229895,5531
0.3100646804,5532
0.3046397255,5533
0.2990432,5534
0.2446135531,5535
0.2146312171,5536
0.273908554,5537
0.2750713221,5538
0.2282305278,5539
0.3615875503,5540
0.3395485199,5541
0.2908199273,5542
0.2552823109,5543
0.1750517713,5544
0.1756799941,5545
0.1305036427,5546
0.1240199411,5547
0.2483017314,5548
0.4675862388,5549
0.3810216422,5550
0.3304411185,5551
0.2789484952,5552
0.2126806206,5553
0.382624198,5554
0.3376986636,5555
0.2796080097,5556
0.2660679566,5557
0.288537388,5558
0.2504899811,5559
0.203724708,5560
0.2067737903,5561
0.2365772701,5562
0.3741459616,5563
0.3429586371,5564
0.3115506274,5565
0.2831201245,5566
0.359188062,5567
0.4844935275,5568
0.4124679647,5569
0.3897893129,5570
0.2923532969,5571
0.2008056886,5572
0.1660026169,5573
0.1544624165,5574
0.1459127097,5575
0.2405234741,5576
0.3568334906,5577
0.3027946781,5578
0.3234687868,5579
0.2834549741,5580
0.1836814967,5581
0.1375748018,5582
0.1370117423,5583
0.1244376567,5584
0.1299658302,5585
0.2658506798,5586
0.2802177095,5587
0.2600340534,5588
0.2463944139,5589
0.2784027561,5590
0.4493306638,5591
0.3897911292,5592
0.3157632554,5593
0.3227817595,5594
0.189365344,5595
0.1571187902,5596
0.1527671895,5597
0.101531711,5598
0.1441265303,5599
0.2491484839,5600
0.2378141313,5601
0.21197154,5602
0.2084702726,5603
0.2781177051,5604
0.4385681778,5605
0.4077776537,5606
0.3616873432,5607
0.3069726088,5608
0.1626874114,5609
0.1417759723,5610
0.1103105399,5611
0.07534771949,5612
0.3017579836,5613
0.3294831754,5614
0.3071857697,5615
0.2642202783,5616
0.2574181194,5617
0.1639892073,5618
0.1968289364,5619
0.1730500823,5620
0.1573921496,5621
0.177775001,5622
0.3518742744,5623
0.313970117,5624
0.2673738171,5625
0.2219629402,5626
0.3831720605,5627
0.514750134,5628
0.3988841384,5629
0.3253751802,5630
0.2360778841,5631
0.186312255,5632
0.1598733618,5633
0.1500687979,5634
0.1460560791,5635
0.1698857996,5636
0.3514499514,5637
0.329367224,5638
0.2864462799,5639
0.2489358891,5640
0.4691156037,5641
0.5140230771,5642
0.4108661581,5643
0.3515389234,5644
0.2679927203,5645
0.1562151206,5646
0.09978871607,5647
0.09256520636,5648
0.1208622033,5649
0.2176246587,5650
0.397766113,5651
0.3575277972,5652
0.3161767553,5653
0.3120386698,5654
0.2330371924,5655
0.2182349381,5656
0.1920400501,5657
0.1207799198,5658
0.1413039485,5659
0.3127206161,5660
0.3095473044,5661
0.2905518557,5662
0.269611255,5663
0.3534110649,5664
0.3785477343,5665
0.3143164713,5666
0.3199596901,5667
0.3000511182,5668
0.2057235185,5669
0.1720248887,5670
0.1423641247,5671
0.1227527259,5672
0.1549475861,5673
0.2986953636,5674
0.2841581401,5675
0.2595116922,5676
0.2486664045,5677
0.3762847735,5678
0.3802489614,5679
0.3125757567,5680
0.2770104428,5681
0.2214734826,5682
0.2895123764,5683
0.2593479037,5684
0.2408852187,5685
0.2173131398,5686
0.347179441,5687
0.4199664332,5688
0.3901208373,5689
0.3000654871,5690
0.2398702175,5691
0.157895873,5692
0.154036035,5693
0.1287852492,5694
0.1162052773,5695
0.2490966018,5696
0.4370418242,5697
0.3658266526,5698
0.2866177022,5699
0.294986395,5700
0.3879069042,5701
0.348233625,5702
0.3036580756,5703
0.2499688601,5704
0.2755067939,5705
0.2623980487,5706
0.2675222562,5707
0.2940966287,5708
0.203166729,5709
0.2133451878,5710
0.3442974197,5711
0.3120510943,5712
0.2718967124,5713
0.2625268773,5714
0.4291416731,5715
0.3955478535,5716
0.3397299329,5717
0.3509839289,5718
0.2701040624,5719
0.2110730727,5720
0.1911123253,5721
0.1691254748,5722
0.1135215822,5723
0.3268115059,5724
0.5139845388,5725
0.3756528927,5726
0.3261574954,5727
0.2996990637,5728
0.1785534289,5729
0.1571187816,5730
0.1446379149,5731
0.1339455476,5732
0.2569201793,5733
0.3939582865,5734
0.3381661566,5735
0.3021641643,5736
0.2235876499,5737
0.4110118808,5738
0.4313802901,5739
0.3679198989,5740
0.3235968735,5741
0.2485965455,5742
0.1321203335,5743
0.1014646276,5744
0.101019077,5745
0.08962092941,5746
0.262068383,5747
0.2868006224,5748
0.2843543231,5749
0.2433183294,5750
0.247900114,5751
0.4831108099,5752
0.4742378949,5753
0.4051899398,5754
0.2831946395,5755
0.1985147573,5756
0.09738074013,5757
0.09302075074,5758
0.08104383726,5759
0.1305003817,5760
0.4646041692,5761
0.4481858507,5762
0.3547991429,5763
0.2989829835,5764
0.2489993988,5765
0.1979168773,5766
0.1944150603,5767
0.1450758427,5768
0.0874805506,5769
0.2888545537,5770
0.3751870589,5771
0.3518169853,5772
0.2731788542,5773
0.2704241744,5774
0.4235802353,5775
0.3656701728,5776
0.3179389786,5777
0.2899947781,5778
0.2522777644,5779
0.1776452914,5780
0.138272622,5781
0.09447931953,5782
0.07282306957,5783
0.2914319899,5784
0.3395482012,5785
0.2753282499,5786
0.2453103293,5787
0.3082947595,5788
0.4649613356,5789
0.3594498172,5790
0.3620515801,5791
0.3301772017,5792
0.2054234397,5793
0.1449254053,5794
0.1147963256,5795
0.100194945,5796
0.1011378713,5797
0.3867909776,5798
0.353723215,5799
0.2929006337,5800
0.2926711858,5801
0.2473048027,5802
0.1623776125,5803
0.1413996488,5804
0.1146316349,5805
0.1056832423,5806
0.3177894229,5807
0.4065570903,5808
0.362414262,5809
0.2896494028,5810
0.2974177972,5811
0.3570624483,5812
0.3280848805,5813
0.2915748131,5814
0.2806159323,5815
0.2289631726,5816
0.1813362148,5817
0.1446147781,5818
0.09689594171,5819
0.06653515201,5820
0.3578779885,5821
0.3389777518,5822
0.3013882321,5823
0.2726960884,5824
0.2754942103,5825
0.4468999875,5826
0.4814379115,5827
0.4263862137,5828
0.3462464973,5829
0.2384300087,5830
0.2874318119,5831
0.2979464805,5832
0.2397749066,5833
0.2306460285,5834
0.4534813877,5835
0.3814612427,5836
0.349905482,5837
0.2864564728,5838
0.21862206,5839
0.17354113,5840
0.1694020727,5841
0.1389959094,5842
0.1046812778,5843
0.3654351169,5844
0.4318871912,5845
0.3591049075,5846
0.3288879657,5847
0.2936750385,5848
0.2998508931,5849
0.2860810694,5850
0.2668098094,5851
0.2560694137,5852
0.3205172393,5853
0.3369163936,5854
0.2155089149,5855
0.1495863202,5856
0.1697638651,5857
0.3573445356,5858
0.3578745183,5859
0.322817051,5860
0.3001718429,5861
0.2964822956,5862
0.3918632898,5863
0.3565972471,5864
0.3550675487,5865
0.3114800498,5866
0.2097332582,5867
0.1900187718,5868
0.159457187,5869
0.1327369808,5870
0.2566501651,5871
0.4744664291,5872
0.4378342194,5873
0.4257615515,5874
0.389806391,5875
0.2923344958,5876
0.1513003622,5877
0.1233345435,5878
0.1134419231,5879
0.1259597971,5880
0.3129441088,5881
0.2573733839,5882
0.2446101284,5883
0.2327391264,5884
0.2625822509,5885
0.4199369177,5886
0.3455349413,5887
0.2957234117,5888
0.2794280135,5889
0.2191730672,5890
0.1752168241,5891
0.15418628,5892
0.1298445917,5893
0.1428312451,5894
0.2774329331,5895
0.3029011252,5896
0.2966919167,5897
0.2724296135,5898
0.337713349,5899
0.4865320349,5900
0.4303150951,5901
0.4191367127,5902
0.3649120194,5903
0.3022191505,5904
0.2943186037,5905
0.27101593,5906
0.2230471041,5907
0.4004488893,5908
0.5540319243,5909
0.6293130775,5910
0.4622032902,5911
0.562970412,5912
0.6261518104,5913
0.5558521672,5914
0.5864174108,5915
0.453381231,5916
0.3171628663,5917
0.4745359756,5918
0.3425663186,5919
0.27687313,5920
0.2188669605,5921
0.3517424862,5922
0.484172181,5923
0.574385901,5924
0.4316281803,5925
0.6262838464,5926
0.6085636009,5927
0.5241517783,5928
0.5460229799,5929
0.4277326789,5930
0.3070095677,5931
0.4428152807,5932
0.317709982,5933
0.251567981,5934
0.1903176181,5935
0.4292683996,5936
0.5465673506,5937
0.5858798155,5938
0.463465595,5939
0.645239974,5940
0.6008502526,5941
0.5628652634,5942
0.5210466736,5943
0.3433258922,5944
0.3934719557,5945
0.5037892503,5946
0.5782758737,5947
0.3509247626,5948
0.5469945436,5949
0.6654521365,5950
0.5442925936,5951
0.5669149873,5952
0.449710127,5953
0.3295894341,5954
0.4693388992,5955
0.353397156,5956
0.2845606684,5957
0.2258835956,5958
0.4464712223,5959
0.5165469668,5960
0.5563404018,5961
0.3614031904,5962
0.6267987673,5963
0.5571520482,5964
0.5208470446,5965
0.5267919108,5966
0.3886255028,5967
0.3057764401,5968
0.4309807982,5969
0.3263615467,5970
0.2766533711,5971
0.216948323,5972
0.4756205931,5973
0.6261457082,5974
0.563595634,5975
0.4615399721,5976
0.6041820326,5977
0.6192599278,5978
0.4784493546,5979
0.5032023107,5980
0.4919016886,5981
0.4536985225,5982
0.4672653285,5983
0.5701220253,5984
0.5876002411,5985
0.531483958,5986
0.609468879,5987
0.5337667372,5988
0.5010215914,5989
0.4263941574,5990
0.3604720869,5991
0.5044322962,5992
0.4355664802,5993
0.42798651,5994
0.381160025,5995
0.350170922,5996
0.3751023393,5997
0.3772664729,5998
0.3259048448,5999
0.3592705393,6000
0.4734772273,6001
0.571420028,6002
0.3885699874,6003
0.5648596737,6004
0.5606612021,6005
0.4460560008,6006
0.4868322953,6007
0.5736085209,6008
0.4830332938,6009
0.5042614657,6010
0.4471904221,6011
0.4001278847,6012
0.3960273405,6013
0.3721566316,6014
0.1884633558,6015
0.1573490392,6016
0.116692789,6017
0.08772462031,6018
0.416394642,6019
0.4608410319,6020
0.5194071116,6021
0.5433063496,6022
0.5119707452,6023
0.5963735316,6024
0.5152021447,6025
0.5378594751,6026
0.3732752378,6027
0.3925891638,6028
0.4508249094,6029
0.2967719834,6030
0.3335863976,6031
0.288341612,6032
0.4064856537,6033
0.4104161462,6034
0.3401689402,6035
0.313205944,6036
0.3761055745,6037
0.3587696796,6038
0.6024739671,6039
0.3137854541,6040
0.5441526592,6041
0.5748973943,6042
0.4166136697,6043
0.4684663657,6044
0.5883035658,6045
0.489462238,6046
0.4435177464,6047
0.4383292798,6048
0.4042736607,6049
0.3767821228,6050
0.2758136035,6051
0.1550073691,6052
0.1475944133,6053
0.1167813493,6054
0.08288855946,6055
0.4671827057,6056
0.4844496924,6057
0.5422219207,6058
0.5088905968,6059
0.5401334918,6060
0.6120105359,6061
0.5423316818,6062
0.5427519521,6063
0.3406647966,6064
0.3861237581,6065
0.4872070944,6066
0.3318424536,6067
0.3493180359,6068
0.2906263187,6069
0.462959363,6070
0.4460172743,6071
0.3945907283,6072
0.334088146,6073
0.3924040402,6074
0.4441150177,6075
0.6685252974,6076
0.3354066052,6077
0.5446117367,6078
0.5650549784,6079
0.4651430379,6080
0.4622677789,6081
0.5727443712,6082
0.5197678816,6083
0.5055842949,6084
0.4392243102,6085
0.395303667,6086
0.4084339473,6087
0.2784371408,6088
0.1606528847,6089
0.1201814844,6090
0.09139188039,6091
0.06662310265,6092
0.4763792869,6093
0.5135901145,6094
0.4996185949,6095
0.557282394,6096
0.5074227433,6097
0.6145606429,6098
0.5410125102,6099
0.5474295599,6100
0.3484675461,6101
0.4137343486,6102
0.4060424428,6103
0.3196820466,6104
0.2902700047,6105
0.255465944,6106
0.4347687831,6107
0.4803972694,6108
0.4169831197,6109
0.3654400333,6110
0.378775623,6111
0.4015920266,6112
0.6618010743,6113
0.314218025,6114
0.5773181697,6115
0.5222806529,6116
0.4019875618,6117
0.5050378954,6118
0.5281700101,6119
0.48327253,6120
0.4646810825,6121
0.4233570392,6122
0.3891482146,6123
0.3680124156,6124
0.3229990866,6125
0.4265078775,6126
0.3516577816,6127
0.2655278585,6128
0.2253191788,6129
0.5281487543,6130
0.5698703363,6131
0.5165300154,6132
0.6397742263,6133
0.5536553469,6134
0.6368562206,6135
0.4953351107,6136
0.5305344268,6137
0.3894333052,6138
0.4369566483,6139
0.4872727952,6140
0.459635854,6141
0.4036675278,6142
0.34329683,6143
0.3614752426,6144
0.359172872,6145
0.2909912086,6146
0.2542494171,6147
0.3732539102,6148
0.4579314712,6149
0.6080136935,6150
0.4218243547,6151
0.607836697,6152
0.5226055177,6153
0.4654687663,6154
0.5723739588,6155
0.5349058726,6156
0.4904342191,6157
0.51321778,6158
0.470862303,6159
0.4332188899,6160
0.3579641095,6161
0.2457004128,6162
0.208882827,6163
0.1879032813,6164
0.1231749782,6165
0.1224790994,6166
0.4922299965,6167
0.5570780714,6168
0.4523691756,6169
0.5600084452,6170
0.5640772776,6171
0.5895152773,6172
0.5470082227,6173
0.4863817539,6174
0.3499738081,6175
0.4459887307,6176
0.3237563483,6177
0.2848199564,6178
0.2811930169,6179
0.2909193147,6180
0.4133849361,6181
0.4489849148,6182
0.3861479099,6183
0.3710710221,6184
0.3884633476,6185
0.3972898058,6186
0.5699245876,6187
0.3801185286,6188
0.5789805835,6189
0.5643165176,6190
0.4447147851,6191
0.5839929066,6192
0.5501521352,6193
0.4406524414,6194
0.4314904293,6195
0.4241473408,6196
0.368824735,6197
0.4333234885,6198
0.3008018186,6199
0.1780305616,6200
0.1326154097,6201
0.120033982,6202
0.229599257,6203
0.4735520521,6204
0.544201557,6205
0.4510930063,6206
0.6172192295,6207
0.5229844201,6208
0.5960312466,6209
0.5456154866,6210
0.487028039,6211
0.3499226841,6212
0.4646154951,6213
0.3729115697,6214
0.3508855004,6215
0.2989984934,6216
0.3244312338,6217
0.4854893094,6218
0.4890224686,6219
0.3629880067,6220
0.3352998345,6221
0.3957742529,6222
0.4946874686,6223
0.5638981939,6224
0.3655976361,6225
0.6432513552,6226
0.518625502,6227
0.4116355459,6228
0.5737637703,6229
0.5300751375,6230
0.456492561,6231
0.5327441859,6232
0.4260860376,6233
0.3932116988,6234
0.3290097784,6235
0.2256555212,6236
0.1974280021,6237
0.1750463174,6238
0.1311024284,6239
0.2770200363,6240
0.5313764878,6241
0.5369723857,6242
0.4839030363,6243
0.6022941077,6244
0.5162623561,6245
0.5835116872,6246
0.5481056915,6247
0.494318512,6248
0.3167131143,6249
0.4465731907,6250
0.3427541211,6251
0.2842113864,6252
0.2739369341,6253
0.2949880223,6254
0.5083816379,6255
0.4717562795,6256
0.4018466302,6257
0.3599311133,6258
0.4369124338,6259
0.4540442138,6260
0.5579346786,6261
0.4057255044,6262
0.6256948102,6263
0.524582008,6264
0.4481622349,6265
0.5304720722,6266
0.5295365461,6267
0.4804278282,6268
0.5808467597,6269
0.4497500985,6270
0.4774142407,6271
0.4200541999,6272
0.4230918656,6273
0.3473258263,6274
0.3647223436,6275
0.3352495739,6276
0.290222049,6277
0.5252691419,6278
0.5626151463,6279
0.4255790443,6280
0.5783050964,6281
0.6529088478,6282
0.5698710883,6283
0.5359009671,6284
0.4940198125,6285
0.3128100256,6286
0.4801181404,6287
0.4512370479,6288
0.4492165743,6289
0.377612445,6290
0.269451554,6291
0.3249267536,6292
0.318845914,6293
0.3067155415,6294
0.2625035991,6295
0.4668285052,6296
0.5324958377,6297
0.4656915293,6298
0.4869506768,6299
0.5225512636,6300
0.5886137965,6301
0.5828279156,6302
0.5755890213,6303
0.4120289349,6304
0.3658240156,6305
0.4745326672,6306
0.389774945,6307
0.3989779726,6308
0.3114374413,6309
0.2254192077,6310
0.1821406363,6311
0.1533276051,6312
0.1217619391,6313
0.276875671,6314
0.4760168426,6315
0.5155201975,6316
0.4588768858,6317
0.5314168245,6318
0.6598602467,6319
0.5660961881,6320
0.5652564747,6321
0.4230610369,6322
0.3413842463,6323
0.4753452644,6324
0.3774813482,6325
0.3173591001,6326
0.2631469989,6327
0.2914551486,6328
0.4650701646,6329
0.4285173697,6330
0.3813883258,6331
0.3377287945,6332
0.424511938,6333
0.5006594046,6334
0.4690572547,6335
0.4795732455,6336
0.5985714361,6337
0.6461480681,6338
0.6209144708,6339
0.5986862804,6340
0.3813993662,6341
0.3737376005,6342
0.4675875482,6343
0.4256920475,6344
0.3542411826,6345
0.3058938743,6346
0.174876213,6347
0.1602162519,6348
0.15561076,6349
0.08528435234,6350
0.3084919943,6351
0.4719763627,6352
0.5032879225,6353
0.473514962,6354
0.519299969,6355
0.5793350557,6356
0.5298547092,6357
0.5315630225,6358
0.399674631,6359
0.3107237321,6360
0.4553321919,6361
0.3844567888,6362
0.344846766,6363
0.2467399393,6364
0.2981203438,6365
0.3601007012,6366
0.3509147656,6367
0.3399180809,6368
0.296047093,6369
0.4182861681,6370
0.5519453294,6371
0.4182243458,6372
0.4949673453,6373
0.6062266728,6374
0.6156068576,6375
0.6281780552,6376
0.5514992444,6377
0.3931187185,6378
0.4461157434,6379
0.3732411575,6380
0.3725629166,6381
0.371111954,6382
0.3152813743,6383
0.1723683839,6384
0.1471422074,6385
0.119320273,6386
0.1049926554,6387
0.3415299675,6388
0.5261441447,6389
0.4648096955,6390
0.4823498987,6391
0.4639002642,6392
0.6634222736,6393
0.5339086053,6394
0.5561546886,6395
0.4340285732,6396
0.3204716589,6397
0.4879840677,6398
0.3755845942,6399
0.3219947527,6400
0.2204084848,6401
0.2980500969,6402
0.3878910249,6403
0.3453028407,6404
0.3288015896,6405
0.3112202942,6406
0.41126833,6407
0.5747129566,6408
0.3636162441,6409
0.5247667902,6410
0.5860443797,6411
0.6122765144,6412
0.6729495079,6413
0.5215190133,6414
0.387409709,6415
0.43303075,6416
0.4094821771,6417
0.4134866147,6418
0.3868204797,6419
0.3189072029,6420
0.3663964276,6421
0.3106399265,6422
0.232282409,6423
0.2167954789,6424
0.3934573612,6425
0.5092114761,6426
0.5121358627,6427
0.5063402926,6428
0.5265852137,6429
0.6986614679,6430
0.5248733654,6431
0.5240484181,6432
0.3974136666,6433
0.3506488019,6434
0.5012036739,6435
0.4648556049,6436
0.4108742531,6437
0.343888033,6438
0.2937228639,6439
0.3210266003,6440
0.2928037553,6441
0.2414751746,6442
0.3048237533,6443
0.4763925051,6444
0.5942138862,6445
0.3527703709,6446
0.5684346712,6447
0.6332035747,6448
0.5618997462,6449
0.6253611384,6450
0.5723272104,6451
0.31403478,6452
0.4641907672,6453
0.4475401802,6454
0.3739958673,6455
0.3419091198,6456
0.2731667522,6457
0.2081234425,6458
0.1973906574,6459
0.1526412565,6460
0.1121698731,6461
0.4062066665,6462
0.5367495047,6463
0.4617395519,6464
0.4818062494,6465
0.5123907967,6466
0.6429520155,6467
0.553426111,6468
0.5305105985,6469
0.3451316503,6470
0.3676337362,6471
0.4789219994,6472
0.4329848084,6473
0.3408698689,6474
0.2558918392,6475
0.407069797,6476
0.3899982969,6477
0.3865736874,6478
0.3636288662,6479
0.3940404127,6480
0.4062967686,6481
0.6374858867,6482
0.3120813957,6483
0.5354471697,6484
0.6539827612,6485
0.5966252513,6486
0.601584592,6487
0.52821948,6488
0.2921544411,6489
0.4361716152,6490
0.4536920466,6491
0.3924139128,6492
0.3524797219,6493
0.2996945085,6494
0.2051386082,6495
0.1755857669,6496
0.1449196558,6497
0.09165281052,6498
0.4112592876,6499
0.5571497945,6500
0.4728389394,6501
0.5740354923,6502
0.5141452797,6503
0.6462695299,6504
0.5404929368,6505
0.5608781706,6506
0.3520585763,6507
0.3643478201,6508
0.5158046247,6509
0.438386008,6510
0.3742643737,6511
0.2558569626,6512
0.3940142133,6513
0.5174307306,6514
0.4135838355,6515
0.4006356136,6516
0.4161145048,6517
0.4306370651,6518
0.6180471862,6519
0.3510248762,6520
0.5269219734,6521
0.6596070011,6522
0.6332317813,6523
0.6255651055,6524
0.47500204,6525
0.3409306186,6526
0.4626251955,6527
0.4426859996,6528
0.3719212908,6529
0.357708403,6530
0.2556605183,6531
0.1935564916,6532
0.1810453369,6533
0.1512044502,6534
0.0730449421,6535
0.4506535061,6536
0.505707837,6537
0.4213549669,6538
0.5524353533,6539
0.4817979596,6540
0.6433998755,6541
0.5179932937,6542
0.5160703835,6543
0.3501808074,6544
0.3245441914,6545
0.5345212617,6546
0.4359326062,6547
0.3372540726,6548
0.2366416764,6549
0.4569950985,6550
0.373379245,6551
0.3637604701,6552
0.402360929,6553
0.4315219183,6554
0.3503585582,6555
0.637024521,6556
0.3069986471,6557
0.5912763583,6558
0.6242295183,6559
0.593362501,6560
0.6501696371,6561
0.4388720882,6562
0.3495437197,6563
0.4809183607,6564
0.424262287,6565
0.4144794578,6566
0.3736165497,6567
0.2805684082,6568
0.3978707818,6569
0.3205915585,6570
0.2411433609,6571
0.243526698,6572
0.4845723814,6573
0.5746154057,6574
0.348382865,6575
0.513363108,6576
0.667295706,6577
0.6403087446,6578
0.5233318434,6579
0.5124563973,6580
0.3729028772,6581
0.3752594858,6582
0.4342692208,6583
0.3581412596,6584
0.3715937877,6585
0.3718426517,6586
0.336276421,6587
0.3263143936,6588
0.3310168641,6589
0.2616966772,6590
0.4055012607,6591
0.4527707522,6592
0.5495810743,6593
0.3956801605,6594
0.5641153335,6595
0.6276226216,6596
0.5998225751,6597
0.4703146693,6598
0.4748768867,6599
0.4853898488,6600
0.405523984,6601
0.3199147559,6602
0.3839042454,6603
0.3697282268,6604
0.2779408352,6605
0.2193166178,6606
0.1627093784,6607
0.1307367128,6608
0.1760194034,6609
0.4577059931,6610
0.545732436,6611
0.436001363,6612
0.5200921104,6613
0.5242568685,6614
0.5896945108,6615
0.4724981975,6616
0.4706831775,6617
0.3185394482,6618
0.3587293397,6619
0.3846937003,6620
0.2563186531,6621
0.282017795,6622
0.2836050022,6623
0.3918659083,6624
0.4377553099,6625
0.4072856594,6626
0.3776519852,6627
0.4124822355,6628
0.3949074687,6629
0.5898354684,6630
0.4139612047,6631
0.6334211503,6632
0.7005193117,6633
0.5262827151,6634
0.5307214989,6635
0.4913369313,6636
0.4239687835,6637
0.4507131727,6638
0.4458880839,6639
0.4271413589,6640
0.3374141036,6641
0.1839686775,6642
0.1492415884,6643
0.1485794582,6644
0.1201972786,6645
0.2427213542,6646
0.491028415,6647
0.560400421,6648
0.3527587089,6649
0.545727961,6650
0.5529284735,6651
0.5966425529,6652
0.5247172954,6653
0.5013849678,6654
0.3202081443,6655
0.3971596357,6656
0.3995675177,6657
0.3330949386,6658
0.3274924798,6659
0.3570921956,6660
0.4440671683,6661
0.364631779,6662
0.3242187593,6663
0.3596296858,6664
0.414354227,6665
0.4483702047,6666
0.5377861767,6667
0.4005589235,6668
0.6525867791,6669
0.6468032048,6670
0.4904561853,6671
0.5189548644,6672
0.424058928,6673
0.4215532435,6674
0.419785752,6675
0.3494309381,6676
0.3582370811,6677
0.3546759168,6678
0.2239751194,6679
0.1680101138,6680
0.1386462548,6681
0.1118385468,6682
0.2486554428,6683
0.4524595477,6684
0.5041434597,6685
0.3677621029,6686
0.5529755941,6687
0.6214104199,6688
0.5977078322,6689
0.5238951859,6690
0.4905478495,6691
0.3146703124,6692
0.3793535975,6693
0.3374055507,6694
0.2750402961,6695
0.2603096845,6696
0.2396533975,6697
0.4051655558,6698
0.326914594,6699
0.3063727676,6700
0.3098209296,6701
0.4137308061,6702
0.4410152093,6703
0.5335529209,6704
0.4783656003,6705
0.5938966451,6706
0.661981546,6707
0.5064156038,6708
0.5092016836,6709
0.4779756911,6710
0.4484779075,6711
0.4568081635,6712
0.3788626619,6713
0.3539012999,6714
0.298571357,6715
0.2070015406,6716
0.3244949216,6717
0.2693462548,6718
0.2265117991,6719
0.3254532047,6720
0.3993325514,6721
0.5627904412,6722
0.3209801277,6723
0.6006260538,6724
0.672038698,6725
0.5876943404,6726
0.5535283777,6727
0.4429341728,6728
0.3220880387,6729
0.4288767299,6730
0.4285852158,6731
0.3482721516,6732
0.3466928934,6733
0.2652236161,6734
0.3944488839,6735
0.3409876521,6736
0.2911270899,6737
0.2800621883,6738
0.484040771,6739
0.4768827714,6740
0.4998145337,6741
0.5176489935,6742
0.5582341815,6743
0.6779975786,6744
0.4351296637,6745
0.4921929454,6746
0.5045496733,6747
0.3705100284,6748
0.4391916663,6749
0.410800233,6750
0.3814286465,6751
0.3681748156,6752
0.2129786986,6753
0.2134216896,6754
0.188089703,6755
0.1305833183,6756
0.3180232266,6757
0.494543823,6758
0.5515316652,6759
0.3627821154,6760
0.6045558027,6761
0.6372467383,6762
0.5611855303,6763
0.5578315612,6764
0.4222935978,6765
0.3093824316,6766
0.3981267633,6767
0.2572937408,6768
0.2290411983,6769
0.2506369024,6770
0.3028346635,6771
0.4859880633,6772
0.3835789396,6773
0.3122756935,6774
0.2985444954,6775
0.4288037181,6776
0.5258609226,6777
0.4669868733,6778
0.510231162,6779
0.6066714362,6780
0.6870767846,6781
0.4481890653,6782
0.4430219526,6783
0.5099552321,6784
0.3511104808,6785
0.4882356337,6786
0.4324972348,6787
0.4242201632,6788
0.3465772078,6789
0.247763665,6790
0.2003106129,6791
0.165358487,6792
0.1378237732,6793
0.35804693,6794
0.4787415664,6795
0.5416490518,6796
0.2905604889,6797
0.5377066526,6798
0.6236111164,6799
0.5813123585,6800
0.5456064253,6801
0.4425416293,6802
0.3586931012,6803
0.4420705719,6804
0.3310119946,6805
0.359786616,6806
0.3465114855,6807
0.2756913744,6808
0.373257624,6809
0.2954777288,6810
0.2833680983,6811
0.3134582542,6812
0.4031260052,6813
0.5740125434,6814
0.3831958729,6815
0.5320614633,6816
0.6140219616,6817
0.6617926064,6818
0.43175399,6819
0.4848423545,6820
0.5036402547,6821
0.381728029,6822
0.3864342468,6823
0.3090805183,6824
0.3375016001,6825
0.3319453826,6826
0.2065221428,6827
0.1539218839,6828
0.1336267763,6829
0.09922564954,6830
0.3481198571,6831
0.4164024867,6832
0.5469687321,6833
0.4331196583,6834
0.5959606934,6835
0.5927317898,6836
0.5682674648,6837
0.5163619715,6838
0.4232321461,6839
0.3392003132,6840
0.4276873554,6841
0.2666481197,6842
0.2678935328,6843
0.2698490572,6844
0.2985613448,6845
0.4496347437,6846
0.3980977341,6847
0.3841137698,6848
0.3561103856,6849
0.4056259447,6850
0.5881964574,6851
0.3783160429,6852
0.5503687564,6853
0.5402742464,6854
0.688125065,6855
0.513074293,6856
0.5186140249,6857
0.5045558694,6858
0.4237608371,6859
0.4616676891,6860
0.3608920004,6861
0.342274704,6862
0.2807203871,6863
0.2984999198,6864
0.3108218593,6865
0.2552390973,6866
0.237044619,6867
0.3464574966,6868
0.4418535796,6869
0.5867886593,6870
0.3671685428,6871
0.655077616,6872
0.6313025042,6873
0.5518419555,6874
0.5307576887,6875
0.3805363652,6876
0.337384883,6877
0.4527450843,6878
0.342680123,6879
0.324623835,6880
0.2950428776,6881
0.2378731647,6882
0.4056133621,6883
0.3484531867,6884
0.2891416009,6885
0.3256317984,6886
0.3867229151,6887
0.5929729645,6888
0.3868995562,6889
0.5389752863,6890
0.6243124993,6891
0.573295157,6892
0.5780706372,6893
0.3867686968,6894
0.2414975918,6895
0.4060407497,6896
0.4905258787,6897
0.4369359787,6898
0.2963117478,6899
0.2440368443,6900
0.1608482351,6901
0.1807193988,6902
0.1592576962,6903
0.1223584327,6904
0.4587797839,6905
0.5005602699,6906
0.5617143524,6907
0.4079615851,6908
0.6155744142,6909
0.5409528415,6910
0.5532893161,6911
0.5264683929,6912
0.3338907735,6913
0.3376611754,6914
0.4775395164,6915
0.3806338365,6916
0.3248228554,6917
0.2759483407,6918
0.304965755,6919
0.4264522694,6920
0.4048669009,6921
0.3868428626,6922
0.3810526956,6923
0.3717092155,6924
0.5970748196,6925
0.3311299328,6926
0.551144777,6927
0.6830541262,6928
0.6131327924,6929
0.5494896781,6930
0.4146358912,6931
0.2534502385,6932
0.4463303662,6933
0.4570701763,6934
0.3815792014,6935
0.3509433332,6936
0.2506543023,6937
0.1382873663,6938
0.1318405293,6939
0.124986723,6940
0.07571189888,6941
0.4250789599,6942
0.5431242469,6943
0.5257031521,6944
0.4412042745,6945
0.5919265236,6946
0.5587176882,6947
0.5420586821,6948
0.5359809662,6949
0.3511757146,6950
0.3401590228,6951
0.4687448617,6952
0.37751915,6953
0.3180885626,6954
0.2545146461,6955
0.3903680335,6956
0.4677822501,6957
0.4047735815,6958
0.3628991733,6959
0.3921025993,6960
0.365694836,6961
0.6101486277,6962
0.304894311,6963
0.5804829685,6964
0.6158587095,6965
0.6595457125,6966
0.5515130513,6967
0.3502722695,6968
0.2667220965,6969
0.5176142736,6970
0.4192587732,6971
0.3401172715,6972
0.3231046356,6973
0.2703214569,6974
0.1717179427,6975
0.1205481114,6976
0.08580045788,6977
0.0720211491,6978
0.4322169608,6979
0.5009421266,6980
0.518004326,6981
0.3911647003,6982
0.6600814197,6983
0.6266175534,6984
0.5175875636,6985
0.5082797106,6986
0.3708213115,6987
0.3296765133,6988
0.4552696208,6989
0.3326127512,6990
0.2623621971,6991
0.2197782256,6992
0.3888953136,6993
0.4304790013,6994
0.3738611851,6995
0.3420211004,6996
0.4104764027,6997
0.4062212008,6998
0.6343039316,6999
0.3258010716,7000
0.5817598446,7001
0.6327678466,7002
0.6226916454,7003
0.5681007887,7004
0.3015359696,7005
0.3001033371,7006
0.4579455152,7007
0.4346362186,7008
0.3708998163,7009
0.2942047264,7010
0.2388801359,7011
0.3294526478,7012
0.2640328357,7013
0.2413968001,7014
0.2126231543,7015
0.4970201907,7016
0.5709728417,7017
0.4938157863,7018
0.3160447589,7019
0.7351912635,7020
0.614094868,7021
0.5448582697,7022
0.4581480747,7023
0.3567688484,7024
0.439673213,7025
0.4733456481,7026
0.4368065891,7027
0.377679736,7028
0.2753597427,7029
0.3661858218,7030
0.3394216597,7031
0.301264583,7032
0.2780443663,7033
0.3503369898,7034
0.4687801744,7035
0.5260206895,7036
0.3679228973,7037
0.5842914975,7038
0.6745724601,7039
0.5529865957,7040
0.523304204,7041
0.2889488573,7042
0.2933313533,7043
0.4762455204,7044
0.4084277053,7045
0.3563405761,7046
0.3410709738,7047
0.2294934939,7048
0.2011157163,7049
0.1664765104,7050
0.1516078136,7051
0.2236756741,7052
0.5734818084,7053
0.5334517206,7054
0.4838440397,7055
0.4345128078,7056
0.6292587267,7057
0.5553345829,7058
0.5462100657,7059
0.4853558188,7060
0.3175812207,7061
0.4140019678,7062
0.4082627988,7063
0.3257484465,7064
0.2182078021,7065
0.2365740267,7066
0.4099582334,7067
0.4509227503,7068
0.3970941747,7069
0.3555954159,7070
0.3924556321,7071
0.3962441262,7072
0.5904889428,7073
0.3959645529,7074
0.6092714639,7075
0.6645306956,7076
0.637674832,7077
0.5221620649,7078
0.2958808956,7079
0.2824043728,7080
0.4667198536,7081
0.3641898758,7082
0.3165054843,7083
0.3173113566,7084
0.2885383759,7085
0.2197531945,7086
0.1696754689,7087
0.1135112256,7088
0.2086545044,7089
0.4282034769,7090
0.5630720856,7091
0.4134508631,7092
0.4625536979,7093
0.6488089635,7094
0.5795300981,7095
0.539240712,7096
0.5102540347,7097
0.319014763,7098
0.4404501193,7099
0.4404523809,7100
0.3106833957,7101
0.2218587538,7102
0.2991031947,7103
0.4151092748,7104
0.3667343871,7105
0.3437160121,7106
0.3439096564,7107
0.3847752699,7108
0.4689504926,7109
0.5612096049,7110
0.4191312417,7111
0.5962213598,7112
0.6770546255,7113
0.6400826195,7114
0.5010794989,7115
0.2599203979,7116
0.3358277514,7117
0.4452187927,7118
0.4660349538,7119
0.4211033331,7120
0.4131774106,7121
0.2594508856,7122
0.2037132108,7123
0.1562400426,7124
0.1344855987,7125
0.2726702905,7126
0.5062106191,7127
0.5476975651,7128
0.4378163962,7129
0.5014521333,7130
0.6682748385,7131
0.5458474122,7132
0.5369556937,7133
0.5184085443,7134
0.3500696244,7135
0.4439672568,7136
0.4531053931,7137
0.3346357629,7138
0.2668565002,7139
0.2827692644,7140
0.4223649161,7141
0.4480280517,7142
0.4336191449,7143
0.3512430735,7144
0.4151850618,7145
0.4772701472,7146
0.5145956963,7147
0.4468312048,7148
0.5657569546,7149
0.6575892239,7150
0.6075151168,7151
0.5318728847,7152
0.2619278199,7153
0.296527536,7154
0.4650396956,7155
0.413086895,7156
0.401742683,7157
0.3419684589,7158
0.2552473653,7159
0.285262515,7160
0.2880591472,7161
0.2022614586,7162
0.3370471404,7163
0.4991707918,7164
0.5056754596,7165
0.5785173291,7166
0.6030109842,7167
0.608815961,7168
0.554981939,7169
0.558021947,7170
0.4459442176,7171
0.3616988388,7172
0.4834513893,7173
0.4117833521,7174
0.3483557351,7175
0.3759056801,7176
0.3380124114,7177
0.4211545871,7178
0.3484519198,7179
0.3496577002,7180
0.2386071236,7181
0.4564457896,7182
0.4956999134,7183
0.4817077943,7184
0.5176573804,7185
0.5968164598,7186
0.4482954365,7187
0.3831980999,7188
0.5455282012,7189
0.5471119552,7190
0.4905559343,7191
0.4071745867,7192
0.4264961551,7193
0.3269203507,7194
0.3596635194,7195
0.1959407154,7196
0.1974593362,7197
0.1184557138,7198
0.09895648235,7199
0.3313242437,7200
0.514981071,7201
0.5803288933,7202
0.5301928091,7203
0.5539870764,7204
0.5647791948,7205
0.5456574429,7206
0.5540267691,7207
0.4012675673,7208
0.3274733635,7209
0.4844443649,7210
0.3959282467,7211
0.3043817246,7212
0.3253509691,7213
0.3535198231,7214
0.512166012,7215
0.4547729462,7216
0.3716850202,7217
0.2923478446,7218
0.4209249727,7219
0.568655383,7220
0.4495031609,7221
0.4945335928,7222
0.6159238149,7223
0.4290120679,7224
0.4801792201,7225
0.5179423385,7226
0.5534136105,7227
0.4742141698,7228
0.4796533076,7229
0.4635294434,7230
0.4057138614,7231
0.3818861005,7232
0.2027796399,7233
0.1536136436,7234
0.1052940066,7235
0.06306704586,7236
0.3084899382,7237
0.5113522185,7238
0.5487359373,7239
0.5645818727,7240
0.5456132479,7241
0.6006119147,7242
0.5630326781,7243
0.555823694,7244
0.4297176935,7245
0.3276742319,7246
0.4761073209,7247
0.3816055088,7248
0.3121909577,7249
0.3208656886,7250
0.3923764293,7251
0.4666269809,7252
0.4160820656,7253
0.3563924972,7254
0.3535876882,7255
0.4520128571,7256
0.5831617935,7257
0.3729324956,7258
0.5441759106,7259
0.5730967553,7260
0.4115739139,7261
0.4916166437,7262
0.5362683135,7263
0.5219512891,7264
0.5003169071,7265
0.4898540889,7266
0.3475273659,7267
0.3620355028,7268
0.3696704553,7269
0.249694947,7270
0.1531187815,7271
0.09892138791,7272
0.08752689232,7273
0.3301821155,7274
0.505151073,7275
0.5448094396,7276
0.5630506178,7277
0.5260270226,7278
0.5925254048,7279
0.5800118253,7280
0.5231493391,7281
0.4235621066,7282
0.3566540303,7283
0.4714390818,7284
0.3195708934,7285
0.3253725596,7286
0.3036132632,7287
0.3904745893,7288
0.4395166651,7289
0.3879195344,7290
0.3244932798,7291
0.3840945338,7292
0.4039358913,7293
0.6259540663,7294
0.3327252931,7295
0.5470089893,7296
0.5796190189,7297
0.4333768711,7298
0.4954551966,7299
0.5657852578,7300
0.4818535843,7301
0.5021181704,7302
0.4795934749,7303
0.4121433923,7304
0.3807651657,7305
0.3154513228,7306
0.410716284,7307
0.4318673626,7308
0.3087285274,7309
0.2655796029,7310
0.4690317053,7311
0.4589265923,7312
0.5511985102,7313
0.5455304687,7314
0.5769822588,7315
0.6239915865,7316
0.5503326967,7317
0.5242769584,7318
0.382036239,7319
0.3641266217,7320
0.4523533794,7321
0.4083924361,7322
0.4067664903,7323
0.3841121625,7324
0.343113123,7325
0.3610637555,7326
0.3840953377,7327
0.2816160369,7328
0.355766998,7329
0.4446567466,7330
0.6516033605,7331
0.3855657594,7332
0.5427704894,7333
0.5449463347,7334
0.3636397213,7335
0.4773959911,7336
0.5887547067,7337
0.4979422203,7338
0.4438704228,7339
0.4079830378,7340
0.3635806252,7341
0.3780638569,7342
0.2808379705,7343
0.1734090993,7344
0.1671070505,7345
0.1266533213,7346
0.1197638394,7347
0.4911224301,7348
0.4526781391,7349
0.5486919983,7350
0.5348745926,7351
0.5277846506,7352
0.5915017249,7353
0.559831641,7354
0.5562527517,7355
0.3425469185,7356
0.3613205849,7357
0.4685153734,7358
0.2870316262,7359
0.3434716367,7360
0.2740048198,7361
0.4280720043,7362
0.4072132913,7363
0.3410707987,7364
0.318237335,7365
0.3592032108,7366
0.3435947443,7367
0.5610608101,7368
0.2974043193,7369
0.5647365556,7370
0.5806603549,7371
0.5419387018,7372
0.5096712429,7373
0.5995701586,7374
0.5013817988,7375
0.433657768,7376
0.3852549541,7377
0.3108464442,7378
0.3548148457,7379
0.289000119,7380
0.1535171029,7381
0.1408160337,7382
0.1163340445,7383
0.08781243064,7384
0.5254267122,7385
0.5273806102,7386
0.5023794611,7387
0.6308743148,7388
0.5417224451,7389
0.649317759,7390
0.4493977902,7391
0.5015318206,7392
0.3593094841,7393
0.4077889508,7394
0.3700340324,7395
0.2848989048,7396
0.3211204733,7397
0.2944527101,7398
0.4887432142,7399
0.474113102,7400
0.3735965133,7401
0.3674838433,7402
0.3843493403,7403
0.3935473585,7404
0.6207991912,7405
0.3150209902,7406
0.5949071954,7407
0.5304536501,7408
0.4084442191,7409
0.5139036639,7410
0.5279496347,7411
0.47893466,7412
0.4915209142,7413
0.5083823635,7414
0.3847132076,7415
0.4303293516,7416
0.2540432224,7417
0.1533139184,7418
0.1457824868,7419
0.1212639501,7420
0.0978352199,7421
0.5296894603,7422
0.5532772522,7423
0.4162669689,7424
0.5420921749,7425
0.5614083006,7426
0.675233551,7427
0.5227943265,7428
0.5169975315,7429
0.3738889354,7430
0.4533402808,7431
0.4238496202,7432
0.3798687014,7433
0.3360497024,7434
0.299727641,7435
0.4262690914,7436
0.4828526722,7437
0.4309009453,7438
0.3853702548,7439
0.411741741,7440
0.4009284085,7441
0.6115087973,7442
0.3394626625,7443
0.5797675109,7444
0.5441272157,7445
0.4927962333,7446
0.5652075945,7447
0.5205636188,7448
0.4946353662,7449
0.6030477214,7450
0.4419402308,7451
0.3890589082,7452
0.3968874468,7453
0.3230089586,7454
0.4526173849,7455
0.3076304265,7456
0.2968988931,7457
0.2816376679,7458
0.466903535,7459
0.529363534,7460
0.3493242696,7461
0.5681671026,7462
0.5931428455,7463
0.6300184342,7464
0.5381767472,7465
0.5023009476,7466
0.3580231322,7467
0.4415179438,7468
0.4913054943,7469
0.4579886337,7470
0.3650996959,7471
0.3402212711,7472
0.3159731999,7473
0.2876046188,7474
0.269295873,7475
0.2455070426,7476
0.3450806513,7477
0.4968245692,7478
0.5431284262,7479
0.4487397186,7480
0.5535404062,7481
0.6377025117,7482
0.5389126903,7483
0.6154125906,7484
0.4325314729,7485
0.3313410189,7486
0.4845907773,7487
0.4387299068,7488
0.3881843157,7489
0.3305498752,7490
0.2356244916,7491
0.1939253595,7492
0.1618029622,7493
0.1531093785,7494
0.2242564099,7495
0.5725169461,7496
0.5376358814,7497
0.325388636,7498
0.5203710068,7499
0.5513633151,7500
0.6104130693,7501
0.5456579992,7502
0.5111426263,7503
0.3044963105,7504
0.4559850068,7505
0.4831139729,7506
0.3672251008,7507
0.2889898308,7508
0.3417696146,7509
0.5222550941,7510
0.4233888586,7511
0.4295747224,7512
0.3405308009,7513
0.3862873277,7514
0.4502421529,7515
0.5569360612,7516
0.3630481703,7517
0.6270702337,7518
0.6275101625,7519
0.6143591685,7520
0.6020018216,7521
0.4542341964,7522
0.3410583239,7523
0.4684370228,7524
0.4573091319,7525
0.3515644324,7526
0.3225377595,7527
0.2101316172,7528
0.1784736063,7529
0.1486141759,7530
0.1084906692,7531
0.2496148998,7532
0.4591990731,7533
0.5805506234,7534
0.3893112384,7535
0.5104205152,7536
0.580038953,7537
0.5588831216,7538
0.529784884,7539
0.5221545584,7540
0.3104972239,7541
0.460799485,7542
0.4529916028,7543
0.3516059945,7544
0.2839115088,7545
0.2723913109,7546
0.4553802778,7547
0.4460725187,7548
0.3731888408,7549
0.3301441803,7550
0.4107139668,7551
0.4999716411,7552
0.5289567208,7553
0.4256095643,7554
0.6026535999,7555
0.6302163077,7556
0.6546803558,7557
0.5962673021,7558
0.4292579927,7559
0.3469405289,7560
0.5523681129,7561
0.4920931783,7562
0.4701178201,7563
0.334404703,7564
0.175127172,7565
0.1738065778,7566
0.1728221064,7567
0.1249256016,7568
0.2773121356,7569
0.4746268906,7570
0.5330357035,7571
0.4626403018,7572
0.5049513313,7573
0.6205186589,7574
0.5325029096,7575
0.5525526402,7576
0.4646424271,7577
0.3464937935,7578
0.5344188077,7579
0.4454037803,7580
0.3816875547,7581
0.3361284624,7582
0.2513264507,7583
0.4894308828,7584
0.5111384148,7585
0.4522227238,7586
0.3961873655,7587
0.4185190165,7588
0.5119924363,7589
0.4676584011,7590
0.4866006528,7591
0.5633186434,7592
0.6476293241,7593
0.6173269514,7594
0.6160628278,7595
0.3861269944,7596
0.3894775334,7597
0.5558390351,7598
0.4626863529,7599
0.4457833507,7600
0.3204650378,7601
0.3271096141,7602
0.3831000227,7603
0.3444272689,7604
0.2769133274,7605
0.3039510851,7606
0.5585307655,7607
0.488689505,7608
0.5094925466,7609
0.4896787312,7610
0.6817392424,7611
0.5676805226,7612
0.5447623373,7613
0.4264910391,7614
0.3539319523,7615
0.4939278128,7616
0.4371978478,7617
0.3694783377,7618
0.3695568469,7619
0.2655481042,7620
0.4192676375,7621
0.4136276836,7622
0.3316632643,7623
0.2418526297,7624
0.5154890886,7625
0.5475667845,7626
0.4413138174,7627
0.5202601839,7628
0.5802973963,7629
0.6435601117,7630
0.5963632801,7631
0.5926402115,7632
0.4124437218,7633
0.4045095785,7634
0.5098896173,7635
0.4824879059,7636
0.3800387207,7637
0.336016304,7638
0.2073604139,7639
0.2092837527,7640
0.1874023975,7641
0.1355157906,7642
0.3364372163,7643
0.5167291872,7644
0.5000110592,7645
0.5424844325,7646
0.4931012584,7647
0.6725309255,7648
0.5421606447,7649
0.5488968485,7650
0.4014193403,7651
0.337241964,7652
0.476471753,7653
0.4088332787,7654
0.3436237357,7655
0.2916816312,7656
0.3088505002,7657
0.453061933,7658
0.4938300403,7659
0.4183244654,7660
0.3322020803,7661
0.475566931,7662
0.5638811865,7663
0.402319612,7664
0.4830235844,7665
0.6089143302,7666
0.6334683373,7667
0.62260283,7668
0.5597034648,7669
0.4150475336,7670
0.3947285631,7671
0.5182521461,7672
0.4450999629,7673
0.3177317859,7674
0.300388474,7675
0.1914582298,7676
0.187583146,7677
0.130811213,7678
0.09938434162,7679
0.416528895,7680
0.5296848705,7681
0.4790934662,7682
0.559698838,7683
0.4607440215,7684
0.6893274719,7685
0.5324525084,7686
0.5577530783,7687
0.4223124425,7688
0.3327505512,7689
0.463469077,7690
0.385822712,7691
0.3429169561,7692
0.2757416988,7693
0.2784793002,7694
0.4441454687,7695
0.4406640727,7696
0.4088229061,7697
0.3776989773,7698
0.4367715747,7699
0.5772550054,7700
0.3387807783,7701
0.5238373695,7702
0.6062995442,7703
0.6236339086,7704
0.6746452588,7705
0.5277121825,7706
0.3580794685,7707
0.4447549838,7708
0.4441519646,7709
0.4212139842,7710
0.3655475305,7711
0.3075560795,7712
0.1464527529,7713
0.1588898084,7714
0.1249790441,7715
0.09548602875,7716
0.380810096,7717
0.5073027577,7718
0.4587347051,7719
0.5281298531,7720
0.4443171711,7721
0.6751205837,7722
0.5140471837,7723
0.5102368878,7724
0.3754835121,7725
0.3039436045,7726
0.4279596231,7727
0.4117208433,7728
0.3197525315,7729
0.2631593839,7730
0.2946241889,7731
0.4402965659,7732
0.4062092195,7733
0.3222339012,7734
0.3665034436,7735
0.3747474159,7736
0.5922550358,7737
0.3346804546,7738
0.5309541667,7739
0.6034233616,7740
0.5530550835,7741
0.613341259,7742
0.5707401888,7743
0.3237310761,7744
0.4423813902,7745
0.4607008868,7746
0.3654472029,7747
0.3014281219,7748
0.3137549326,7749
0.3612214659,7750
0.3280604134,7751
0.2454364326,7752
0.2193020258,7753
0.3380235758,7754
0.4706722617,7755
0.4802819602,7756
0.3583561421,7757
0.6085365335,7758
0.6572184692,7759
0.5438595787,7760
0.5617695806,7761
0.3545722789,7762
0.3424244684,7763
0.4117418159,7764
0.3976647479,7765
0.4074075669,7766
0.3736085546,7767
0.2691166436,7768
0.3406283568,7769
0.3147160608,7770
0.3021702122,7771
0.3613247823,7772
0.5171147686,7773
0.6121938534,7774
0.38600061,7775
0.5584485158,7776
0.6339669972,7777
0.6383783334,7778
0.4358169243,7779
0.4587284599,7780
0.4727230484,7781
0.424933462,7782
0.3783935268,7783
0.3802282543,7784
0.3365076796,7785
0.3104547913,7786
0.1724764946,7787
0.1494036554,7788
0.1315621644,7789
0.1193796548,7790
0.4061720459,7791
0.5271390881,7792
0.4709395027,7793
0.4822623913,7794
0.5411941304,7795
0.5985954144,7796
0.5290963384,7797
0.5121295467,7798
0.3405531786,7799
0.3361728234,7800
0.4501563232,7801
0.305303297,7802
0.310845491,7803
0.2887560475,7804
0.3426091059,7805
0.3764943227,7806
0.376301622,7807
0.3888508917,7808
0.3801851845,7809
0.3846860036,7810
0.6125636583,7811
0.3423540624,7812
0.5811658894,7813
0.6258535207,7814
0.6277985486,7815
0.4812939967,7816
0.4276575339,7817
0.5087653357,7818
0.4288484837,7819
0.3862998958,7820
0.3418091198,7821
0.3135873464,7822
0.2419304264,7823
0.151268842,7824
0.1505219062,7825
0.1235236317,7826
0.0821108438,7827
0.5002697103,7828
0.5099333339,7829
0.4376940515,7830
0.4710040263,7831
0.5540506588,7832
0.6337782796,7833
0.4456793131,7834
0.5070567489,7835
0.3494737229,7836
0.3308632784,7837
0.4097009146,7838
0.2570484263,7839
0.2773019841,7840
0.2894119516,7841
0.413362264,7842
0.3565076176,7843
0.3938026299,7844
0.3805823178,7845
0.4138927736,7846
0.4016075733,7847
0.6256851465,7848
0.3217504701,7849
0.6093729887,7850
0.6550190706,7851
0.6349330242,7852
0.4902295003,7853
0.4761469602,7854
0.4472305357,7855
0.4586073182,7856
0.3242898489,7857
0.3170886958,7858
0.342753688,7859
0.2400024225,7860
0.1442758343,7861
0.1306214834,7862
0.1250753642,7863
0.08749352881,7864
0.5293878694,7865
0.5279268329,7866
0.3909425101,7867
0.4809637957,7868
0.6184103577,7869
0.5939890672,7870
0.5105749618,7871
0.4823351528,7872
0.3624962624,7873
0.3346276807,7874
0.4836218723,7875
0.3526250476,7876
0.3456068536,7877
0.3307275779,7878
0.3467119298,7879
0.4038909485,7880
0.3758422891,7881
0.3698507586,7882
0.3911304176,7883
0.385963449,7884
0.5930191112,7885
0.3566239187,7886
0.5818108979,7887
0.6508401006,7888
0.5840371914,7889
0.4965589034,7890
0.5049582551,7891
0.5172379891,7892
0.4703118816,7893
0.350612724,7894
0.3903192797,7895
0.3858535657,7896
0.2851398217,7897
0.3371860746,7898
0.3395224603,7899
0.2716024114,7900
0.2481307557,7901
0.4336204566,7902
0.5534022156,7903
0.3223899235,7904
0.5730892058,7905
0.6199620385,7906
0.6273640193,7907
0.5161140419,7908
0.4729278819,7909
0.3136901504,7910
0.3854118436,7911
0.4447427655,7912
0.4013653939,7913
0.3237044849,7914
0.2821526969,7915
0.369899511,7916
0.3413384349,7917
0.2941495764,7918
0.2738539977,7919
0.4244181899,7920
0.4617472167,7921
0.6191255562,7922
0.4716127003,7923
0.6100966085,7924
0.6522035142,7925
0.5254955711,7926
0.5132318781,7927
0.4630743344,7928
0.4400489777,7929
0.4402610105,7930
0.3690145892,7931
0.3337731787,7932
0.3547838232,7933
0.2174991532,7934
0.2213699382,7935
0.1615796853,7936
0.1542498489,7937
0.2622567303,7938
0.4750129517,7939
0.5695645588,7940
0.3291240208,7941
0.5411962574,7942
0.6057940143,7943
0.5544055338,7944
0.5223114082,7945
0.478646373,7946
0.3320768496,7947
0.3797802685,7948
0.3781414598,7949
0.2887462654,7950
0.298026099,7951
0.2664688603,7952
0.4243107208,7953
0.4020199251,7954
0.4507003687,7955
0.4409769891,7956
0.4225196317,7957
0.4836044024,7958
0.5701762386,7959
0.4006002237,7960
0.6402398983,7961
0.6206470591,7962
0.5114761518,7963
0.5089370553,7964
0.4266008446,7965
0.4630950635,7966
0.4035662235,7967
0.4190066791,7968
0.4173186149,7969
0.3653661235,7970
0.2045237878,7971
0.1915137381,7972
0.159310419,7973
0.1140340723,7974
0.3004468542,7975
0.4430869527,7976
0.5283044463,7977
0.3763450391,7978
0.5062840265,7979
0.5448273408,7980
0.6550557458,7981
0.4842281318,7982
0.5219002154,7983
0.3345755736,7984
0.3861305159,7985
0.3114836054,7986
0.2756039801,7987
0.293458867,7988
0.2828885439,7989
0.3912587028,7990
0.3488493597,7991
0.2929109642,7992
0.2925553568,7993
0.4402879894,7994
0.4813165192,7995
0.5155783741,7996
0.4873541834,7997
0.6025982973,7998
0.6751746023,7999
0.5089687186,8000
0.5015069088,8001
0.5036401997,8002
0.4100805795,8003
0.400962715,8004
0.3197978841,8005
0.308900418,8006
0.3351789566,8007
0.2095752034,8008
0.1863145314,8009
0.153782919,8010
0.116630153,8011
0.2892849909,8012
0.4882980448,8013
0.5733939617,8014
0.3883256952,8015
0.5303577081,8016
0.67252939,8017
0.5690707279,8018
0.5555629214,8019
0.4445456623,8020
0.3274265642,8021
0.4060591347,8022
0.4181850763,8023
0.3733445558,8024
0.3253174609,8025
0.2863458908,8026
0.4432752312,8027
0.3455438859,8028
0.3552005886,8029
0.327581201,8030
0.4504287981,8031
0.5404813271,8032
0.4617798047,8033
0.5106468913,8034
0.616042067,8035
0.6684051393,8036
0.4359194021,8037
0.4811824392,8038
0.5001733419,8039
0.3891600179,8040
0.4540607311,8041
0.4317694018,8042
0.3990634637,8043
0.3716853282,8044
0.2692179811,8045
0.2852538639,8046
0.3253150413,8047
0.2840675825,8048
0.3415572176,8049
0.448907571,8050
0.5966155721,8051
0.4013586877,8052
0.580633229,8053
0.6396800118,8054
0.5729075848,8055
0.5674306292,8056
0.4075595673,8057
0.3570466791,8058
0.4919308899,8059
0.3927446323,8060
0.3491580937,8061
0.2851778969,8062
0.3026309965,8063
0.3174563326,8064
0.3255849774,8065
0.2870349063,8066
0.2079059875,8067
0.3628994423,8068
0.5411900538,8069
0.4011447532,8070
0.4622973565,8071
0.6047793488,8072
0.6644470012,8073
0.595340009,8074
0.5054850281,8075
0.2718500955,8076
0.3505412592,8077
0.4361137105,8078
0.4046233604,8079
0.3540867436,8080
0.2840342935,8081
0.2445539897,8082
0.1911895913,8083
0.1500544502,8084
0.1109255275,8085
0.3696736756,8086
0.5312579552,8087
0.5855522651,8088
0.4237241961,8089
0.5554799049,8090
0.6026964042,8091
0.5338975607,8092
0.5801887887,8093
0.4220616389,8094
0.3150497095,8095
0.4783606921,8096
0.344138051,8097
0.2610680525,8098
0.2292636173,8099
0.3044494626,8100
0.3762271011,8101
0.3780061794,8102
0.3572556143,8103
0.3107729347,8104
0.3880325503,8105
0.5378435316,8106
0.3857816186,8107
0.4946348471,8108
0.6041188964,8109
0.6622931838,8110
0.5996880366,8111
0.4337864006,8112
0.2793948337,8113
0.3630640455,8114
0.416447813,8115
0.3472305871,8116
0.323367432,8117
0.2742941204,8118
0.1623890584,8119
0.1347831437,8120
0.1153017552,8121
0.08344516263,8122
0.3327477423,8123
0.4942124731,8124
0.6209277349,8125
0.4699356291,8126
0.603633076,8127
0.620712953,8128
0.5325649698,8129
0.5550419836,8130
0.4420716178,8131
0.3130312742,8132
0.5012885056,8133
0.3583989522,8134
0.2754530628,8135
0.2035264994,8136
0.3863426583,8137
0.5321702893,8138
0.5113910608,8139
0.4718554503,8140
0.4107983774,8141
0.3274676803,8142
0.5278559077,8143
0.3710765683,8144
0.5444615896,8145
0.5822929898,8146
0.6492176149,8147
0.6221348593,8148
0.4012185517,8149
0.2415476009,8150
0.4348961798,8151
0.4878948995,8152
0.4139781558,8153
0.3271983428,8154
0.271104092,8155
0.1633737843,8156
0.1218331755,8157
0.1085163236,8158
0.0947880254,8159
0.3502013463,8160
0.4533787981,8161
0.5989472236,8162
0.3796914447,8163
0.6453357649,8164
0.5686441284,8165
0.5691922193,8166
0.5674046328,8167
0.4299292458,8168
0.3104647625,8169
0.4955162846,8170
0.375013073,8171
0.2943824899,8172
0.2341847696,8173
0.3174183778,8174
0.4980245153,8175
0.4271947566,8176
0.3641101859,8177
0.4088885504,8178
0.3159738789,8179
0.5565650584,8180
0.3173980417,8181
0.5363625478,8182
0.6657569252,8183
0.617125802,8184
0.5969252884,8185
0.3974129334,8186
0.2253996584,8187
0.470743102,8188
0.5572256864,8189
0.4754536947,8190
0.3755676861,8191
0.2921488935,8192
0.3924966257,8193
0.3540212486,8194
0.2955126624,8195
0.2775987238,8196
0.4501176543,8197
0.5447413253,8198
0.5446688505,8199
0.3886009453,8200
0.6702387485,8201
0.6077287661,8202
0.5709394095,8203
0.5545343018,8204
0.3664633968,8205
0.3849718063,8206
0.4663454966,8207
0.3706690854,8208
0.3552233058,8209
0.3355230482,8210
0.3018359491,8211
0.3624286228,8212
0.3310034808,8213
0.2740578648,8214
0.2927494509,8215
0.4808564131,8216
0.5800100764,8217
0.4524285986,8218
0.5852943275,8219
0.649920292,8220
0.5882782151,8221
0.5395913904,8222
0.4220204826,8223
0.2578875126,8224
0.4591175111,8225
0.4278629746,8226
0.3354785777,8227
0.2778695435,8228
0.253112284,8229
0.1709639058,8230
0.1923946208,8231
0.1755464227,8232
0.1121265282,8233
0.3784382742,8234
0.525813565,8235
0.558949047,8236
0.4202897901,8237
0.6065861678,8238
0.5377065537,8239
0.5047973577,8240
0.5371279915,8241
0.3696638888,8242
0.378235125,8243
0.454535293,8244
0.3492704798,8245
0.3108633931,8246
0.2747385573,8247
0.33309759,8248
0.4330268114,8249
0.3603515058,8250
0.3388688253,8251
0.3570226211,8252
0.3402061045,8253
0.6025954762,8254
0.3057979248,8255
0.5953265034,8256
0.6268235202,8257
0.6476521318,8258
0.5379941524,8259
0.352451728,8260
0.2923023725,8261
0.4910660448,8262
0.4565131949,8263
0.3772737895,8264
0.3386136433,8265
0.3311940084,8266
0.243613931,8267
0.2201821792,8268
0.2057560578,8269
0.1982923927,8270
0.4974379991,8271
0.5136719243,8272
0.5043007468,8273
0.4301952176,8274
0.6516231357,8275
0.6177928013,8276
0.5122384919,8277
0.4714778699,8278
0.3693431765,8279
0.3744663993,8280
0.4174191605,8281
0.3319318509,8282
0.2531706825,8283
0.2465944505,8284
0.5281261981,8285
0.5737712304,8286
0.4150097851,8287
0.4154801979,8288
0.6137543417,8289
0.5803704246,8290
0.5668686817,8291
0.4906489085,8292
0.3276551445,8293
0.3736005252,8294
0.388101689,8295
0.3312138041,8296
0.2311189652,8297
0.3008907197,8298
0.4801276816,8299
0.5834378377,8300
0.4118137922,8301
0.3890398367,8302
0.6406419442,8303
0.5202210362,8304
0.5031143691,8305
0.4734468907,8306
0.3251023481,8307
0.47893853,8308
0.5892346705,8309
0.4771952417,8310
0.3636245867,8311
0.6376113423,8312
0.5922284404,8313
0.5526024795,8314
0.4877457048,8315
0.3521885392,8316
0.4011382149,8317
0.4395714605,8318
0.3368958984,8319
0.2582585623,8320
0.2858140526,8321
0.5363572576,8322
0.5541499979,8323
0.4737696705,8324
0.4895422846,8325
0.6133857535,8326
0.5504852902,8327
0.5503649127,8328
0.506329204,8329
0.3448288314,8330
0.4134398131,8331
0.3619794264,8332
0.2963826638,8333
0.2248112049,8334
0.2951144613,8335
0.5088020474,8336
0.5925253312,8337
0.471521701,8338
0.454333652,8339
0.6365885524,8340
0.5734069777,8341
0.5124908116,8342
0.4556901235,8343
0.4983429651,8344
0.306473691,8345
0.2663985702,8346
0.2241282447,8347
0.2111295488,8348
0.2140268984,8349
0.2664735822,8350
0.2346575982,8351
0.2026141637,8352
0.1691327417,8353
0.1870380138,8354
0.1764207478,8355
0.1724699674,8356
0.1348070166,8357
0.1349570347,8358
0.175746607,8359
0.1646353666,8360
0.1340972951,8361
0.1095519377,8362
0.124389028,8363
0.1376647704,8364
0.1401067994,8365
0.1093277681,8366
0.08712060917,8367
0.1297306004,8368
0.1354254765,8369
0.1132439936,8370
0.0805092095,8371
0.07977312066,8372
0.1219710928,8373
0.1059268809,8374
0.09365288726,8375
0.06253173327,8376
0.1149203539,8377
0.1334377172,8378
0.1207763531,8379
0.07737183295,8380
0.06985945863,8381
0.1153686725,8382
0.119719036,8383
0.0948120463,8384
0.07923115777,8385
0.1033673542,8386
0.1341717081,8387
0.1281387711,8388
0.08862320035,8389
0.0591846147,8390
0.1189647259,8391
0.1280585616,8392
0.1170161416,8393
0.08883303395,8394
0.09486811648,8395
0.1078632366,8396
0.1121423516,8397
0.08842392652,8398
0.06709966959,8399
0.09810450366,8400
0.1079155884,8401
0.1176057576,8402
0.08498351746,8403
0.08069469781,8404
0.1167979566,8405
0.1114802139,8406
0.1015412199,8407
0.07140309866,8408
0.08543476266,8409
0.1352288617,8410
0.1074623651,8411
0.09068368892,8412
0.06428843845,8413
0.113584036,8414
0.1268813092,8415
0.1173877287,8416
0.08691994007,8417
0.08312206874,8418
0.1226598969,8419
0.1121752754,8420
0.09652762456,8421
0.0695781971,8422
0.09525699588,8423
0.1083429027,8424
0.1105970298,8425
0.07391613154,8426
0.04961834062,8427
0.1193917928,8428
0.1266972459,8429
0.09939861175,8430
0.0827782795,8431
0.08348737967,8432
0.1227137708,8433
0.1183670084,8434
0.07797262032,8435
0.05484275909,8436
0.1129453704,8437
0.1184578104,8438
0.1232178481,8439
0.08704473017,8440
0.0853745681,8441
0.1131184073,8442
0.1094010745,8443
0.0966724823,8444
0.06317606367,8445
0.1044443503,8446
0.1304312046,8447
0.1252962592,8448
0.08241351226,8449
0.05657884452,8450
0.1192792062,8451
0.1456682178,8452
0.124642642,8453
0.07904950307,8454
0.07048318109,8455
0.1240030285,8456
0.118213105,8457
0.08935798165,8458
0.05068506364,8459
0.09812433704,8460
0.120353252,8461
0.09823832768,8462
0.05960686051,8463
0.05434864315,8464
0.1256253005,8465
0.1482794846,8466
0.1105086907,8467
0.100738729,8468
0.09958188087,8469
0.09599438097,8470
0.101429063,8471
0.07305236811,8472
0.07048238655,8473
0.1442273811,8474
0.1903480283,8475
0.1465733999,8476
0.1264336431,8477
0.0855065881,8478
0.1276932168,8479
0.128821783,8480
0.1113678129,8481
0.08316657132,8482
0.1125570528,8483
0.1588620715,8484
0.1429012244,8485
0.09666002643,8486
0.07939402488,8487
0.1178155499,8488
0.1286467771,8489
0.1060219356,8490
0.06584585551,8491
0.08338334648,8492
0.1599931775,8493
0.144760704,8494
0.1393086772,8495
0.09290142284,8496
0.1030776826,8497
0.1199928063,8498
0.1069722671,8499
0.08215108478,8500
0.07078912981,8501
0.1369175299,8502
0.1276555134,8503
0.111821194,8504
0.08240405969,8505
0.09765685134,8506
0.1451395288,8507
0.136755466,8508
0.1001272305,8509
0.07026786172,8510
0.1039558943,8511
0.1462626628,8512
0.09866200023,8513
0.08618046651,8514
0.07703976201,8515
0.1180667651,8516
0.1249407773,8517
0.09475283512,8518
0.07728544903,8519
0.09640647757,8520
0.1394485703,8521
0.1214808558,8522
0.09560431226,8523
0.07908412865,8524
0.1264287818,8525
0.1354513628,8526
0.1274339518,8527
0.08514030392,8528
0.07647315313,8529
0.1295967318,8530
0.1150347908,8531
0.07914688283,8532
0.05287150287,8533
0.09773291652,8534
0.1184358413,8535
0.1104336326,8536
0.08424494519,8537
0.07899905857,8538
0.1333945275,8539
0.1210113623,8540
0.09991454191,8541
0.06364770014,8542
0.0964067792,8543
0.1187269147,8544
0.1178708117,8545
0.09323365607,8546
0.07165979284,8547
0.1004240937,8548
0.1123377514,8549
0.08208442583,8550
0.07262579046,8551
0.1308063003,8552
0.1501220672,8553
0.1528135677,8554
0.1421747681,8555
0.1083718808,8556
0.1311330195,8557
0.1867321982,8558
0.1569637574,8559
0.1074178479,8560
0.09022006083,8561
0.1109428249,8562
0.1095929767,8563
0.0904587979,8564
0.06089100734,8565
0.1007800862,8566
0.1528033266,8567
0.1490114981,8568
0.09824994386,8569
0.08044198887,8570
0.1172333809,8571
0.117624909,8572
0.1227917392,8573
0.0728887484,8574
0.08377291992,8575
0.176793879,8576
0.1406922483,8577
0.1359081027,8578
0.08193021386,8579
0.1101033424,8580
0.1412816907,8581
0.1197417757,8582
0.08057904103,8583
0.07491298328,8584
0.1513589199,8585
0.1723203636,8586
0.1323606393,8587
0.09207472843,8588
0.09936899945,8589
0.124109842,8590
0.1357047082,8591
0.093980329,8592
0.07234935608,8593
0.1181517842,8594
0.1610459174,8595
0.1153747555,8596
0.07868047695,8597
0.07533214144,8598
0.1398589112,8599
0.1313600074,8600
0.1116173127,8601
0.06815597143,8602
0.1075660057,8603
0.1780969499,8604
0.1404170705,8605
0.09634140677,8606
0.07874464322,8607
0.1348399776,8608
0.1176630348,8609
0.1045319059,8610
0.06068332999,8611
0.079657973,8612
0.1761883951,8613
0.1305204024,8614
0.09588032945,8615
0.05636114799,8616
0.1063919829,8617
0.1393666514,8618
0.1178696701,8619
0.0723415775,8620
0.07699474135,8621
0.1621763901,8622
0.1596910654,8623
0.1022207374,8624
0.06072614407,8625
0.09929344798,8626
0.150107984,8627
0.160057397,8628
0.105801948,8629
0.08612311522,8630
0.1251590217,8631
0.2003296204,8632
0.1465414923,8633
0.1024598384,8634
0.1099641332,8635
0.1232240005,8636
0.1123924242,8637
0.08142189697,8638
0.0525324966,8639
0.110683608,8640
0.1540219875,8641
0.1346319272,8642
0.07978672581,8643
0.07387166714,8644
0.1221024337,8645
0.124167293,8646
0.1115211537,8647
0.05676910352,8648
0.08072893376,8649
0.1946544373,8650
0.1430090494,8651
0.08916236002,8652
0.08220181546,8653
0.1226125084,8654
0.131568204,8655
0.1052752739,8656
0.07694390492,8657
0.09406344713,8658
0.1636133628,8659
0.1526378154,8660
0.1113700003,8661
0.08931126154,8662
0.0934926117,8663
0.1143290993,8664
0.1060995118,8665
0.06273623796,8666
0.05755760245,8667
0.1437599618,8668
0.185039708,8669
0.1141681172,8670
0.07392451748,8671
0.1000298182,8672
0.1160829212,8673
0.1037725548,8674
0.09111289455,8675
0.07080462065,8676
0.1177002797,8677
0.1948295882,8678
0.1233123579,8679
0.09648766778,8680
0.1029040353,8681
0.1050759049,8682
0.09548285288,8683
0.06860849013,8684
0.0531249438,8685
0.1013615818,8686
0.207742017,8687
0.1414635167,8688
0.09991853487,8689
0.07778151996,8690
0.1180144314,8691
0.1245997233,8692
0.09620369152,8693
0.07385003303,8694
0.0950445228,8695
0.1799970408,8696
0.1580593351,8697
0.1150637117,8698
0.09576892391,8699
0.1166382722,8700
0.1087377372,8701
0.08608388676,8702
0.08940328689,8703
0.09417405454,8704
0.2224121453,8705
0.2151054975,8706
0.1497301107,8707
0.1229751623,8708
0.1101667477,8709
0.1334499923,8710
0.1112634427,8711
0.0845254244,8712
0.06503744332,8713
0.1327435966,8714
0.2020916835,8715
0.1280672616,8716
0.1064135159,8717
0.08530947453,8718
0.1108104862,8719
0.1091377244,8720
0.07214734072,8721
0.05144944116,8722
0.1130829076,8723
0.2320827734,8724
0.1554213365,8725
0.09840802293,8726
0.06982921449,8727
0.09699696123,8728
0.1066439395,8729
0.0811646956,8730
0.05633213362,8731
0.09416396166,8732
0.1994455371,8733
0.1544439689,8734
0.1050789925,8735
0.08870389749,8736
0.09811393611,8737
0.1104465506,8738
0.08308773061,8739
0.07046110013,8740
0.08169692574,8741
0.2144638354,8742
0.1872369994,8743
0.1317918734,8744
0.08501414808,8745
0.09171855882,8746
0.1387078794,8747
0.1310602049,8748
0.09373335298,8749
0.06914031529,8750
0.1350518266,8751
0.1742916253,8752
0.1061214257,8753
0.06289033799,8754
0.08155063139,8755
0.1154651844,8756
0.1207239391,8757
0.07630642506,8758
0.06005051867,8759
0.1183084096,8760
0.2255001363,8761
0.1658381331,8762
0.09339939984,8763
0.08953742036,8764
0.1022543863,8765
0.1026134212,8766
0.07978598968,8767
0.05643506984,8768
0.1045231744,8769
0.2086513811,8770
0.1699471729,8771
0.101824334,8772
0.07132707438,8773
0.1131842879,8774
0.1294289687,8775
0.1042148953,8776
0.06603202482,8777
0.06785246899,8778
0.1979910722,8779
0.173535409,8780
0.102296283,8781
0.0632771968,8782
0.1095428954,8783
0.1337334289,8784
0.1144657254,8785
0.07946939237,8786
0.09481332663,8787
0.1727495729,8788
0.2004412717,8789
0.1289474781,8790
0.09823377774,8791
0.110873245,8792
0.1186315961,8793
0.1142688113,8794
0.08427321436,8795
0.06966111969,8796
0.1210659752,8797
0.2072947676,8798
0.1269075537,8799
0.0904644933,8800
0.09067354512,8801
0.1256754224,8802
0.123112825,8803
0.1061279951,8804
0.06154748378,8805
0.0842541892,8806
0.1935317213,8807
0.1489879362,8808
0.08107308657,8809
0.0641885452,8810
0.1074669021,8811
0.1116856441,8812
0.08874960409,8813
0.08074945541,8814
0.08775110051,8815
0.2005206022,8816
0.1610534637,8817
0.1369297635,8818
0.1024658718,8819
0.1278403083,8820
0.1315494924,8821
0.09680677939,8822
0.06926485439,8823
0.08117360081,8824
0.180574036,8825
0.1833659498,8826
0.1247713215,8827
0.08441748135,8828
0.09212648087,8829
0.13106891,8830
0.1211121905,8831
0.09273501534,8832
0.07517803768,8833
0.1244341561,8834
0.2113438461,8835
0.1318506391,8836
0.0943062174,8837
0.1015814905,8838
0.1276915738,8839
0.1077395534,8840
0.08469708931,8841
0.06382448808,8842
0.1179676774,8843
0.2097180413,8844
0.150300081,8845
0.1075604689,8846
0.08269636646,8847
0.1594510323,8848
0.1674045452,8849
0.1224711454,8850
0.07436291643,8851
0.1146773875,8852
0.2058215269,8853
0.1648625536,8854
0.1282107953,8855
0.100896125,8856
0.1132587673,8857
0.1507668573,8858
0.1034371958,8859
0.0753745218,8860
0.08091908262,8861
0.1840621288,8862
0.1799855775,8863
0.1308600245,8864
0.08420387171,8865
0.1064237931,8866
0.1413649338,8867
0.1248087798,8868
0.07647488186,8869
0.06061057314,8870
0.149354358,8871
0.2014139265,8872
0.1242225463,8873
0.07665894594,8874
0.08322265255,8875
0.121916337,8876
0.1135411876,8877
0.07940946239,8878
0.07130719895,8879
0.1104638298,8880
0.1875823113,8881
0.1044613255,8882
0.07543172069,8883
0.06742994183,8884
0.1412131005,8885
0.1443549066,8886
0.1079079933,8887
0.08144892135,8888
0.1140636492,8889
0.2209683584,8890
0.1597060928,8891
0.09679952299,8892
0.07406075453,8893
0.09719322948,8894
0.1048775843,8895
0.1016308387,8896
0.08349302391,8897
0.09357597818,8898
0.2054565439,8899
0.1805964141,8900
0.1054805653,8901
0.06301482716,8902
0.1133159545,8903
0.1432343637,8904
0.1233452578,8905
0.08555108932,8906
0.06153103052,8907
0.1536346916,8908
0.1703679896,8909
0.09675025941,8910
0.05618188775,8911
0.09410484279,8912
0.1676368495,8913
0.1608861493,8914
0.1176666251,8915
0.08312129526,8916
0.1433755223,8917
0.1954347419,8918
0.1326313915,8919
0.08320100914,8920
0.1033704308,8921
0.1342266432,8922
0.1284969603,8923
0.08756147139,8924
0.05453945925,8925
0.1000467217,8926
0.2301984608,8927
0.1627706225,8928
0.1094656902,8929
0.06256163552,8930
0.119484503,8931
0.1246764818,8932
0.1046838512,8933
0.0662996833,8934
0.09275076432,8935
0.190824069,8936
0.1643893814,8937
0.1069637166,8938
0.0683291412,8939
0.1093411647,8940
0.1432263603,8941
0.1059056145,8942
0.08143371056,8943
0.06193350934,8944
0.2082394207,8945
0.1882959093,8946
0.139147003,8947
0.0919843924,8948
0.1179738648,8949
0.1534190607,8950
0.1320127294,8951
0.1088385046,8952
0.07706101233,8953
0.1435133162,8954
0.2189157118,8955
0.1554803835,8956
0.1115896547,8957
0.09770735758,8958
0.1421145538,8959
0.1261177169,8960
0.1193749992,8961
0.06572820578,8962
0.1430065265,8963
0.2483988736,8964
0.1718483189,8965
0.1091166692,8966
0.09798434143,8967
0.1548538065,8968
0.1764166599,8969
0.1282517715,8970
0.09324004091,8971
0.09542607068,8972
0.2066582448,8973
0.150801465,8974
0.1098169683,8975
0.06716963007,8976
0.1097068778,8977
0.1323279651,8978
0.131332815,8979
0.08995403504,8980
0.0933908862,8981
0.2269002953,8982
0.2071526571,8983
0.1343773846,8984
0.1042064288,8985
0.1219687792,8986
0.1584353019,8987
0.1418159786,8988
0.1082669645,8989
0.07982482416,8990
0.1606786496,8991
0.1848540945,8992
0.1294625046,8993
0.0934890968,8994
0.09075129538,8995
0.1341391894,8996
0.1399800838,8997
0.106424262,8998
0.0681103203,8999
0.121212338,9000
0.2357174961,9001
0.144369163,9002
0.1006086011,9003
0.09590714562,9004
0.1505426046,9005
0.1773055317,9006
0.1232395861,9007
0.08925629547,9008
0.08459898594,9009
0.1983407624,9010
0.1467447305,9011
0.1007140844,9012
0.06822266527,9013
0.09843923041,9014
0.121676286,9015
0.1225195613,9016
0.07707054685,9017
0.08202545576,9018
0.2151189059,9019
0.1921857806,9020
0.1192573374,9021
0.09278527841,9022
0.1160700449,9023
0.1445677785,9024
0.1286364607,9025
0.1026405987,9026
0.08305568955,9027
0.1616648975,9028
0.1863240259,9029
0.1389392511,9030
0.0896490481,9031
0.08412719932,9032
0.1311709194,9033
0.1397311685,9034
0.09226622242,9035
0.0538410558,9036
0.1241988083,9037
0.2155135646,9038
0.119821039,9039
0.08325357658,9040
0.08238187692,9041
0.1388924279,9042
0.1313322197,9043
0.1051015323,9044
0.06891174832,9045
0.0966454715,9046
0.1517466147,9047
0.1101556502,9048
0.06708608493,9049
0.05523183234,9050
0.1171107304,9051
0.1348891845,9052
0.1129799585,9053
0.07538880974,9054
0.08587871648,9055
0.2182678039,9056
0.1624710963,9057
0.09562294371,9058
0.06825753929,9059
0.120387268,9060
0.1510081176,9061
0.1409969151,9062
0.1057028101,9063
0.09504139449,9064
0.1737827922,9065
0.1645797505,9066
0.127436752,9067
0.08100090008,9068
0.1055598189,9069
0.1280332406,9070
0.1380837279,9071
0.1011788738,9072
0.07515918222,9073
0.1614324232,9074
0.2260806547,9075
0.1256376857,9076
0.09054045754,9077
0.09013329251,9078
0.1520957655,9079
0.1509522745,9080
0.120192891,9081
0.08081941966,9082
0.09757954541,9083
0.1939736674,9084
0.1596405267,9085
0.0967838493,9086
0.08887864028,9087
0.1365969874,9088
0.1578348936,9089
0.1312405057,9090
0.09852278317,9091
0.1075251956,9092
0.2305400038,9093
0.1752420157,9094
0.1259914965,9095
0.1120746144,9096
0.166062049,9097
0.1956397918,9098
0.172726084,9099
0.1232104576,9100
0.1172007685,9101
0.2009782589,9102
0.2011477281,9103
0.1543311315,9104
0.1296131181,9105
0.1128830005,9106
0.1043109308,9107
0.1218820447,9108
0.1146424919,9109
0.0817582066,9110
0.1750575884,9111
0.1981156411,9112
0.1290914793,9113
0.09887988425,9114
0.1265446911,9115
0.1634956617,9116
0.1624517236,9117
0.1286787201,9118
0.08373917518,9119
0.1200210363,9120
0.2102922095,9121
0.1458563834,9122
0.1076777796,9123
0.09722131769,9124
0.1009563128,9125
0.1050152074,9126
0.09265719965,9127
0.06557819513,9128
0.1216681446,9129
0.2140990506,9130
0.1636594239,9131
0.1207836643,9132
0.09859857818,9133
0.1426346996,9134
0.1521993092,9135
0.1311805137,9136
0.09308917688,9137
0.0846427536,9138
0.1946570439,9139
0.1744964342,9140
0.123027472,9141
0.08750784278,9142
0.1486100964,9143
0.15682326,9144
0.1553570664,9145
0.1380672267,9146
0.09721952383,9147
0.2004544491,9148
0.2289165544,9149
0.1564512048,9150
0.1134907668,9151
0.1243292528,9152
0.1624681919,9153
0.1653218412,9154
0.1277390618,9155
0.0784602078,9156
0.1273596408,9157
0.2010947303,9158
0.1498925139,9159
0.09958495355,9160
0.1002311728,9161
0.1571958971,9162
0.1629906127,9163
0.1369169626,9164
0.07735417315,9165
0.1303045073,9166
0.2366631588,9167
0.1718982464,9168
0.1126747116,9169
0.06527697933,9170
0.1034087952,9171
0.1349460196,9172
0.1248134716,9173
0.0686978534,9174
0.09558228024,9175
0.194634284,9176
0.1570478246,9177
0.09896748778,9178
0.07920414634,9179
0.1316729547,9180
0.1507063599,9181
0.1298099136,9182
0.1006011291,9183
0.1052953908,9184
0.2156732524,9185
0.206129776,9186
0.1509170516,9187
0.1094773062,9188
0.1307660522,9189
0.1713745591,9190
0.1685172036,9191
0.112420636,9192
0.08834054952,9193
0.1645953285,9194
0.2117012434,9195
0.1471577744,9196
0.1037969211,9197
0.109244361,9198
0.1366704769,9199
0.1437266575,9200
0.1105639562,9201
0.05606338757,9202
0.1207748787,9203
0.2317250399,9204
0.1450272933,9205
0.09214445855,9206
0.08620993708,9207
0.1381692044,9208
0.1583277445,9209
0.1187838017,9210
0.07515205373,9211
0.107881707,9212
0.2183003456,9213
0.176377068,9214
0.1381111468,9215
0.08601658418,9216
0.1074073209,9217
0.128738261,9218
0.123611997,9219
0.07820119009,9220
0.07885721279,9221
0.2006555,9222
0.1786709049,9223
0.1250211246,9224
0.09422802733,9225
0.1268366908,9226
0.1778809634,9227
0.1747334801,9228
0.1246689106,9229
0.08747419776,9230
0.1538826261,9231
0.1752100271,9232
0.1265570835,9233
0.08323626713,9234
0.100805945,9235
0.1198349079,9236
0.1320375815,9237
0.102965546,9238
0.07794567361,9239
0.1454629558,9240
0.24534548,9241
0.1351131282,9242
0.09452977511,9243
0.09078404199,9244
0.1622099989,9245
0.1579905927,9246
0.1392548964,9247
0.09574430439,9248
0.1136672824,9249
0.2031691781,9250
0.1611004375,9251
0.1111130098,9252
0.08419317901,9253
0.1365490954,9254
0.1442087857,9255
0.1410556929,9256
0.1003655989,9257
0.08588079786,9258
0.2271064062,9259
0.1926880725,9260
0.1185523992,9261
0.0918008873,9262
0.12411536,9263
0.1717127121,9264
0.1559557034,9265
0.1271599807,9266
0.1021853485,9267
0.1773509876,9268
0.1926647767,9269
0.1355571816,9270
0.08795344321,9271
0.1088425393,9272
0.1205101737,9273
0.1231572449,9274
0.1157280857,9275
0.07599277301,9276
0.1706780166,9277
0.2393154662,9278
0.1449231404,9279
0.1118525914,9280
0.09845007648,9281
0.1329662033,9282
0.1390609507,9283
0.1349151271,9284
0.09947750182,9285
0.1307094546,9286
0.2309115749,9287
0.1838670187,9288
0.1269640685,9289
0.1116432235,9290
0.1150055614,9291
0.116059746,9292
0.1135114711,9293
0.09714372527,9294
0.08407887607,9295
0.2419337178,9296
0.1716502094,9297
0.1084353802,9298
0.095589295,9299
0.1430910662,9300
0.1796643228,9301
0.1661589485,9302
0.1161927135,9303
0.09368224406,9304
0.1631412887,9305
0.1688668008,9306
0.1152386376,9307
0.09024814885,9308
0.1125155692,9309
0.130387834,9310
0.1172944876,9311
0.09386024545,9312
0.07280889551,9313
0.1844491373,9314
0.2118668777,9315
0.1359477991,9316
0.09733674597,9317
0.08975130752,9318
0.1287317828,9319
0.1410474929,9320
0.127961305,9321
0.08045769461,9322
0.1257401095,9323
0.2303158079,9324
0.1601254935,9325
0.1187713464,9326
0.1069921399,9327
0.1194088561,9328
0.1339552729,9329
0.1153236122,9330
0.07329559593,9331
0.101803775,9332
0.2347341168,9333
0.1489314781,9334
0.09111220837,9335
0.07625186307,9336
0.146482449,9337
0.1619193636,9338
0.1559608467,9339
0.09344365557,9340
0.1090852153,9341
0.2049439479,9342
0.2189044834,9343
0.1349725155,9344
0.09865286902,9345
0.1073858624,9346
0.1254623714,9347
0.1108669045,9348
0.08271793696,9349
0.05984973185,9350
0.1896002519,9351
0.1998237347,9352
0.1260770046,9353
0.08404178005,9354
0.1057970911,9355
0.1454396539,9356
0.1611674493,9357
0.116090262,9358
0.0797270328,9359
0.1508348728,9360
0.2655909459,9361
0.1693624153,9362
0.1289850666,9363
0.1079172631,9364
0.1239179557,9365
0.1199417941,9366
0.116831253,9367
0.07454790845,9368
0.1339890561,9369
0.247440305,9370
0.1522204234,9371
0.07780686466,9372
0.07596640431,9373
0.1629998276,9374
0.1860115427,9375
0.1702055022,9376
0.1071052193,9377
0.1348532568,9378
0.2455532182,9379
0.1982510312,9380
0.1564780624,9381
0.1107545427,9382
0.1277850279,9383
0.1381334918,9384
0.1398733525,9385
0.1001248849,9386
0.08099887029,9387
0.1851965842,9388
0.1817419821,9389
0.130465673,9390
0.09341867016,9391
0.1279892231,9392
0.1602813678,9393
0.1644489821,9394
0.1027581319,9395
0.07456561532,9396
0.1638521202,9397
0.1974640588,9398
0.1317305997,9399
0.113032148,9400
0.112925594,9401
0.1397228949,9402
0.1452944579,9403
0.1542515608,9404
0.09529594921,9405
0.1392027041,9406
0.2309196533,9407
0.1475100941,9408
0.09995968703,9409
0.09388749953,9410
0.1406633935,9411
0.1533583105,9412
0.1087115639,9413
0.09033705662,9414
0.1388292341,9415
0.2160501437,9416
0.1591022606,9417
0.1202639082,9418
0.0854805902,9419
0.1377922284,9420
0.1532436099,9421
0.1316597051,9422
0.1149675846,9423
0.1273979,9424
0.2362478172,9425
0.2142994407,9426
0.1452292451,9427
0.1054409544,9428
0.1182015607,9429
0.1404516178,9430
0.139149627,9431
0.1058266657,9432
0.1007927403,9433
0.1662218884,9434
0.1995853701,9435
0.1493932845,9436
0.1220009985,9437
0.1280058718,9438
0.1845557117,9439
0.1833498949,9440
0.172545798,9441
0.1302381364,9442
0.2093193799,9443
0.2755901483,9444
0.2068340237,9445
0.1672238792,9446
0.1811178351,9447
0.2022026059,9448
0.2319523074,9449
0.2126640176,9450
0.1893797829,9451
0.4054486933,9452
0.514534328,9453
0.5847485294,9454
0.4003045016,9455
0.6361201747,9456
0.6554081788,9457
0.5466338863,9458
0.5196665506,9459
0.3683450262,9460
0.3198712936,9461
0.279436316,9462
0.2283125285,9463
0.1750987704,9464
0.1248910746,9465
0.4038042402,9466
0.4827726893,9467
0.496675416,9468
0.485802727,9469
0.5835709887,9470
0.6554629442,9471
0.5688691997,9472
0.5716749847,9473
0.3579075948,9474
0.2788255446,9475
0.2068033829,9476
0.1897506769,9477
0.1524732902,9478
0.1278116669,9479
0.4569528393,9480
0.5439205263,9481
0.4705100044,9482
0.5068593568,9483
0.6233564607,9484
0.6420807945,9485
0.5248772664,9486
0.4773018784,9487
0.3480004045,9488
0.4498795374,9489
0.5004300505,9490
0.5505315948,9491
0.4258383926,9492
0.5951936551,9493
0.6758296808,9494
0.5727863347,9495
0.532990998,9496
0.3371918649,9497
0.3014127584,9498
0.3217000917,9499
0.2045130792,9500
0.153119533,9501
0.1080386053,9502
0.4017929824,9503
0.513247616,9504
0.4887661757,9505
0.4767784801,9506
0.6239156732,9507
0.6751599179,9508
0.5612263174,9509
0.549211859,9510
0.3823997268,9511
0.2856611941,9512
0.2232077275,9513
0.1701340462,9514
0.1225982236,9515
0.1607970019,9516
0.4396727807,9517
0.5885784364,9518
0.4462898461,9519
0.5455528898,9520
0.6123399424,9521
0.6530553937,9522
0.5614248095,9523
0.5075747801,9524
0.3461769348,9525
0.516174763,9526
0.5436699796,9527
0.5395777084,9528
0.6543124694,9529
0.5352700042,9530
0.6477942367,9531
0.5324816235,9532
0.5390468113,9533
0.3702755558,9534
0.4192047084,9535
0.4770775762,9536
0.3533250188,9537
0.3350731772,9538
0.2939424631,9539
0.356751046,9540
0.3760218744,9541
0.3232105542,9542
0.2674571144,9543
0.3516493797,9544
0.4470661164,9545
0.6636279923,9546
0.3399346989,9547
0.5897954104,9548
0.5245813725,9549
0.4160134028,9550
0.4995933304,9551
0.5144841632,9552
0.4940792108,9553
0.5053650239,9554
0.4170669669,9555
0.2720465369,9556
0.3208448987,9557
0.2059904299,9558
0.1330426743,9559
0.1191982815,9560
0.07922826454,9561
0.06743982104,9562
0.5276089973,9563
0.5750151672,9564
0.5033140703,9565
0.6346399903,9566
0.5630189023,9567
0.6161842539,9568
0.4666781262,9569
0.5049315997,9570
0.3583388348,9571
0.4565505913,9572
0.4159901698,9573
0.3229275195,9574
0.2996804006,9575
0.2848869234,9576
0.3439285807,9577
0.3581149091,9578
0.2951860063,9579
0.2625563364,9580
0.3549388301,9581
0.4187838505,9582
0.6262193829,9583
0.3439368712,9584
0.5817831313,9585
0.4995365363,9586
0.404673423,9587
0.5363269075,9588
0.5095961047,9589
0.475200676,9590
0.501596144,9591
0.3819354127,9592
0.2744297796,9593
0.3030071214,9594
0.1818147234,9595
0.1305347148,9596
0.1229416983,9597
0.08969941037,9598
0.115221068,9599
0.5155176531,9600
0.5577228621,9601
0.4787460454,9602
0.6313845598,9603
0.6033017704,9604
0.6001198407,9605
0.5195699567,9606
0.4656710425,9607
0.3438907882,9608
0.4470717086,9609
0.419329424,9610
0.3648621645,9611
0.287288624,9612
0.2883654222,9613
0.3508360495,9614
0.387826311,9615
0.2696796658,9616
0.2643797532,9617
0.3566215979,9618
0.4533517833,9619
0.5937681535,9620
0.3614619063,9621
0.5797221986,9622
0.5270836617,9623
0.4107513968,9624
0.5570945026,9625
0.5474589004,9626
0.4352731221,9627
0.5383055524,9628
0.345397823,9629
0.3080860301,9630
0.2769860637,9631
0.173594168,9632
0.1340581835,9633
0.1207541578,9634
0.07437815074,9635
0.1924948838,9636
0.5065342734,9637
0.6007525486,9638
0.4653705223,9639
0.6751092426,9640
0.5622950941,9641
0.6082578213,9642
0.5590917364,9643
0.4930724301,9644
0.3058188956,9645
0.4878374861,9646
0.4293385104,9647
0.3696050515,9648
0.307621318,9649
0.2756998554,9650
0.3581904629,9651
0.3943593042,9652
0.2838488328,9653
0.2757482804,9654
0.3776975791,9655
0.4983830802,9656
0.6033442511,9657
0.3655371763,9658
0.6369468538,9659
0.4989454721,9660
0.3611201442,9661
0.5681904089,9662
0.5514096873,9663
0.4660400708,9664
0.4935569168,9665
0.3211150673,9666
0.3089577723,9667
0.2774175259,9668
0.337410895,9669
0.3256341288,9670
0.2506873558,9671
0.2906986208,9672
0.3233524295,9673
0.5325391872,9674
0.6087992742,9675
0.4782333481,9676
0.6578843988,9677
0.5664167059,9678
0.6041185504,9679
0.5538462781,9680
0.4882530702,9681
0.309664178,9682
0.4523903332,9683
0.394798423,9684
0.2984010676,9685
0.3128267044,9686
0.235859087,9687
0.38412599,9688
0.310489885,9689
0.2731881101,9690
0.2158203553,9691
0.399769661,9692
0.5395115706,9693
0.5557000828,9694
0.3961173966,9695
0.6175245903,9696
0.4634464677,9697
0.3996546298,9698
0.533956734,9699
0.5076579956,9700
0.4724185159,9701
0.4744312128,9702
0.2867862043,9703
0.2689662678,9704
0.2588426541,9705
0.1619606082,9706
0.1636748699,9707
0.151945792,9708
0.107461135,9709
0.2725627781,9710
0.5003026634,9711
0.553102108,9712
0.5024841499,9713
0.6001034856,9714
0.6098618939,9715
0.5811383317,9716
0.5242337617,9717
0.4566026052,9718
0.3233051059,9719
0.4383320573,9720
0.3504005913,9721
0.2670826046,9722
0.2943566374,9723
0.2562267063,9724
0.3767128059,9725
0.3230923677,9726
0.2976056157,9727
0.2277452496,9728
0.3795575477,9729
0.5190923704,9730
0.5072804112,9731
0.4914427924,9732
0.5623093705,9733
0.4712704801,9734
0.4255871127,9735
0.5519016492,9736
0.5305326251,9737
0.4486812903,9738
0.4911470055,9739
0.306558119,9740
0.3637264748,9741
0.2874846249,9742
0.1619221761,9743
0.1266562794,9744
0.1094424348,9745
0.07579727602,9746
0.2725008659,9747
0.4527484675,9748
0.5370929858,9749
0.5269728252,9750
0.6318594738,9751
0.5939395036,9752
0.5534286285,9753
0.5203194477,9754
0.4650012763,9755
0.3681324357,9756
0.4983730957,9757
0.4348335081,9758
0.3121992121,9759
0.3715548129,9760
0.2669840975,9761
0.4190361068,9762
0.3034024182,9763
0.3151710156,9764
0.2384984149,9765
0.4462326942,9766
0.5312630575,9767
0.4429454941,9768
0.5037121042,9769
0.5825832871,9770
0.4530264561,9771
0.4234033816,9772
0.5655169543,9773
0.5608237306,9774
0.4945122587,9775
0.4187861247,9776
0.3172331543,9777
0.301111236,9778
0.2684962209,9779
0.165703486,9780
0.167195998,9781
0.1459844947,9782
0.07180117628,9783
0.319278863,9784
0.5202086265,9785
0.5932894543,9786
0.5542288639,9787
0.6171137484,9788
0.5987925861,9789
0.5747972947,9790
0.5821651439,9791
0.4237433981,9792
0.3032784215,9793
0.4842981027,9794
0.3578398396,9795
0.292447222,9796
0.2948045855,9797
0.2458355474,9798
0.4449699473,9799
0.3107318247,9800
0.3127135192,9801
0.2051818643,9802
0.4268731421,9803
0.5539698484,9804
0.417345727,9805
0.4976662354,9806
0.6106254977,9807
0.4309937279,9808
0.4737013943,9809
0.5137131213,9810
0.5558761565,9811
0.4835472514,9812
0.4069668773,9813
0.3580764456,9814
0.2977933743,9815
0.3099368982,9816
0.4021035083,9817
0.3548354223,9818
0.3059342253,9819
0.2245347154,9820
0.3494792685,9821
0.5226675329,9822
0.5958018833,9823
0.5955611477,9824
0.57206544,9825
0.6067271988,9826
0.5768565286,9827
0.5490576776,9828
0.4266702371,9829
0.3169866403,9830
0.5133386275,9831
0.3438332214,9832
0.3208379995,9833
0.2976046732,9834
0.3114329577,9835
0.3536695304,9836
0.3311943093,9837
0.2739365657,9838
0.2599011358,9839
0.4661043238,9840
0.6113879632,9841
0.3973289379,9842
0.5276269539,9843
0.5739699015,9844
0.3991268922,9845
0.452660838,9846
0.5294093422,9847
0.4828286603,9848
0.4876733173,9849
0.365869374,9850
0.2781827475,9851
0.2427498613,9852
0.252416713,9853
0.1447434413,9854
0.1273182169,9855
0.09851016211,9856
0.06104237716,9857
0.3959982745,9858
0.5005787652,9859
0.5687673777,9860
0.5536967184,9861
0.57023879,9862
0.6352611107,9863
0.6082061789,9864
0.5161398258,9865
0.4054276434,9866
0.3369649588,9867
0.4705145294,9868
0.3131326353,9869
0.283668093,9870
0.2727872946,9871
0.3309949739,9872
0.3214159956,9873
0.3180827328,9874
0.2304112548,9875
0.3046539538,9876
0.4095313061,9877
0.5990747999,9878
0.3152232309,9879
0.5352086431,9880
0.5840211039,9881
0.4382041226,9882
0.4794940116,9883
0.5611960436,9884
0.4682376676,9885
0.5000147869,9886
0.4222880602,9887
0.2997881734,9888
0.2995154789,9889
0.2300831137,9890
0.1497747407,9891
0.1285421198,9892
0.1085859727,9893
0.06810396348,9894
0.4209007458,9895
0.5059872026,9896
0.5826669613,9897
0.5651798149,9898
0.5770339152,9899
0.6298179874,9900
0.554510606,9901
0.5166983911,9902
0.35324939,9903
0.3858670822,9904
0.4985544433,9905
0.346559783,9906
0.3545670841,9907
0.2901418732,9908
0.3917676767,9909
0.365013822,9910
0.4065157522,9911
0.2691193879,9912
0.3666202385,9913
0.4165114233,9914
0.6335588128,9915
0.3374225615,9916
0.5353932503,9917
0.5514676191,9918
0.3657100128,9919
0.4653751659,9920
0.5931791346,9921
0.4992197897,9922
0.4856146267,9923
0.4215334343,9924
0.3044814243,9925
0.3268208434,9926
0.245796108,9927
0.1418556604,9928
0.1365352419,9929
0.1021130063,9930
0.09046504344,9931
0.4819480063,9932
0.4962745586,9933
0.517031171,9934
0.5958059244,9935
0.5419992155,9936
0.6275399001,9937
0.5456702887,9938
0.5310228658,9939
0.3313259066,9940
0.4017947326,9941
0.4988199732,9942
0.34447671,9943
0.3037146931,9944
0.2778947639,9945
0.3384623829,9946
0.3107978665,9947
0.2983751293,9948
0.2269913896,9949
0.3374981897,9950
0.3804600227,9951
0.6381462921,9952
0.3280921044,9953
0.5470892482,9954
0.533778706,9955
0.4158958724,9956
0.459636861,9957
0.5333432692,9958
0.4789091686,9959
0.4818475801,9960
0.3916017916,9961
0.2362291218,9962
0.281852448,9963
0.2404716024,9964
0.4568637394,9965
0.3277717843,9966
0.2790744066,9967
0.265004171,9968
0.5008800972,9969
0.5516577833,9970
0.4910815373,9971
0.629926474,9972
0.5308507732,9973
0.6238020093,9974
0.4780143844,9975
0.5003894446,9976
0.3398860939,9977
0.4589694475,9978
0.4167693192,9979
0.3328871468,9980
0.2910901829,9981
0.2580673222,9982
0.355737832,9983
0.3678247165,9984
0.305918604,9985
0.2621552898,9986
0.3578218687,9987
0.4311797855,9988
0.6560910827,9989
0.3060017813,9990
0.5879850089,9991
0.5144110058,9992
0.4162242949,9993
0.5282683031,9994
0.4833611013,9995
0.4643850725,9996
0.4928101424,9997
0.4147986573,9998
0.2851978044,9999
0.318210846,10000
0.1928431632,10001
0.1496786074,10002
0.1369229747,10003
0.09426072746,10004
0.06803882425,10005
0.5215622335,10006
0.5623721845,10007
0.4887915951,10008
0.616615252,10009
0.573441705,10010
0.6093475926,10011
0.5007998471,10012
0.4745019297,10013
0.3397849416,10014
0.4301360134,10015
0.4089034531,10016
0.3210594503,10017
0.2823722823,10018
0.2678019077,10019
0.3334169535,10020
0.3389921915,10021
0.2530957588,10022
0.2309316844,10023
0.369221537,10024
0.437948668,10025
0.5791187909,10026
0.3165535694,10027
0.5632357097,10028
0.5263672225,10029
0.45952401,10030
0.537330695,10031
0.5029625511,10032
0.4671868346,10033
0.4811161539,10034
0.3335446684,10035
0.2580172306,10036
0.2894641045,10037
0.183265546,10038
0.1860699214,10039
0.1643058535,10040
0.1033176283,10041
0.1257676867,10042
0.4674755794,10043
0.5150472527,10044
0.4906695425,10045
0.6188921273,10046
0.5986484028,10047
0.6315992015,10048
0.5514562588,10049
0.4494607094,10050
0.3101158946,10051
0.4511018384,10052
0.3806143382,10053
0.2984406674,10054
0.264604663,10055
0.2715924005,10056
0.3655367802,10057
0.3986920257,10058
0.2900850451,10059
0.2760873504,10060
0.3669569515,10061
0.48331916,10062
0.6248616831,10063
0.3733640265,10064
0.5722761573,10065
0.4927156674,10066
0.3693252688,10067
0.505640047,10068
0.543623063,10069
0.4456309431,10070
0.5354338562,10071
0.3464799689,10072
0.3285427418,10073
0.3044581593,10074
0.2096424089,10075
0.1508130589,10076
0.1261537052,10077
0.08364105349,10078
0.2081184983,10079
0.5146617721,10080
0.6179984936,10081
0.4761325432,10082
0.6383480222,10083
0.5339564933,10084
0.6005983536,10085
0.542204554,10086
0.4675365499,10087
0.3001598415,10088
0.4746151556,10089
0.423557035,10090
0.3378882102,10091
0.2940740377,10092
0.285637692,10093
0.3716596977,10094
0.3876811377,10095
0.3006189288,10096
0.2720884183,10097
0.3852157982,10098
0.4948689036,10099
0.5632283867,10100
0.3688109638,10101
0.6183089653,10102
0.5425982692,10103
0.408887708,10104
0.5481661848,10105
0.5235365281,10106
0.4645537105,10107
0.4785132504,10108
0.2882182839,10109
0.2864055215,10110
0.2619060167,10111
0.3536758062,10112
0.3741270911,10113
0.2895945066,10114
0.3015941471,10115
0.3534613579,10116
0.5051133684,10117
0.5078186682,10118
0.2889012611,10119
0.5850345475,10120
0.6440739051,10121
0.5935410498,10122
0.5323264782,10123
0.4900349724,10124
0.3083439246,10125
0.4483324002,10126
0.47181645,10127
0.3489904045,10128
0.2996695277,10129
0.2340603745,10130
0.3730556864,10131
0.3633298093,10132
0.3061795573,10133
0.2595004602,10134
0.4089560803,10135
0.5036247733,10136
0.5009918615,10137
0.4517146253,10138
0.5708670949,10139
0.6224190237,10140
0.6263542594,10141
0.6112445291,10142
0.4112163073,10143
0.3446154043,10144
0.4505142985,10145
0.3786374471,10146
0.3318972664,10147
0.2267854504,10148
0.1490699906,10149
0.1547754564,10150
0.1270904271,10151
0.1026494471,10152
0.2880754595,10153
0.5201436039,10154
0.5854792278,10155
0.4140003331,10156
0.5198631583,10157
0.6706629848,10158
0.5695187901,10159
0.5388964575,10160
0.4606955126,10161
0.3276613879,10162
0.5056560471,10163
0.4570662236,10164
0.3436082655,10165
0.3124520343,10166
0.188331069,10167
0.3546898968,10168
0.3447417296,10169
0.3055070591,10170
0.2555224336,10171
0.4346528468,10172
0.5077081186,10173
0.4719514959,10174
0.4723154139,10175
0.5656313236,10176
0.6539214281,10177
0.5952047998,10178
0.609626691,10179
0.3781570952,10180
0.3353102069,10181
0.4737467653,10182
0.3953151247,10183
0.3215174527,10184
0.2035241148,10185
0.1568894242,10186
0.1675668508,10187
0.1529610059,10188
0.1147645701,10189
0.2652841057,10190
0.4718540174,10191
0.5492814472,10192
0.4428977663,10193
0.5178205488,10194
0.6766551879,10195
0.5795996575,10196
0.5521767928,10197
0.4043478812,10198
0.3192363202,10199
0.4968401526,10200
0.4136570573,10201
0.3632766069,10202
0.3069873262,10203
0.2056348595,10204
0.3886374991,10205
0.364495653,10206
0.3207107182,10207
0.2691607801,10208
0.4640152185,10209
0.5456912813,10210
0.4323865441,10211
0.4761613878,10212
0.6070073351,10213
0.650597804,10214
0.6172346493,10215
0.590658432,10216
0.3949998399,10217
0.349277661,10218
0.4973142825,10219
0.417280661,10220
0.2808593103,10221
0.2185019165,10222
0.1874621365,10223
0.1989595439,10224
0.1705435907,10225
0.1009717738,10226
0.2930591149,10227
0.5517348439,10228
0.4811090246,10229
0.5313495518,10230
0.4635389999,10231
0.6856752519,10232
0.5508112102,10233
0.5528265088,10234
0.4186075711,10235
0.3165476844,10236
0.5169206208,10237
0.3902751606,10238
0.3482702326,10239
0.2631209402,10240
0.2117389885,10241
0.3976422324,10242
0.3565519426,10243
0.2974658848,10244
0.2715244666,10245
0.4590077927,10246
0.5710377825,10247
0.4038834756,10248
0.502158288,10249
0.6171671021,10250
0.586927718,10251
0.6544798613,10252
0.5523645321,10253
0.4150047286,10254
0.3780343154,10255
0.4740644991,10256
0.4072933145,10257
0.2759368085,10258
0.220857502,10259
0.3720005794,10260
0.3559074197,10261
0.2462398313,10262
0.2460306758,10263
0.3948923881,10264
0.5732239074,10265
0.4238662991,10266
0.584858538,10267
0.4441431815,10268
0.7149748948,10269
0.5134764545,10270
0.531588892,10271
0.4317097355,10272
0.3440509973,10273
0.4919580713,10274
0.3753617952,10275
0.3560426796,10276
0.262956515,10277
0.2269471997,10278
0.4256246277,10279
0.353469345,10280
0.2608215773,10281
0.2899312817,10282
0.4367935291,10283
0.5705569789,10284
0.3732900341,10285
0.5529997109,10286
0.5816447164,10287
0.6183882435,10288
0.6674719952,10289
0.536357498,10290
0.3407828972,10291
0.4205575707,10292
0.4840591832,10293
0.3667661412,10294
0.2806157481,10295
0.2449149529,10296
0.1573452584,10297
0.1860035131,10298
0.1473876623,10299
0.1041192269,10300
0.3681468001,10301
0.5427290204,10302
0.4646889274,10303
0.5868206822,10304
0.4998425042,10305
0.6756219582,10306
0.5427714507,10307
0.5359284905,10308
0.3682921681,10309
0.3486992706,10310
0.449477885,10311
0.3509042135,10312
0.3112141781,10313
0.276691751,10314
0.270424691,10315
0.4250370899,10316
0.37981184,10317
0.2812455419,10318
0.348719504,10319
0.4376877947,10320
0.6439751792,10321
0.3488563959,10322
0.5363666052,10323
0.6095487079,10324
0.5829724553,10325
0.6205501794,10326
0.5729677335,10327
0.3261316757,10328
0.4198167975,10329
0.4623865117,10330
0.3388601676,10331
0.267054756,10332
0.2541839817,10333
0.2005070202,10334
0.1791980606,10335
0.1324561465,10336
0.09055285075,10337
0.4116223316,10338
0.5208820007,10339
0.5200419899,10340
0.5600248364,10341
0.5380687831,10342
0.6758450348,10343
0.5711789099,10344
0.5410471953,10345
0.3588935967,10346
0.3504304828,10347
0.4112006885,10348
0.3756009533,10349
0.3189930608,10350
0.2428034354,10351
0.2710676542,10352
0.373032813,10353
0.3108329709,10354
0.2704478633,10355
0.378594753,10356
0.4227308248,10357
0.5980909609,10358
0.3668061865,10359
0.5375028809,10360
0.6648436677,10361
0.5979642558,10362
0.6034417442,10363
0.5575705133,10364
0.3526632828,10365
0.4374497872,10366
0.3928345575,10367
0.2878404921,10368
0.2426354544,10369
0.2115884093,10370
0.2017392939,10371
0.1830949636,10372
0.1634684186,10373
0.1140897374,10374
0.4256492507,10375
0.5134033437,10376
0.4813865271,10377
0.6556852568,10378
0.4354707448,10379
0.689792774,10380
0.5308161107,10381
0.5064805626,10382
0.3244457595,10383
0.3217656477,10384
0.4984345893,10385
0.3868693728,10386
0.3451945103,10387
0.2205021271,10388
0.3449341452,10389
0.4353465257,10390
0.3538589155,10391
0.3016887045,10392
0.3800741718,10393
0.4079097821,10394
0.5983837313,10395
0.3298741578,10396
0.5706090309,10397
0.5951328231,10398
0.6142751208,10399
0.6340109033,10400
0.5093754458,10401
0.3549305824,10402
0.4753082548,10403
0.4044482432,10404
0.3162551719,10405
0.2977853287,10406
0.2120871662,10407
0.340023656,10408
0.2989817257,10409
0.2263947173,10410
0.2122486195,10411
0.4749607685,10412
0.4625574943,10413
0.490059221,10414
0.588344551,10415
0.516550728,10416
0.6459661116,10417
0.5065722309,10418
0.5279728612,10419
0.3733295175,10420
0.3745209,10421
0.5165351229,10422
0.4238066111,10423
0.2999109578,10424
0.2276215008,10425
0.3413958132,10426
0.3675130484,10427
0.3267706412,10428
0.2787549163,10429
0.3749717468,10430
0.4142835702,10431
0.6105970428,10432
0.3306777564,10433
0.576438617,10434
0.6371302672,10435
0.5676182415,10436
0.6364287194,10437
0.4557720028,10438
0.3591591619,10439
0.4707897273,10440
0.3837952737,10441
0.352690382,10442
0.2697323763,10443
0.1824727618,10444
0.157966076,10445
0.1691606658,10446
0.1253298155,10447
0.08448567474,10448
0.5319832251,10449
0.4875430267,10450
0.3873236876,10451
0.5943603482,10452
0.5879633991,10453
0.645708201,10454
0.5123720663,10455
0.4947001378,10456
0.3718659705,10457
0.4289613715,10458
0.4839695906,10459
0.4113354378,10460
0.2791208968,10461
0.2504601191,10462
0.3414443497,10463
0.3529495161,10464
0.3110639857,10465
0.3005422344,10466
0.3835356993,10467
0.4591715009,10468
0.5722042278,10469
0.3849123413,10470
0.5503128691,10471
0.703762234,10472
0.6005687691,10473
0.6232197117,10474
0.4669208164,10475
0.3548668035,10476
0.4474981705,10477
0.4016682872,10478
0.3785740924,10479
0.2912450575,10480
0.1821273845,10481
0.1679659531,10482
0.1716833792,10483
0.1235107755,10484
0.1401945085,10485
0.5212837987,10486
0.5201253911,10487
0.3305596274,10488
0.5747359162,10489
0.5847180375,10490
0.6253634702,10491
0.5441722179,10492
0.5013082593,10493
0.3191431369,10494
0.4603786534,10495
0.4928179384,10496
0.3674463116,10497
0.2889420275,10498
0.2358324404,10499
0.3551813507,10500
0.3405977356,10501
0.3285584866,10502
0.2940286525,10503
0.3968367648,10504
0.4918056127,10505
0.5474533991,10506
0.4100263973,10507
0.5858273574,10508
0.64377527,10509
0.5886083771,10510
0.5940535295,10511
0.430576954,10512
0.3036032722,10513
0.4606069637,10514
0.418171959,10515
0.3640508984,10516
0.2776915101,10517
0.1530342173,10518
0.1945088019,10519
0.1794072663,10520
0.1404657215,10521
0.2473035387,10522
0.5232593614,10523
0.5557651994,10524
0.3582732856,10525
0.5589275826,10526
0.5985457932,10527
0.6119267686,10528
0.5437643018,10529
0.5305261762,10530
0.3115287362,10531
0.4551094835,10532
0.5059619957,10533
0.3648122753,10534
0.2959605867,10535
0.2364088381,10536
0.3326518536,10537
0.3058252406,10538
0.3005726615,10539
0.2672118252,10540
0.3812367457,10541
0.5147281792,10542
0.4886374282,10543
0.4202622309,10544
0.6169640013,10545
0.6365187625,10546
0.6443848232,10547
0.5907726365,10548
0.4122258625,10549
0.358500037,10550
0.429453376,10551
0.4186379892,10552
0.3478515313,10553
0.295319466,10554
0.2950937562,10555
0.4233810601,10556
0.2942456416,10557
0.2699718947,10558
0.3423061327,10559
0.4945851936,10560
0.5134282801,10561
0.4331635316,10562
0.539823915,10563
0.6582274699,10564
0.5775593006,10565
0.5232497711,10566
0.4806145014,10567
0.3060665683,10568
0.4813280704,10569
0.4761348814,10570
0.3630742615,10571
0.3000632175,10572
0.2712127959,10573
0.3679368318,10574
0.3475650714,10575
0.3383626479,10576
0.2892880723,10577
0.4295688019,10578
0.5126280109,10579
0.495366713,10580
0.4687884049,10581
0.5714904048,10582
0.6579340578,10583
0.6254595827,10584
0.6027251073,10585
0.4172598786,10586
0.3751649943,10587
0.4855244144,10588
0.4178855992,10589
0.3608470201,10590
0.2454746832,10591
0.1676472096,10592
0.1883895904,10593
0.1759287885,10594
0.1277477232,10595
0.2734066729,10596
0.4965440128,10597
0.4873325688,10598
0.5026745992,10599
0.5344375941,10600
0.6837374481,10601
0.5838296328,10602
0.5761487691,10603
0.4419430157,10604
0.3272862056,10605
0.492023544,10606
0.4330790319,10607
0.3451535564,10608
0.2950547589,10609
0.2459886829,10610
0.3640108179,10611
0.3632859471,10612
0.3152251635,10613
0.2839002057,10614
0.4624827063,10615
0.5055159493,10616
0.5066831138,10617
0.4647188956,10618
0.5907929782,10619
0.6350493439,10620
0.5824025003,10621
0.6022801162,10622
0.4290086919,10623
0.3980975467,10624
0.4603747946,10625
0.3839845204,10626
0.3412415164,10627
0.2716115485,10628
0.2272800134,10629
0.2452412775,10630
0.254064896,10631
0.2157022418,10632
0.3384154735,10633
0.5007862841,10634
0.5301245479,10635
0.5230789763,10636
0.5509474424,10637
0.667539014,10638
0.5575816053,10639
0.551616028,10640
0.4231595189,10641
0.337010093,10642
0.4926841875,10643
0.3963045501,10644
0.331870711,10645
0.2746749591,10646
0.4011189606,10647
0.5274668271,10648
0.5055202062,10649
0.5263708778,10650
0.5104155804,10651
0.6467308261,10652
0.536189544,10653
0.5520012523,10654
0.4340236103,10655
0.3322590891,10656
0.4033458676,10657
0.3505104095,10658
0.3262779791,10659
0.2814078244,10660
0.4257936032,10661
0.4978843734,10662
0.4910023802,10663
0.5456209721,10664
0.5287374099,10665
0.6576498214,10666
0.585762652,10667
0.5288007231,10668
0.3487159949,10669
0.3922594079,10670
0.5116523094,10671
0.5598495776,10672
0.4840811099,10673
0.5415679647,10674
0.6870567648,10675
0.5596527216,10676
0.5604815423,10677
0.4091719843,10678
0.3093782877,10679
0.4806932443,10680
0.3753449543,10681
0.3315713359,10682
0.2719826845,10683
0.3914047698,10684
0.4885471186,10685
0.5398929611,10686
0.5168425795,10687
0.5512746013,10688
0.6429634031,10689
0.5422566612,10690
0.5174070386,10691
0.3625215067,10692
0.3671987562,10693
0.4497843527,10694
0.4075434284,10695
0.3764022755,10696
0.3103565797,10697
0.4492765912,10698
0.4987422548,10699
0.4992488193,10700
0.5788532066,10701
0.4931031583,10702
0.7016463127,10703
0.5688086058,10704
0.3600222587,10705
0.3716683612,10706
0.4543304437,10707
0.4930203601,10708
0.6358208226,10709
0.5994855531,10710
0.5797268234,10711
0.642796614,10712
0.5814219828,10713
0.5253796696,10714
0.4201654541,10715
0.3483671966,10716
0.5010059792,10717
0.3348653319,10718
0.3298342048,10719
0.2987288533,10720
0.3419185909,10721
0.3577259527,10722
0.3425667696,10723
0.2719441593,10724
0.31241818,10725
0.3933562275,10726
0.5980749456,10727
0.3542871765,10728
0.5513084444,10729
0.5723585121,10730
0.394338184,10731
0.475855426,10732
0.5655991229,10733
0.4750532478,10734
0.5099497103,10735
0.3698068351,10736
0.3236324503,10737
0.2674903188,10738
0.2467293607,10739
0.1143273308,10740
0.1055305226,10741
0.08185726891,10742
0.0649063201,10743
0.4392289338,10744
0.4643432079,10745
0.5807297497,10746
0.5677621855,10747
0.5795007566,10748
0.6364817323,10749
0.5559752063,10750
0.5258242364,10751
0.3573260621,10752
0.3721051174,10753
0.4783453129,10754
0.289545694,10755
0.3282607261,10756
0.2672332029,10757
0.3670557526,10758
0.3148176481,10759
0.3580294595,10760
0.2415975656,10761
0.329862639,10762
0.347913528,10763
0.6168229581,10764
0.3275373555,10765
0.5324278264,10766
0.5633126332,10767
0.3900088115,10768
0.4644975311,10769
0.5852650213,10770
0.4820410575,10771
0.47326335,10772
0.3776668466,10773
0.2671428193,10774
0.2985382616,10775
0.207202447,10776
0.1048633057,10777
0.0984329826,10778
0.07372206545,10779
0.05008949299,10780
0.4419360369,10781
0.4417339964,10782
0.560694685,10783
0.5881620521,10784
0.5724827234,10785
0.6183800023,10786
0.5604620862,10787
0.5369042041,10788
0.3371572344,10789
0.3815567103,10790
0.4660179965,10791
0.2868496079,10792
0.3151083529,10793
0.2652041028,10794
0.3461375653,10795
0.3064337783,10796
0.3231571018,10797
0.2331254204,10798
0.3342258573,10799
0.393000431,10800
0.6554032079,10801
0.3362154759,10802
0.547603195,10803
0.5422447773,10804
0.4123497524,10805
0.4431338415,10806
0.5749884693,10807
0.4947858817,10808
0.4639540998,10809
0.3599065251,10810
0.2510462409,10811
0.2946221548,10812
0.1956403061,10813
0.08431195665,10814
0.08148334411,10815
0.05617074359,10816
0.03548959917,10817
0.480417858,10818
0.5096945291,10819
0.4980368783,10820
0.6329617976,10821
0.5222295614,10822
0.6480229287,10823
0.5330330354,10824
0.5398939615,10825
0.3432221333,10826
0.4025180531,10827
0.417606306,10828
0.2950813763,10829
0.2934771897,10830
0.2622791052,10831
0.3308357438,10832
0.3347708107,10833
0.2811766543,10834
0.2438415283,10835
0.3334890806,10836
0.3731507626,10837
0.6352474528,10838
0.2945607055,10839
0.5884745851,10840
0.5183752358,10841
0.3998086167,10842
0.5084045126,10843
0.5149187784,10844
0.4896642022,10845
0.4624535901,10846
0.3572044433,10847
0.2405250921,10848
0.2920188041,10849
0.2144944035,10850
0.3946539611,10851
0.3020934005,10852
0.2394789631,10853
0.2409588489,10854
0.5184391051,10855
0.5452404429,10856
0.4799419613,10857
0.6350329853,10858
0.568829051,10859
0.6385595471,10860
0.5001412248,10861
0.5078108629,10862
0.3621403157,10863
0.4393867239,10864
0.3642342309,10865
0.2976323071,10866
0.2900528024,10867
0.2696442049,10868
0.3264149615,10869
0.3333406044,10870
0.2744687396,10871
0.2382460548,10872
0.3414839935,10873
0.3657887489,10874
0.6054957947,10875
0.3068779257,10876
0.6055284589,10877
0.5068354956,10878
0.4084254947,10879
0.5441034986,10880
0.5204847874,10881
0.4778799331,10882
0.4544127688,10883
0.3580124124,10884
0.2582982066,10885
0.2927385751,10886
0.1535296419,10887
0.07018252453,10888
0.07418665687,10889
0.0485692597,10890
0.09984691342,10891
0.5052596027,10892
0.5425330065,10893
0.4704268563,10894
0.6270944009,10895
0.5913616414,10896
0.6162055465,10897
0.5389316274,10898
0.4779485097,10899
0.3373757058,10900
0.4324870654,10901
0.3430679679,10902
0.283324801,10903
0.2594322848,10904
0.2611074227,10905
0.3274569237,10906
0.3553544786,10907
0.2530528481,10908
0.2513628479,10909
0.3305046592,10910
0.3709591093,10911
0.5768999881,10912
0.3616597666,10913
0.5785447472,10914
0.5137829936,10915
0.3990200199,10916
0.5528984265,10917
0.5441333346,10918
0.4477522817,10919
0.4735139574,10920
0.2750650061,10921
0.2613984829,10922
0.2705060465,10923
0.1401296422,10924
0.05353135048,10925
0.04571374978,10926
0.03138260885,10927
0.197205887,10928
0.4463562905,10929
0.5258292317,10930
0.4278119987,10931
0.653643739,10932
0.5544737785,10933
0.6152348848,10934
0.5498772235,10935
0.4813128052,10936
0.2981138531,10937
0.4494795123,10938
0.3533536248,10939
0.2978495309,10940
0.2597135625,10941
0.2514387263,10942
0.3315199814,10943
0.3458452457,10944
0.2533428528,10945
0.2381996603,10946
0.3608027354,10947
0.4160750692,10948
0.5657433867,10949
0.3598177008,10950
0.625335023,10951
0.4733267303,10952
0.3298006677,10953
0.5390357776,10954
0.5362011552,10955
0.4564546397,10956
0.4641855376,10957
0.2638260459,10958
0.2800944476,10959
0.2537932009,10960
0.1352773985,10961
0.0593167873,10962
0.05281665241,10963
0.03880475743,10964
0.2525464994,10965
0.4603888673,10966
0.5601911562,10967
0.4568003197,10968
0.6498162928,10969
0.5708659032,10970
0.6063202799,10971
0.5319519419,10972
0.4845385724,10973
0.2911796042,10974
0.4512983186,10975
0.3687347076,10976
0.282233918,10977
0.2865224136,10978
0.2237162898,10979
0.3865062891,10980
0.3105256513,10981
0.2842432249,10982
0.213544227,10983
0.3594990719,10984
0.4110300668,10985
0.5090868335,10986
0.4052607575,10987
0.6004937108,10988
0.4988467779,10989
0.4217920714,10990
0.5217025356,10991
0.5299062476,10992
0.4377543557,10993
0.4448291527,10994
0.2381704796,10995
0.3008264421,10996
0.2445811259,10997
0.3462848274,10998
0.3153928269,10999
0.2869951933,11000
0.28087224,11001
0.3150658807,11002
0.477817108,11003
0.5574899397,11004
0.5367699449,11005
0.6049118001,11006
0.6122309684,11007
0.5659898641,11008
0.5260202628,11009
0.4492838826,11010
0.3094009057,11011
0.4476468749,11012
0.3778334371,11013
0.2703733242,11014
0.3019174387,11015
0.2404518731,11016
0.387473374,11017
0.301351156,11018
0.289499408,11019
0.2080025097,11020
0.4112061655,11021
0.4984845159,11022
0.4842195311,11023
0.4639349585,11024
0.5588392351,11025
0.4710574165,11026
0.4099293802,11027
0.5330873589,11028
0.5308974639,11029
0.4465357966,11030
0.4422931594,11031
0.2610383718,11032
0.2854091002,11033
0.2500907415,11034
0.08861854332,11035
0.04383069552,11036
0.02726436111,11037
0.02330812666,11038
0.2959260533,11039
0.4697137183,11040
0.5710189994,11041
0.532181095,11042
0.6131961474,11043
0.6025064922,11044
0.5754041687,11045
0.5453800575,11046
0.4022794881,11047
0.3175729061,11048
0.4507442443,11049
0.3621640045,11050
0.2435415094,11051
0.3068269977,11052
0.2268488061,11053
0.4027175533,11054
0.2776767714,11055
0.2941724745,11056
0.1975353606,11057
0.4310972572,11058
0.510079182,11059
0.4549349569,11060
0.4704307199,11061
0.5929722459,11062
0.4290470606,11063
0.4173853575,11064
0.5349280129,11065
0.5334922056,11066
0.4902659358,11067
0.3553255549,11068
0.2787545154,11069
0.2651156798,11070
0.2538980222,11071
0.06490382554,11072
0.03887667456,11073
0.0264367541,11074
0.01898053235,11075
0.2687043958,11076
0.4198085326,11077
0.5702071621,11078
0.5352690547,11079
0.6000362376,11080
0.5903216124,11081
0.5712222117,11082
0.5597170238,11083
0.3996641565,11084
0.3004749269,11085
0.4566428577,11086
0.3617526645,11087
0.2550130409,11088
0.3011429773,11089
0.2496255797,11090
0.3856350583,11091
0.2975357607,11092
0.2723323781,11093
0.2080482677,11094
0.4409119791,11095
0.5477516371,11096
0.4112998036,11097
0.4916852266,11098
0.60489411,11099
0.3820803501,11100
0.4435877191,11101
0.5215813043,11102
0.5285269527,11103
0.4853234994,11104
0.3561870111,11105
0.2779859019,11106
0.2506938023,11107
0.2504585626,11108
0.05621379792,11109
0.03917600518,11110
0.02479073841,11111
0.01965612981,11112
0.2831659741,11113
0.4178414751,11114
0.5685971299,11115
0.5852059525,11116
0.5467454803,11117
0.6271571009,11118
0.5462754422,11119
0.5440452802,11120
0.4086644314,11121
0.3028916895,11122
0.468587882,11123
0.2932803569,11124
0.2751895917,11125
0.2740092631,11126
0.3226528951,11127
0.3241603861,11128
0.320546556,11129
0.2437975885,11130
0.2405000481,11131
0.401315944,11132
0.5748879207,11133
0.3766204414,11134
0.5260583897,11135
0.566124601,11136
0.4112489986,11137
0.4502394305,11138
0.552058095,11139
0.4796691603,11140
0.4919413683,11141
0.349637713,11142
0.2897143627,11143
0.24121383,11144
0.2516229464,11145
0.3267646293,11146
0.3535025971,11147
0.2874330603,11148
0.2127946067,11149
0.3813040949,11150
0.3830197729,11151
0.5802801827,11152
0.5615894769,11153
0.5508420309,11154
0.6367615479,11155
0.5430690027,11156
0.5111359747,11157
0.3824523658,11158
0.3335174181,11159
0.4637288323,11160
0.2702429702,11161
0.2846010501,11162
0.2703746186,11163
0.3273357845,11164
0.30897063,11165
0.3207226573,11166
0.2295707542,11167
0.3125607249,11168
0.374936852,11169
0.6066447954,11170
0.3429461143,11171
0.5345317726,11172
0.563784405,11173
0.3960752047,11174
0.4545294103,11175
0.5741903554,11176
0.4626865953,11177
0.4747848833,11178
0.3553047383,11179
0.2756484833,11180
0.2664539805,11181
0.2102086046,11182
0.04704672888,11183
0.02836174496,11184
0.01828939891,11185
0.0138596889,11186
0.4234343896,11187
0.4544592311,11188
0.5598639108,11189
0.5597011237,11190
0.5799001056,11191
0.6245673331,11192
0.555642877,11193
0.5154314203,11194
0.3388182993,11195
0.3667324085,11196
0.4507880432,11197
0.266648251,11198
0.3010466785,11199
0.2501697353,11200
0.350616897,11201
0.3006988558,11202
0.3322696397,11203
0.2234775567,11204
0.3265525471,11205
0.3678297743,11206
0.6324293928,11207
0.3192954247,11208
0.523217363,11209
0.558984828,11210
0.4049718576,11211
0.4297208151,11212
0.5787842665,11213
0.4793905912,11214
0.4573062294,11215
0.3606534083,11216
0.2390731386,11217
0.2801804034,11218
0.1881373041,11219
0.04162058763,11220
0.02726460516,11221
0.01769116177,11222
0.01370590973,11223
0.4509614053,11224
0.4331898275,11225
0.5296797911,11226
0.6076525625,11227
0.5350778299,11228
0.6268238381,11229
0.5485149035,11230
0.5296421447,11231
0.329712038,11232
0.3665783709,11233
0.4483085953,11234
0.2658618017,11235
0.3048428134,11236
0.2497089577,11237
0.3467165267,11238
0.3287322631,11239
0.3024771059,11240
0.2439381601,11241
0.3019702289,11242
0.3334136834,11243
0.6139629968,11244
0.3202545486,11245
0.5590160614,11246
0.5271963574,11247
0.4051378181,11248
0.4566385867,11249
0.5474116233,11250
0.4944628087,11251
0.4578006491,11252
0.3482577444,11253
0.2310779169,11254
0.2880133417,11255
0.1776195492,11256
0.03837961322,11257
0.02484518098,11258
0.01577771356,11259
0.0123602201,11260
0.4515572437,11261
0.5112187387,11262
0.4625836711,11263
0.6235136752,11264
0.527377182,11265
0.6474311775,11266
0.5159624468,11267
0.516891725,11268
0.3474793974,11269
0.4261687895,11270
0.3796803847,11271
0.287326929,11272
0.2777749929,11273
0.2599865977,11274
0.3361693536,11275
0.3484088321,11276
0.2795902649,11277
0.2505916488,11278
0.3364132263,11279
0.3554123501,11280
0.6378774556,11281
0.2968187516,11282
0.5889501833,11283
0.526567606,11284
0.4210809884,11285
0.5279771619,11286
0.4988649293,11287
0.4764284627,11288
0.4299017064,11289
0.3280499233,11290
0.2200600332,11291
0.2887403643,11292
0.2142392274,11293
0.3943674979,11294
0.3129543058,11295
0.2480995989,11296
0.2444167451,11297
0.5001500575,11298
0.5303912829,11299
0.4989767055,11300
0.6262410678,11301
0.5931550926,11302
0.6380771129,11303
0.5334885139,11304
0.4969594125,11305
0.3761810724,11306
0.4507551799,11307
0.3704688397,11308
0.3072407282,11309
0.2972581475,11310
0.2848116515,11311
0.3536921708,11312
0.3667251525,11313
0.2779892894,11314
0.2687466949,11315
0.3396276726,11316
0.3882213096,11317
0.6104421284,11318
0.3404094366,11319
0.5621075833,11320
0.5088999757,11321
0.3887221952,11322
0.5368590899,11323
0.5175693597,11324
0.4639589269,11325
0.4721613408,11326
0.3232237974,11327
0.260309357,11328
0.2732829559,11329
0.1447237016,11330
0.04462888002,11331
0.03047669772,11332
0.02354365783,11333
0.1206207924,11334
0.4858509531,11335
0.5415312324,11336
0.4521474163,11337
0.6276839848,11338
0.5701746073,11339
0.616095527,11340
0.540502375,11341
0.4670490889,11342
0.3159819389,11343
0.4463046659,11344
0.3517096261,11345
0.3041834397,11346
0.2510045429,11347
0.2653750108,11348
0.3406270687,11349
0.3645006117,11350
0.2559753728,11351
0.2527046293,11352
0.3463448861,11353
0.386091953,11354
0.6036424182,11355
0.3593928742,11356
0.5866075239,11357
0.4986015959,11358
0.323738427,11359
0.5393681983,11360
0.5490412957,11361
0.4408133119,11362
0.481406038,11363
0.2619883532,11364
0.2656713185,11365
0.2646500121,11366
0.1338241239,11367
0.0345944276,11368
0.01949833769,11369
0.01354868095,11370
0.2228753667,11371
0.4499985552,11372
0.5502846196,11373
0.4493010918,11374
0.6615529643,11375
0.5331005752,11376
0.6151182947,11377
0.5376639137,11378
0.4820180001,11379
0.2914608501,11380
0.4439859321,11381
0.3489334933,11382
0.2968946206,11383
0.2626298987,11384
0.2456015441,11385
0.3784824356,11386
0.3253952392,11387
0.2832515809,11388
0.2190313247,11389
0.3606254587,11390
0.444590808,11391
0.5537838526,11392
0.3626423831,11393
0.6185932092,11394
0.4657576929,11395
0.3531617765,11396
0.5259682546,11397
0.533865413,11398
0.4635267759,11399
0.4549593229,11400
0.2581141472,11401
0.279001249,11402
0.2471479697,11403
0.1328897913,11404
0.032757816,11405
0.01910623809,11406
0.01289532231,11407
0.2542737363,11408
0.4481119484,11409
0.5495548337,11410
0.4806128769,11411
0.6310990643,11412
0.5818938891,11413
0.5926827431,11414
0.5168735016,11415
0.4768570594,11416
0.297083299,11417
0.4436392558,11418
0.3756714815,11419
0.2592283191,11420
0.2916903571,11421
0.221998418,11422
0.3901238835,11423
0.3048621962,11424
0.2863638642,11425
0.2125420516,11426
0.3880358588,11427
0.4381680097,11428
0.5345514358,11429
0.42739648,11430
0.580826663,11431
0.4622085374,11432
0.4091238161,11433
0.5116739051,11434
0.5274455549,11435
0.4473943251,11436
0.4539538773,11437
0.25107464,11438
0.2880038063,11439
0.2426775551,11440
0.3324191086,11441
0.3069105714,11442
0.302302984,11443
0.273486625,11444
0.3163299384,11445
0.4631000893,11446
0.5412749639,11447
0.5480924261,11448
0.5956367833,11449
0.6076805987,11450
0.5673308417,11451
0.5265895065,11452
0.4253529995,11453
0.3161078727,11454
0.4488007306,11455
0.3618113243,11456
0.2508405034,11457
0.2986354706,11458
0.2378517739,11459
0.3937455219,11460
0.2862403878,11461
0.2933038757,11462
0.2001231139,11463
0.4133717619,11464
0.4979818595,11465
0.4601455101,11466
0.4650335326,11467
0.5612910776,11468
0.4588508472,11469
0.4025010075,11470
0.5342250065,11471
0.5338186483,11472
0.4539251126,11473
0.4105689466,11474
0.2701996982,11475
0.2705491364,11476
0.2512623437,11477
0.07052714304,11478
0.03198322789,11479
0.01600331958,11480
0.0123316078,11481
0.2795565722,11482
0.4504477328,11483
0.5730043747,11484
0.5213196748,11485
0.6153612825,11486
0.5879453669,11487
0.5740397941,11488
0.5502281326,11489
0.3910639,11490
0.3121237387,11491
0.4465984282,11492
0.3604518705,11493
0.2374709203,11494
0.3047356796,11495
0.230336197,11496
0.3987604553,11497
0.281989516,11498
0.290343989,11499
0.200149348,11500
0.4246709176,11501
0.5034274644,11502
0.4463593918,11503
0.4698161247,11504
0.6055078089,11505
0.3947044116,11506
0.4264665749,11507
0.5244178822,11508
0.5368136239,11509
0.4827948668,11510
0.3519074456,11511
0.2699719794,11512
0.2618797171,11513
0.2492086369,11514
0.06157261134,11515
0.03058282859,11516
0.01595156223,11517
0.01197378229,11518
0.2921094723,11519
0.4484666283,11520
0.5800826678,11521
0.5656645404,11522
0.5750245695,11523
0.5974257378,11524
0.5580047356,11525
0.5541680767,11526
0.401355006,11527
0.3008214307,11528
0.4539717756,11529
0.3478644688,11530
0.2546440292,11531
0.2921178231,11532
0.2996419604,11533
0.3458196795,11534
0.3164153169,11535
0.2499783584,11536
0.2316213445,11537
0.4079388474,11538
0.5631822463,11539
0.3816466679,11540
0.5020660783,11541
0.5872519682,11542
0.3865176061,11543
0.4377534967,11544
0.5267406199,11545
0.51596289,11546
0.486898394,11547
0.3524022496,11548
0.278488104,11549
0.2452179748,11550
0.2486384593,11551
0.0552190316,11552
0.02873636067,11553
0.01451216814,11554
0.01216468851,11555
0.3102154303,11556
0.4438051632,11557
0.5923317156,11558
0.5957833838,11559
0.5392675214,11560
0.6313196679,11561
0.5372690719,11562
0.5272766483,11563
0.405552359,11564
0.3099985815,11565
0.489200923,11566
0.2767668358,11567
0.2800004645,11568
0.2731053921,11569
0.322627454,11570
0.3245115588,11571
0.3194487868,11572
0.244169537,11573
0.2778883463,11574
0.3746730434,11575
0.5758543122,11576
0.3673052944,11577
0.5300382157,11578
0.5686491818,11579
0.4377329453,11580
0.4532331928,11581
0.5627874768,11582
0.4674457557,11583
0.4624911375,11584
0.3141426171,11585
0.2753958546,11586
0.2416887691,11587
0.2454943766,11588
0.3345185957,11589
0.3588557502,11590
0.283901177,11591
0.2119577527,11592
0.4442092414,11593
0.4163934376,11594
0.5917533435,11595
0.5586085941,11596
0.5659237202,11597
0.6307465551,11598
0.5436169368,11599
0.5077921281,11600
0.3667204052,11601
0.3548912316,11602
0.4569449068,11603
0.2677005421,11604
0.2903833479,11605
0.2661535706,11606
0.3408899258,11607
0.3074010099,11608
0.330675083,11609
0.2263234782,11610
0.3162108441,11611
0.3513944191,11612
0.6171079403,11613
0.3028105803,11614
0.527490985,11615
0.566933219,11616
0.389140473,11617
0.4480740702,11618
0.5805247252,11619
0.4673824475,11620
0.4608785546,11621
0.370779669,11622
0.2555788323,11623
0.2808190248,11624
0.1942945793,11625
0.04506027594,11626
0.02661223834,11627
0.01618884431,11628
0.01318887357,11629
0.4495018891,11630
0.4402069172,11631
0.5520562101,11632
0.576464838,11633
0.5663084505,11634
0.6186265359,11635
0.5578426014,11636
0.5204100205,11637
0.3281193881,11638
0.3723757146,11639
0.4534585667,11640
0.2598855355,11641
0.3049210742,11642
0.2481712737,11643
0.3500792028,11644
0.3057573263,11645
0.3277880152,11646
0.2256264303,11647
0.317484443,11648
0.349700655,11649
0.62991892,11650
0.3197016873,11651
0.5262429808,11652
0.5464870974,11653
0.4130362703,11654
0.4247138084,11655
0.5771215351,11656
0.4862193959,11657
0.4566759511,11658
0.3591212001,11659
0.2399783372,11660
0.282540688,11661
0.1868653422,11662
0.04119798039,11663
0.02704915305,11664
0.0177796183,11665
0.01294031793,11666
0.4809183546,11667
0.4709158634,11668
0.5057409788,11669
0.6200372406,11670
0.5175533599,11671
0.6368947614,11672
0.5353242069,11673
0.5289516587,11674
0.3344749385,11675
0.3784173699,11676
0.4321627136,11677
0.27152267,11678
0.296352052,11679
0.2539164135,11680
0.3419932115,11681
0.3471964141,11682
0.2839120772,11683
0.2517191879,11684
0.3052819413,11685
0.3550690849,11686
0.637749985,11687
0.2990849846,11688
0.5711229706,11689
0.5159777033,11690
0.3970511235,11691
0.4843091731,11692
0.521969033,11693
0.4927915231,11694
0.4624446887,11695
0.3519290177,11696
0.2252632645,11697
0.2903746528,11698
0.1710113054,11699
0.04309342792,11700
0.02664213618,11701
0.01950648305,11702
0.01514599494,11703
0.4806321834,11704
0.5267586406,11705
0.4561254289,11706
0.6222765421,11707
0.544715196,11708
0.6461196507,11709
0.5105292678,11710
0.5020831153,11711
0.3516109761,11712
0.4381158164,11713
0.3658538427,11714
0.2908930487,11715
0.2784122242,11716
0.2637372761,11717
0.3376847844,11718
0.3485894136,11719
0.2792028714,11720
0.2510781535,11721
0.324605075,11722
0.3511343982,11723
0.6420522858,11724
0.3007173158,11725
0.5777097543,11726
0.50118003,11727
0.3960904973,11728
0.5308652521,11729
0.4968289592,11730
0.4799447222,11731
0.4664669808,11732
0.3501257823,11733
0.2363747232,11734
0.2887584272,11735
0.2103003902,11736
0.3869077559,11737
0.3046316576,11738
0.2544632964,11739
0.2552125984,11740
0.4882989263,11741
0.5332763168,11742
0.4646649883,11743
0.6191671708,11744
0.5871950565,11745
0.6200144281,11746
0.5244380786,11747
0.4665900927,11748
0.3377221843,11749
0.4456835236,11750
0.3686345349,11751
0.2936589168,11752
0.2654433693,11753
0.2674140176,11754
0.3394148315,11755
0.3630623513,11756
0.2563099586,11757
0.2578107401,11758
0.3388606297,11759
0.402177803,11760
0.6025972779,11761
0.3521544797,11762
0.565254142,11763
0.5075663122,11764
0.3703265557,11765
0.5347183852,11766
0.5323357696,11767
0.4569714563,11768
0.4880789165,11769
0.2923855769,11770
0.2636200621,11771
0.26752383,11772
0.1431851011,11773
0.04681055927,11774
0.03099485905,11775
0.02367829804,11776
0.153127809,11777
0.4800644397,11778
0.5532723344,11779
0.4523424707,11780
0.6429120796,11781
0.5503613449,11782
0.6157344633,11783
0.5443772059,11784
0.4736619485,11785
0.3030362071,11786
0.4544077715,11787
0.3595417785,11788
0.3002451293,11789
0.2555816499,11790
0.2614175792,11791
0.347703456,11792
0.36065742,11793
0.2591273472,11794
0.2479941439,11795
0.3697835209,11796
0.4008529037,11797
0.5927259119,11798
0.3603195408,11799
0.6081402636,11800
0.485342661,11801
0.3180168624,11802
0.5409716651,11803
0.5459188887,11804
0.4711718432,11805
0.4677255176,11806
0.2653813107,11807
0.2697268212,11808
0.2662529598,11809
0.1399618966,11810
0.04572393428,11811
0.03458499599,11812
0.02638009795,11813
0.08541832184,11814
0.3543757173,11815
0.394513024,11816
0.273799172,11817
0.2699409208,11818
0.1777980439,11819
0.1124928969,11820
0.07340455325,11821
0.05839129423,11822
0.05592114252,11823
0.3943921549,11824
0.388293413,11825
0.3441211966,11826
0.2640512995,11827
0.2331048861,11828
0.4173869715,11829
0.3267344536,11830
0.2962671604,11831
0.224345005,11832
0.1895065206,11833
0.1262226654,11834
0.09827865009,11835
0.0888343646,11836
0.1217294988,11837
0.36278657,11838
0.387307383,11839
0.3092387241,11840
0.2871398382,11841
0.3643518305,11842
0.5252272635,11843
0.4335863597,11844
0.5011984563,11845
0.3547813293,11846
0.2961991045,11847
0.231346395,11848
0.2277995432,11849
0.220255092,11850
0.286705541,11851
0.52713154,11852
0.5112118048,11853
0.4670744526,11854
0.3727829431,11855
0.2946769667,11856
0.1953742909,11857
0.1526753802,11858
0.2029129873,11859
0.1956791968,11860
0.4239319677,11861
0.4083288886,11862
0.3615611088,11863
0.3185115958,11864
0.3831987529,11865
0.4763974719,11866
0.4810051923,11867
0.4056990173,11868
0.3815200544,11869
0.3078769265,11870
0.185492451,11871
0.115257238,11872
0.1191075276,11873
0.1984341323,11874
0.4261516312,11875
0.4219134293,11876
0.2910660247,11877
0.2789649397,11878
0.3701149787,11879
0.5073200586,11880
0.4683301084,11881
0.4826708361,11882
0.3100396039,11883
0.3759822426,11884
0.4092502693,11885
0.3720706008,11886
0.3632667525,11887
0.4115867221,11888
0.4024188364,11889
0.6265851515,11890
0.332981535,11891
0.5191396411,11892
0.6064562555,11893
0.6187338613,11894
0.5342767901,11895
0.4366928767,11896
0.3933117439,11897
0.2179886166,11898
0.2091198034,11899
0.1935850344,11900
0.1617453225,11901
0.1397650374,11902
0.1599941989,11903
0.1333651079,11904
0.1230237033,11905
0.1284085661,11906
0.4391350165,11907
0.5065208373,11908
0.4135070066,11909
0.4476270991,11910
0.5581693566,11911
0.6706446314,11912
0.5430760508,11913
0.4718810475,11914
0.3700825631,11915
0.2270763315,11916
0.1876759415,11917
0.07787442475,11918
0.1229404926,11919
0.05917239652,11920
0.07766329482,11921
0.0711931534,11922
0.08317434781,11923
0.05922793073,11924
0.3029443906,11925
0.3493135265,11926
0.6501193885,11927
0.2785170394,11928
0.5998392261,11929
0.5902021903,11930
0.5845399374,11931
0.5718800543,11932
0.4096666424,11933
0.2859524325,11934
0.2201903185,11935
0.106097244,11936
0.07189473231,11937
0.08570808599,11938
0.05142471126,11939
0.0342565636,11940
0.0451276288,11941
0.03329259845,11942
0.04812500546,11943
0.4222861958,11944
0.5135059586,11945
0.4337949994,11946
0.4916240095,11947
0.6415635905,11948
0.6265836974,11949
0.5145412586,11950
0.4726540201,11951
0.3422820179,11952
0.2269651376,11953
0.1478155667,11954
0.1139249402,11955
0.0663141403,11956
0.07060483601,11957
0.04856947452,11958
0.03095098625,11959
0.02767196607,11960
0.02767536875,11961
0.3151304669,11962
0.3717211568,11963
0.6121719899,11964
0.3227499787,11965
0.5623879589,11966
0.6468646864,11967
0.5459177426,11968
0.5494909358,11969
0.4156158383,11970
0.2699822384,11971
0.2051109297,11972
0.1167286838,11973
0.07393103975,11974
0.06900140259,11975
0.03730503847,11976
0.0194933344,11977
0.01209229783,11978
0.003905531651,11979
0.1256991207,11980
0.4057113196,11981
0.5705388714,11982
0.3646002869,11983
0.5188302007,11984
0.6163917815,11985
0.6192507096,11986
0.5370595164,11987
0.4735254382,11988
0.3166178408,11989
0.2351917152,11990
0.1398574914,11991
0.09964541107,11992
0.06999990919,11993
0.04816378703,11994
0.03191789547,11995
0.01388905691,11996
0.003634998683,11997
0.001452744955,11998
0.3285087013,11999
0.3771681149,12000
0.6006233661,12001
0.358275267,12002
0.5943670112,12003
0.6626403395,12004
0.5319575627,12005
0.5183859518,12006
0.4023949001,12007
0.2709091887,12008
0.1743558213,12009
0.1194361286,12010
0.07849114345,12011
0.05998703618,12012
0.0371713051,12013
0.02225011398,12014
0.008239909784,12015
2.616024433E-4,12016
0.2311646191,12017
0.3535939376,12018
0.583888477,12019
0.3460353826,12020
0.5375143613,12021
0.6065126629,12022
0.6173864769,12023
0.5356109145,12024
0.4873910161,12025
0.2922884496,12026
0.2221982649,12027
0.1457959346,12028
0.08829169325,12029
0.07220262469,12030
0.0441615626,12031
0.03132289955,12032
0.01226121871,12033
0.00241327771,12034
1.520026428E-4,12035
0.349278963,12036
0.4422871407,12037
0.5482025476,12038
0.3659061244,12039
0.6289488739,12040
0.6422373534,12041
0.5457024891,12042
0.5138941655,12043
0.355803983,12044
0.2771388068,12045
0.1682438285,12046
0.108618142,12047
0.08132472759,12048
0.05348855932,12049
0.03851740183,12050
0.01940678683,12051
0.007700374631,12052
2.152770587E-4,12053
0.2594765153,12054
0.3381636952,12055
0.6240358849,12056
0.2975682001,12057
0.5243754663,12058
0.6532111205,12059
0.591731101,12060
0.5147819715,12061
0.4813995946,12062
0.2968798095,12063
0.2054696049,12064
0.1433299773,12065
0.08808467888,12066
0.06706547232,12067
0.04506634604,12068
0.02733552868,12069
0.01218717674,12070
0.001499285827,12071
3.883199745E-4,12072
0.3766034383,12073
0.4383233387,12074
0.5317813704,12075
0.4303802184,12076
0.5903446751,12077
0.6397744099,12078
0.550312096,12079
0.5284679426,12080
0.3309053161,12081
0.2631956502,12082
0.1696480428,12083
0.09969159467,12084
0.08129700628,12085
0.05072432578,12086
0.0375460832,12087
0.01818106462,12088
0.006615723899,12089
2.016925359E-4,12090
0.2695698918,12091
0.3460669859,12092
0.6174510562,12093
0.3194641422,12094
0.5436921666,12095
0.6684208119,12096
0.5674604307,12097
0.526933354,12098
0.4305052366,12099
0.3045423981,12100
0.202374756,12101
0.1273290907,12102
0.09260965209,12103
0.06060609463,12104
0.04659640402,12105
0.02366216094,12106
0.01201462772,12107
0.001092799249,12108
8.154344826E-4,12109
0.4065775664,12110
0.4978253205,12111
0.4575893432,12112
0.4650829475,12113
0.5804128439,12114
0.6578980309,12115
0.5175269947,12116
0.5260098887,12117
0.3466091826,12118
0.2369868527,12119
0.1636101411,12120
0.1023052689,12121
0.07473957727,12122
0.0529896988,12123
0.03364187201,12124
0.01861309889,12125
0.004317695142,12126
1.497602729E-4,12127
0.2891191116,12128
0.3406871166,12129
0.6296637038,12130
0.285151296,12131
0.5880881675,12132
0.637126955,12133
0.5727400572,12134
0.5498220346,12135
0.3963978486,12136
0.2903625778,12137
0.2064225532,12138
0.1170189898,12139
0.0900118322,12140
0.05989119028,12141
0.04366203626,12142
0.02323712233,12143
0.01081943735,12144
0.00105861028,12145
0.01266165057,12146
0.4148966208,12147
0.5030424722,12148
0.4438039661,12149
0.4715289931,12150
0.6268713296,12151
0.6444999606,12152
0.5086070317,12153
0.4908121823,12154
0.3558649414,12155
0.2257447903,12156
0.1517572745,12157
0.1073014665,12158
0.06778149584,12159
0.05439791258,12160
0.03029156285,12161
0.01793070426,12162
0.003429020317,12163
1.058621449E-4,12164
0.3048712274,12165
0.3602394784,12166
0.615337123,12167
0.3202939621,12168
0.5694520941,12169
0.6487162475,12170
0.5551110154,12171
0.5532471862,12172
0.4066918412,12173
0.2688558454,12174
0.1999277056,12175
0.1165706367,12176
0.08070690277,12177
0.06291795723,12178
0.03855270691,12179
0.02403206586,12180
0.008823035852,12181
8.772590802E-4,12182
0.1079341415,12183
0.4115149134,12184
0.5649215576,12185
0.3710413704,12186
0.5052220846,12187
0.6261224367,12188
0.6218879538,12189
0.5313467808,12190
0.4700485917,12191
0.3295048001,12192
0.2330207725,12193
0.1426253692,12194
0.1020161092,12195
0.06849767113,12196
0.05015999187,12197
0.0309165302,12198
0.01498776794,12199
0.00334912443,12200
1.041209722E-4,12201
0.3238894775,12202
0.3792020359,12203
0.596760645,12204
0.3599716431,12205
0.5760860184,12206
0.6656307358,12207
0.5324212823,12208
0.5278601451,12209
0.4096115676,12210
0.2677825564,12211
0.1791111615,12212
0.1201738936,12213
0.07713262122,12214
0.06162977317,12215
0.03662072288,12216
0.02306132265,12217
0.007955340221,12218
4.816234699E-4,12219
0.1934029524,12220
0.3748977097,12221
0.57639502,12222
0.3581991205,12223
0.5338343982,12224
0.6019094064,12225
0.6201959006,12226
0.5403226812,12227
0.4822230407,12228
0.2965723694,12229
0.2275278762,12230
0.1430184024,12231
0.09187348486,12232
0.07162515175,12233
0.04473604825,12234
0.03163679232,12235
0.01250110052,12236
0.00276935987,12237
1.212929771E-4,12238
0.345774116,12239
0.4170195191,12240
0.567992541,12241
0.357972548,12242
0.6247910328,12243
0.6485348914,12244
0.5400142734,12245
0.5118321865,12246
0.3721095654,12247
0.2748981128,12248
0.167421538,12249
0.1106577088,12250
0.07960420455,12251
0.05527807583,12252
0.03813408715,12253
0.02032025848,12254
0.007735971159,12255
2.272387977E-4,12256
0.2535960436,12257
0.3439818723,12258
0.6158134664,12259
0.2969208004,12260
0.5282577057,12261
0.6373709947,12262
0.6029957342,12263
0.519314362,12264
0.4885798061,12265
0.2942496294,12266
0.2100442385,12267
0.1446280009,12268
0.08604167248,12269
0.0690295898,12270
0.04443151528,12271
0.02875373343,12272
0.01211988215,12273
0.001794868777,12274
3.436007963E-4,12275
0.3724934328,12276
0.4371906239,12277
0.5366614728,12278
0.407232423,12279
0.608382104,12280
0.636993119,12281
0.5533277102,12282
0.5237602698,12283
0.3328263631,12284
0.2708864035,12285
0.1673788907,12286
0.1032130304,12287
0.08212409203,12288
0.05101771989,12289
0.03816123667,12290
0.0183285235,12291
0.007183144843,12292
2.089047481E-4,12293
0.2625955507,12294
0.3396567559,12295
0.6263424047,12296
0.3150042404,12297
0.5326440002,12298
0.6726548844,12299
0.5715546662,12300
0.5195106484,12301
0.4490021478,12302
0.3034796225,12303
0.2014112047,12304
0.1342405824,12305
0.09110038345,12306
0.06229723762,12307
0.04684102728,12308
0.02452973096,12309
0.01215164808,12310
0.001155305487,12311
5.388369601E-4,12312
0.3869423611,12313
0.4874786549,12314
0.4794987618,12315
0.4636551758,12316
0.5746883548,12317
0.653213439,12318
0.5289507616,12319
0.530892016,12320
0.3401715593,12321
0.2446733807,12322
0.1679997295,12323
0.1006585895,12324
0.07711133613,12325
0.05245228622,12326
0.03519003552,12327
0.01842567164,12328
0.004990087168,12329
1.548832859E-4,12330
0.2798072863,12331
0.3464034897,12332
0.630571614,12333
0.2949609615,12334
0.5786094636,12335
0.6460030336,12336
0.5712852258,12337
0.5436267835,12338
0.4014435122,12339
0.2979976131,12340
0.2040278849,12341
0.1179973216,12342
0.09156405118,12343
0.0591956461,12344
0.04537537002,12345
0.0230878241,12346
0.01136637949,12347
0.001079611558,12348
0.002130609594,12349
0.415998089,12350
0.4970809824,12351
0.4508400051,12352
0.4666490495,12353
0.6132266974,12354
0.6516365895,12355
0.5065406179,12356
0.5033463165,12357
0.3562476259,12358
0.2263880941,12359
0.1554020713,12360
0.1066326369,12361
0.06874200971,12362
0.05440969804,12363
0.03089983977,12364
0.01849532744,12365
0.003501262484,12366
1.10880789E-4,12367
0.2965007308,12368
0.3421981698,12369
0.6324194631,12370
0.3000808137,12371
0.5799081318,12372
0.6393197245,12373
0.5642661231,12374
0.555097155,12375
0.4014072336,12376
0.2732700671,12377
0.204143814,12378
0.1174769044,12379
0.08373224083,12380
0.06186622333,12381
0.03995910012,12382
0.0238046009,12383
0.009353038129,12384
9.669458104E-4,12385
0.07924536883,12386
0.4160000312,12387
0.5399871153,12388
0.3952402274,12389
0.493283074,12390
0.6313594102,12391
0.6267089325,12392
0.5237172256,12393
0.4719025937,12394
0.3414031933,12395
0.2316817446,12396
0.1424807772,12397
0.1051771276,12398
0.06806604635,12399
0.05173813798,12400
0.03040297597,12401
0.01602161231,12402
0.003408837041,12403
1.017441335E-4,12404
0.3232971383,12405
0.3804383021,12406
0.6017948648,12407
0.351335353,12408
0.5654091583,12409
0.6652926566,12410
0.5370367922,12411
0.5377289168,12412
0.4124625474,12413
0.2660735052,12414
0.1856004898,12415
0.1209878043,12416
0.07748240273,12417
0.06282915418,12418
0.03686381874,12419
0.02364642943,12420
0.008093448433,12421
6.203253746E-4,12422
0.1518770171,12423
0.3988220325,12424
0.568202682,12425
0.3611429894,12426
0.5277606955,12427
0.6066433271,12428
0.619865122,12429
0.5413136655,12430
0.4769757208,12431
0.3041599118,12432
0.2298289319,12433
0.1401362413,12434
0.09443373504,12435
0.07135524903,12436
0.04611555819,12437
0.03179289693,12438
0.01303264139,12439
0.00301105868,12440
1.023590688E-4,12441
0.3384080278,12442
0.3874459784,12443
0.5893304042,12444
0.3567287144,12445
0.6131641744,12446
0.6555338756,12447
0.5349575172,12448
0.5129679358,12449
0.3878081096,12450
0.2726453598,12451
0.1696975067,12452
0.1154050147,12453
0.07929245448,12454
0.05765886543,12455
0.03745112627,12456
0.02129039672,12457
0.00777116964,12458
2.643622361E-4,12459
0.2374493658,12460
0.3542352526,12461
0.5965691664,12462
0.3186938017,12463
0.532589917,12464
0.6196575233,12465
0.6114520929,12466
0.5270568012,12467
0.4902739218,12468
0.2916582438,12469
0.2162497295,12470
0.1444427338,12471
0.08687446291,12472
0.07098407932,12473
0.04402672661,12474
0.03011719352,12475
0.01215422354,12476
0.002106044145,12477
3.601809604E-4,12478
0.3585149468,12479
0.4490574772,12480
0.538743517,12481
0.3845479799,12482
0.6219022737,12483
0.6374986088,12484
0.5516003765,12485
0.5187644616,12486
0.3404216003,12487
0.2760083359,12488
0.1683911144,12489
0.1041536186,12490
0.08250490711,12491
0.05174266911,12492
0.03833245552,12493
0.01882821656,12494
0.007557424237,12495
2.140908569E-4,12496
0.2611408553,12497
0.3386076805,12498
0.621593554,12499
0.306808014,12500
0.5246946162,12501
0.6684246685,12502
0.5794761855,12503
0.5147260062,12504
0.4663695383,12505
0.3008730161,12506
0.204211642,12507
0.1392104427,12508
0.09020549995,12509
0.0644064692,12510
0.04602934938,12511
0.0256641099,12512
0.0121351848,12513
0.001257795557,12514
2.351653351E-4,12515
0.3788996663,12516
0.4688880728,12517
0.5062156641,12518
0.4520625261,12519
0.5761761955,12520
0.6469070239,12521
0.540464544,12522
0.5315600055,12523
0.3343588542,12524
0.2527757129,12525
0.1676985793,12526
0.1012334119,12527
0.07992001249,12528
0.05127542155,12529
0.03640219598,12530
0.01825640333,12531
0.005775991462,12532
1.734848658E-4,12533
0.27258023,12534
0.3481950505,12535
0.6247656536,12536
0.3091266955,12537
0.5635360574,12538
0.6574629381,12539
0.5688831987,12540
0.5362600008,12541
0.4124639433,12542
0.3024921912,12543
0.2019754493,12544
0.121632566,12545
0.09244419524,12546
0.05917414886,12547
0.04618446024,12548
0.02329226505,12549
0.01172213153,12550
0.001072913699,12551
4.835796498E-4,12552
0.4167625554,12553
0.4959699611,12554
0.4489208633,12555
0.465089876,12556
0.5975196331,12557
0.6578915259,12558
0.5086730266,12559
0.5154580074,12560
0.3529529998,12561
0.2300322541,12562
0.1596126206,12563
0.103384045,12564
0.07106202198,12565
0.05373537423,12566
0.03210810447,12567
0.01863863509,12568
0.003744686695,12569
1.245631551E-4,12570
0.2987375464,12571
0.3338573746,12572
0.6352710061,12573
0.2897101332,12574
0.5871992178,12575
0.6348032412,12576
0.5703189813,12577
0.5540564743,12578
0.3971120176,12579
0.2808229784,12580
0.2055782408,12581
0.1156497215,12582
0.08724658417,12583
0.06084169114,12584
0.04161966865,12585
0.02350136214,12586
0.01004372419,12587
0.001033589391,12588
0.0458427947,12589
0.415577222,12590
0.5224702227,12591
0.4240227607,12592
0.4826219067,12593
0.633337144,12594
0.6342973385,12595
0.515811356,12596
0.4785975417,12597
0.3504960852,12598
0.2293985,12599
0.1474627959,12600
0.1069258312,12601
0.06727216589,12602
0.05360392582,12603
0.03024652359,12604
0.01697641921,12605
0.003417264065,12606
1.046089874E-4,12607
0.3152330809,12608
0.3728437501,12609
0.6052888379,12610
0.3409983847,12611
0.5653426725,12612
0.659495437,12613
0.5441457188,12614
0.5467044896,12615
0.4115163759,12616
0.2653259108,12617
0.1938585806,12618
0.1194661645,12619
0.07851023019,12620
0.06372379615,12621
0.03742972834,12622
0.02399293773,12623
0.008366656686,12624
7.50992941E-4,12625
0.1281819484,12626
0.4054786086,12627
0.5735005528,12628
0.3623123959,12629
0.5184065037,12630
0.6152082196,12631
0.6201032936,12632
0.5381155997,12633
0.4723939873,12634
0.3152176914,12635
0.235026956,12636
0.1410029469,12637
0.09944129689,12638
0.07022595898,12639
0.04817468832,12640
0.03144525463,12641
0.01373375162,12642
0.003193579765,12643
1.026430057E-4,12644
0.3304218978,12645
0.3804179097,12646
0.599586355,12647
0.3598179917,12648
0.5956593953,12649
0.6602180594,12650
0.5327933855,12651
0.5180365508,12652
0.4005903418,12653
0.270267245,12654
0.1724321222,12655
0.1178394244,12656
0.07755513737,12657
0.05976413765,12658
0.03692713103,12659
0.02225855755,12660
0.007833807776,12661
3.480323324E-4,12662
0.2340756754,12663
0.352320996,12664
0.5875277443,12665
0.338526423,12666
0.5343927305,12667
0.6069237175,12668
0.6178176709,12669
0.5345811888,12670
0.4871896334,12671
0.2928254536,12672
0.2243129271,12673
0.1489104148,12674
0.09163311846,12675
0.07862421572,12676
0.05548367114,12677
0.04763827816,12678
0.04671356288,12679
0.04907446637,12680
0.05402905185,12681
0.3514356397,12682
0.4491225242,12683
0.5489599533,12684
0.3755132976,12685
0.6286969156,12686
0.6444360713,12687
0.5536354037,12688
0.5203826417,12689
0.3682915584,12690
0.2994160833,12691
0.2033547611,12692
0.1751714855,12693
0.1472346385,12694
0.1525284992,12695
0.1579309126,12696
0.1775389594,12697
0.1806720992,12698
0.1791258082,12699
0.307524446,12700
0.3861394001,12701
0.6306222594,12702
0.3458702933,12703
0.5281341241,12704
0.6559003591,12705
0.5929129031,12706
0.5137409032,12707
0.4800597407,12708
0.300047491,12709
0.2066243804,12710
0.1496388298,12711
0.1031995268,12712
0.08001935604,12713
0.2935885271,12714
0.3450907973,12715
0.6352530986,12716
0.2909039478,12717
0.5851452412,12718
0.6403860539,12719
0.5729933296,12720
0.5474094102,12721
0.3981947874,12722
0.2926711778,12723
0.1886717378,12724
0.109222661,12725
0.08966368483,12726
0.06036131807,12727
0.3257639655,12728
0.3866559906,12729
0.6007274091,12730
0.3533962457,12731
0.5661430595,12732
0.6657609436,12733
0.5362515304,12734
0.536675512,12735
0.4121430245,12736
0.3717838031,12737
0.3779775505,12738
0.6485618223,12739
0.2759624538,12740
0.5698872259,12741
0.6443429061,12742
0.5814940329,12743
0.5346056589,12744
0.4278253905,12745
0.3043455016,12746
0.2011501731,12747
0.1242016253,12748
0.09296699618,12749
0.06031156012,12750
0.3038344543,12751
0.3563790081,12752
0.6283329506,12753
0.3114386726,12754
0.5736089887,12755
0.6445013075,12756
0.5589851127,12757
0.553954909,12758
0.4046953011,12759
0.2662806913,12760
0.1864501528,12761
0.1112674191,12762
0.07961671869,12763
0.06172941044,12764
0.3442745947,12765
0.3958142129,12766
0.5892019986,12767
0.3564031983,12768
0.6135831915,12769
0.6552971596,12770
0.5352340208,12771
0.512727203,12772
0.3866761466,12773
0.2650917536,12774
0.1558934013,12775
0.1095989242,12776
0.07685861057,12777
0.05662748732,12778
0.03727541515,12779
0.02113598492,12780
0.008118794188,12781
3.319910013E-4,12782
2.407758528E-4,12783
2.409382241E-4,12784
3.05839651E-4,12785
3.251036439E-4,12786
2.018412883E-4,12787
1.013410784E-4,12788
9.833487514E-5,12789
9.959392159E-5,12790
8.870709194E-5,12791
7.766446332E-5,12792
7.085485695E-5,12793
8.670572764E-5,12794
8.073065733E-5,12795
7.586357804E-5,12796
7.960753157E-5,12797
9.309932603E-5,12798
1.117387277E-4,12799
1.334803402E-4,12800
5.518141228E-5,12801
4.477193678E-5,12802
4.284110536E-5,12803
4.146016144E-5,12804
3.732754858E-5,12805
3.205821288E-5,12806
3.1801857E-5,12807
3.618939583E-5,12808
3.406633587E-5,12809
3.358233807E-5,12810
3.459617071E-5,12811
3.817080707E-5,12812
4.523674479E-5,12813
5.296113349E-5,12814
2.72423875E-5,12815
2.490532848E-5,12816
2.457446809E-5,12817
2.583735883E-5,12818
2.19966175E-5,12819
2.106735424E-5,12820
2.085038291E-5,12821
2.203792574E-5,12822
2.054277346E-5,12823
2.058699908E-5,12824
2.268863154E-5,12825
2.264851015E-5,12826
2.446318691E-5,12827
2.475882527E-5,12828
1.868812365E-5,12829
1.763652993E-5,12830
1.897787928E-5,12831
1.700644922E-5,12832
1.959098681E-5,12833
1.834429175E-5,12834
1.824486396E-5,12835
1.819494632E-5,12836
1.789251617E-5,12837
1.873672743E-5,12838
1.794327519E-5,12839
2.027539408E-5,12840
1.94512158E-5,12841
1.96836161E-5,12842
1.784161275E-5,12843
1.873672743E-5,12844
1.809469792E-5,12845
1.737677303E-5,12846
1.689915194E-5,12847
1.668248719E-5,12848
1.711307377E-5,12849
1.839380409E-5,12850
1.902574286E-5,12851
1.758488552E-5,12852
1.721903809E-5,12853
1.859053487E-5,12854
1.742903412E-5,12855
1.888178813E-5,12856
1.748113897E-5,12857
1.921600502E-5,12858
1.779056368E-5,12859
1.758488552E-5,12860
1.888178813E-5,12861
1.779056368E-5,12862
1.673691633E-5,12863
1.859053487E-5,12864
1.982174844E-5,12865
1.814489135E-5,12866
1.789251617E-5,12867
1.779056368E-5,12868
1.711307377E-5,12869
1.684524701E-5,12870
1.84924311E-5,12871
1.935747445E-5,12872
1.859053487E-5,12873
1.94512158E-5,12874
1.700644922E-5,12875
1.789251617E-5,12876
1.916861653E-5,12877
1.82946454E-5,12878
1.695288547E-5,12879
1.977581153E-5,12880
1.809469792E-5,12881
1.834429175E-5,12882
1.789251617E-5,12883
1.897787928E-5,12884
1.779056368E-5,12885
1.804436486E-5,12886
1.839380409E-5,12887
1.916861653E-5,12888
1.784161275E-5,12889
1.758488552E-5,12890
1.84924311E-5,12891
1.854154787E-5,12892
1.612809613E-5,12893
1.873672743E-5,12894
1.972976767E-5,12895
1.931043313E-5,12896
1.878520546E-5,12897
1.94512158E-5,12898
1.809469792E-5,12899
1.921600502E-5,12900
1.635210819E-5,12901
1.839380409E-5,12902
1.84924311E-5,12903
1.892989468E-5,12904
1.84924311E-5,12905
1.679116903E-5,12906
1.819494632E-5,12907
1.892989468E-5,12908
1.732435429E-5,12909
1.94512158E-5,12910
1.824486396E-5,12911
1.732435429E-5,12912
1.804436486E-5,12913
1.737677303E-5,12914
1.711307377E-5,12915
1.839380409E-5,12916
1.768802356E-5,12917
1.819494632E-5,12918
1.70598448E-5,12919
1.794327519E-5,12920
1.794327519E-5,12921
1.243439179E-5,12922
