@RELATION 'Music feature'
%rows=1
%columns=12922
%sample_rate=22050
%window_size=512
%step_size=512

@ATTRIBUTE 'Angles in phase domain' NUMERIC
@ATTRIBUTE WindowNumber NUMERIC

@DATA
0.0,1
0.49594218,2
0.53332806,3
0.7431544,4
0.93657124,5
0.8697665,6
0.8454916,7
0.89660066,8
0.990465,9
0.91795236,10
0.7843024,11
0.76270354,12
0.8536085,13
0.8517177,14
0.8866553,15
0.7838779,16
0.749238,17
0.88963825,18
0.7797387,19
0.8848695,20
0.86395025,21
0.84811735,22
0.87381077,23
0.8494754,24
0.8232597,25
0.80567795,26
0.826665,27
0.8696877,28
0.8441732,29
0.92107356,30
0.8082319,31
0.76415515,32
0.82080877,33
0.85731864,34
0.84149694,35
0.8997061,36
0.92670393,37
0.9089758,38
0.90413517,39
0.8426998,40
0.92936534,41
0.8595935,42
0.9545964,43
0.87925774,44
0.9711752,45
1.0060703,46
1.014378,47
1.0218829,48
0.9920343,49
1.0909653,50
1.0447103,51
1.0377369,52
1.1347967,53
0.9095612,54
0.86253214,55
0.8955412,56
0.93433964,57
0.95212936,58
0.9829094,59
1.0414745,60
1.0359615,61
1.2148589,62
1.2053651,63
1.2176086,64
1.2236437,65
1.2857804,66
1.1008922,67
0.8243721,68
0.88331026,69
0.93265724,70
0.95761603,71
0.91218346,72
0.990442,73
1.0393577,74
1.0422789,75
1.0481651,76
0.92978466,77
0.8503263,78
0.9528255,79
0.8209067,80
0.93702424,81
0.8507217,82
0.834791,83
0.83444023,84
0.843092,85
0.7567147,86
0.7880355,87
0.93446326,88
0.83281976,89
0.834531,90
0.8954734,91
0.8508025,92
0.9421495,93
1.1280094,94
1.0438347,95
1.0310317,96
0.96799415,97
0.85678494,98
0.9112673,99
0.88970536,100
0.8977402,101
0.9690416,102
0.9950764,103
0.9575248,104
1.000138,105
0.9801453,106
0.967638,107
1.0177519,108
1.000628,109
1.146021,110
0.9801888,111
1.0105526,112
1.3475127,113
1.1772876,114
1.3455158,115
1.5281177,116
1.5054076,117
1.5421209,118
1.4565177,119
1.3817247,120
1.2318581,121
1.4315677,122
1.0597738,123
1.5028647,124
1.4737206,125
1.6833488,126
1.6723212,127
1.945476,128
1.752447,129
1.8284153,130
1.4731408,131
1.2861491,132
1.2426159,133
1.1809582,134
1.4538734,135
1.8839862,136
2.143112,137
2.4008317,138
2.3930385,139
2.3462276,140
1.2508917,141
1.4170595,142
2.1729758,143
2.4197063,144
2.004809,145
1.5192643,146
1.5570195,147
1.6145984,148
1.5457814,149
1.3174769,150
1.1885523,151
1.384388,152
2.0898042,153
2.6716359,154
2.9171891,155
2.8885093,156
2.9505858,157
2.8449218,158
1.9378887,159
1.0989517,160
2.2011874,161
2.8486886,162
2.7634437,163
2.8935666,164
2.9411798,165
2.8847554,166
2.8750484,167
1.8297706,168
1.2385504,169
1.2306192,170
1.2469258,171
1.5745552,172
2.0260565,173
2.3632374,174
2.6900504,175
2.837342,176
2.5973125,177
1.2577204,178
1.3460997,179
2.6554067,180
2.8915648,181
2.6431293,182
2.2208223,183
2.061965,184
1.8664855,185
1.7355969,186
1.3290398,187
1.2308128,188
1.4072005,189
2.1118066,190
2.8270483,191
3.0067976,192
3.0009682,193
3.0443614,194
3.0104663,195
1.7784865,196
1.1616063,197
2.3708117,198
2.936149,199
2.8261287,200
2.9809313,201
3.004154,202
2.967634,203
2.909008,204
1.7276555,205
1.27923,206
1.2119114,207
1.2611423,208
1.5860691,209
2.131475,210
2.3778515,211
2.6770096,212
2.8418322,213
2.3874137,214
1.2317288,215
1.4771665,216
2.756644,217
2.8263936,218
2.8531337,219
2.996714,220
2.9895368,221
2.9659367,222
2.5713189,223
1.2289885,224
1.2356987,225
1.5222679,226
2.160248,227
2.8341978,228
3.0081031,229
3.0033917,230
3.0492027,231
2.979586,232
1.6427852,233
1.2188979,234
2.4965668,235
2.9385273,236
2.8078053,237
2.9926684,238
2.9915388,239
2.9601243,240
2.9007819,241
1.6897086,242
1.3079573,243
1.2072448,244
1.3367416,245
1.6039976,246
2.186878,247
2.3814902,248
2.6613274,249
2.878892,250
2.3295355,251
1.2355906,252
1.4609672,253
2.7486181,254
2.9018116,255
2.4562633,256
2.3614352,257
1.9603449,258
1.8886594,259
1.7062262,260
1.2174134,261
1.2332879,262
1.5066291,263
2.3040533,264
2.823548,265
2.9763017,266
3.0578299,267
3.04519,268
2.8810604,269
1.5464021,270
1.2761474,271
2.5440917,272
2.9678056,273
2.8313255,274
3.0079975,275
2.9797406,276
2.9898455,277
2.7167718,278
1.4948797,279
1.277277,280
1.2374393,281
1.3057182,282
1.6315593,283
2.1589794,284
2.5129342,285
2.6460848,286
2.9264214,287
2.160547,288
1.1289979,289
1.773027,290
2.9074638,291
2.8853836,292
2.3870358,293
2.366899,294
1.9416392,295
1.7920809,296
2.2892115,297
3.0225332,298
3.0218995,299
3.0159597,300
2.981706,301
2.9575262,302
2.639348,303
2.7292836,304
2.7050598,305
2.5655808,306
2.9400656,307
3.0145857,308
3.021661,309
2.9875512,310
2.9109151,311
3.0031636,312
3.0135376,313
2.9989042,314
2.982148,315
2.886561,316
2.5134416,317
2.5808804,318
2.4466014,319
2.4872549,320
3.004957,321
3.0150058,322
3.0022275,323
2.983449,324
2.9026988,325
3.0229497,326
2.9985294,327
2.984525,328
2.9799783,329
2.7144647,330
2.655741,331
2.5074909,332
2.480682,333
2.550381,334
3.0251,335
3.0047045,336
3.0118365,337
2.9714637,338
2.8851955,339
2.6766808,340
2.691151,341
2.666125,342
2.589393,343
2.998746,344
3.0050182,345
3.0093377,346
2.978522,347
2.9012752,348
3.026189,349
3.011205,350
3.0077808,351
2.9786339,352
2.7633903,353
2.5554316,354
2.5174177,355
2.467275,356
2.4987435,357
3.0123894,358
3.003567,359
3.0151296,360
2.932026,361
2.927176,362
3.0093873,363
3.0191407,364
2.97097,365
2.9563904,366
3.002325,367
3.0205412,368
3.0132842,369
2.9869974,370
2.012707,371
1.177643,372
1.3125938,373
1.6563652,374
2.4257812,375
2.9793234,376
2.9773657,377
3.04905,378
3.0174115,379
2.7415578,380
1.2117995,381
1.426232,382
2.8907847,383
2.93372,384
2.8526373,385
3.002783,386
2.9753318,387
2.952823,388
2.4815414,389
1.3257949,390
1.2736232,391
1.2311827,392
1.3320601,393
1.8916767,394
2.1742713,395
2.4741004,396
2.7923367,397
2.9447768,398
1.8253032,399
1.1391927,400
2.0508962,401
2.884683,402
2.8693604,403
2.2590678,404
2.3476858,405
1.7115958,406
1.8099873,407
1.4810349,408
1.2570325,409
1.3383145,410
1.697679,411
2.4339426,412
2.9789786,413
2.9924834,414
3.0558372,415
3.0266237,416
2.5727894,417
1.2620509,418
1.4199085,419
2.9349766,420
2.8747056,421
2.8598273,422
2.9712574,423
2.9984472,424
2.9496193,425
2.5026634,426
1.29429,427
1.3103619,428
1.2512456,429
1.3825737,430
1.8445492,431
2.2880282,432
2.4660337,433
2.817099,434
2.907046,435
1.5312207,436
1.1413219,437
2.2730613,438
2.8831873,439
2.806296,440
2.3281105,441
2.3089263,442
1.763439,443
1.8786513,444
1.4841131,445
1.1693497,446
1.3928009,447
1.7796605,448
2.4700599,449
3.0021062,450
2.9886935,451
3.0451734,452
3.0397785,453
2.4693725,454
1.1980547,455
1.6692436,456
2.9430647,457
2.926539,458
2.8720024,459
3.0003884,460
2.9781892,461
2.9643853,462
2.3682323,463
1.2222273,464
1.2717738,465
1.2165952,466
1.4063785,467
1.8652492,468
2.3368478,469
2.4862614,470
2.831418,471
2.8708506,472
1.5054243,473
1.2241446,474
2.3154314,475
2.8852482,476
2.761232,477
2.3260202,478
2.2483552,479
1.7712603,480
1.7417709,481
1.4241261,482
1.2653458,483
1.3706557,484
1.7876385,485
2.6087663,486
3.0139196,487
2.992013,488
3.037891,489
3.0434813,490
2.385613,491
1.1149644,492
1.7962713,493
2.97244,494
2.8715227,495
2.8961246,496
2.9899411,497
2.9943666,498
2.9342113,499
2.2729824,500
1.2285415,501
1.275799,502
1.2264751,503
1.4073179,504
1.9636729,505
2.3761783,506
2.5377016,507
2.821756,508
2.845034,509
1.2536967,510
1.4014497,511
2.305912,512
2.9171793,513
2.7666054,514
2.9818578,515
2.988223,516
2.95159,517
2.9055789,518
1.4598309,519
1.1407923,520
1.4435778,521
1.951002,522
2.6505742,523
2.99726,524
3.0032742,525
3.046324,526
3.011487,527
2.1640577,528
1.2006719,529
1.9762441,530
2.9514468,531
2.8733444,532
2.8967316,533
3.0014396,534
2.9603398,535
2.966598,536
2.147329,537
1.2605022,538
1.3046017,539
1.2863134,540
1.4472611,541
1.9830644,542
2.3282807,543
2.6336153,544
2.853479,545
2.8039477,546
1.2809731,547
1.2948599,548
2.4127414,549
2.9017675,550
2.691897,551
2.2938538,552
2.031614,553
1.8362503,554
1.7700237,555
1.4087306,556
1.1741552,557
1.4030371,558
1.9950029,559
2.6983664,560
3.0001945,561
3.0078332,562
3.05549,563
3.0032277,564
2.075495,565
1.0630094,566
2.138644,567
2.942745,568
2.8983426,569
2.9344244,570
3.01123,571
2.9571135,572
2.9687393,573
1.8231702,574
1.2482271,575
1.2984818,576
1.214265,577
1.5245514,578
2.0288968,579
2.3288364,580
2.67911,581
2.8212183,582
2.6227782,583
1.2477614,584
1.3849579,585
2.6615458,586
2.8942413,587
2.6874976,588
2.2783039,589
2.0117388,590
1.8348966,591
1.6701956,592
1.3227286,593
1.2052464,594
1.3810778,595
2.1429784,596
2.7439048,597
3.0112903,598
3.0008676,599
3.0556064,600
3.026391,601
1.9127419,602
1.0931544,603
2.3048148,604
2.9583023,605
2.8249297,606
2.9554217,607
2.990979,608
2.9631488,609
2.9419894,610
1.8367141,611
1.2548434,612
1.2041603,613
1.2479551,614
1.5527867,615
2.035699,616
2.3427746,617
2.687447,618
2.8417041,619
2.5320568,620
1.273718,621
1.309778,622
2.6020246,623
2.8798184,624
2.6260438,625
2.3003693,626
2.0706332,627
1.8396133,628
1.7155426,629
1.2868744,630
1.2782489,631
1.4443165,632
2.1328554,633
2.8200963,634
3.0055935,635
2.9967504,636
3.0404794,637
3.0201538,638
1.6691496,639
1.1722153,640
2.3925173,641
2.9339256,642
2.8409991,643
2.975621,644
3.0103536,645
2.9534125,646
2.9204345,647
1.6521153,648
1.2849921,649
1.206146,650
1.244616,651
1.592069,652
2.156308,653
2.4137146,654
2.706437,655
2.846153,656
2.3514132,657
1.18625,658
1.5563757,659
2.7584171,660
2.8833609,661
2.8683498,662
2.985799,663
2.9879553,664
2.9646742,665
2.4516864,666
1.2514876,667
1.3111539,668
1.4268947,669
2.1586347,670
2.8135304,671
2.9982793,672
3.0268054,673
3.041107,674
2.8355083,675
1.2182213,676
0.98823893,677
1.1374347,678
1.3682896,679
1.7068594,680
2.3799725,681
2.8589284,682
2.9762287,683
2.8370786,684
1.4698873,685
1.2887942,686
1.1864836,687
1.3340077,688
1.6493028,689
2.1147897,690
2.3097482,691
2.4599788,692
2.8317626,693
1.945755,694
1.0885662,695
1.0558332,696
1.2618626,697
1.4933046,698
1.336629,699
1.4111018,700
1.9056386,701
1.8125502,702
1.6436455,703
1.235064,704
1.3251251,705
1.4402434,706
2.1643105,707
2.8553054,708
2.9793754,709
3.040989,710
3.0538752,711
2.7191305,712
1.2499837,713
1.0166668,714
1.104123,715
1.3287057,716
1.7808543,717
2.3613536,718
2.881818,719
3.0044847,720
2.910347,721
1.4374393,722
1.2931794,723
1.2632133,724
1.3170531,725
1.6901747,726
2.1408207,727
2.4042144,728
2.4506822,729
2.8391404,730
1.7172421,731
1.1314713,732
1.0844144,733
1.3135501,734
1.4883974,735
1.3228323,736
1.5117728,737
1.908857,738
1.8227787,739
1.5839492,740
1.2311494,741
1.301577,742
1.5556806,743
2.1444623,744
2.9373775,745
2.9693456,746
3.0431201,747
3.0633988,748
2.495993,749
1.1758697,750
0.9703121,751
1.1515366,752
1.4089649,753
1.7903757,754
2.4682708,755
2.928758,756
2.9732387,757
2.7162113,758
1.4277488,759
1.223399,760
1.2319356,761
1.3738977,762
1.678963,763
2.1170971,764
2.4699883,765
2.471914,766
2.7773676,767
1.623383,768
1.0382158,769
1.0868524,770
1.2696921,771
1.4485819,772
1.3887928,773
1.590097,774
1.8497137,775
1.7781869,776
1.4850904,777
1.2203169,778
1.384164,779
1.570138,780
2.2173862,781
2.9364395,782
2.984975,783
3.0384743,784
3.0261254,785
2.4968684,786
1.1843604,787
1.0229307,788
1.1284877,789
1.5289071,790
1.8175304,791
2.431248,792
2.9859304,793
2.9784718,794
2.6780322,795
1.3283116,796
1.2686355,797
1.2110778,798
1.2786014,799
1.7593349,800
2.1966636,801
2.4432123,802
2.628439,803
2.8067396,804
1.5282413,805
1.0604264,806
1.0920243,807
1.308052,808
1.6091733,809
2.2289193,810
2.610068,811
2.9651477,812
2.8769372,813
1.9420722,814
1.2272354,815
1.3890749,816
1.6370633,817
2.327058,818
2.9117944,819
3.0045867,820
3.0483828,821
3.0291295,822
2.297647,823
1.0806186,824
1.0190827,825
1.1733758,826
1.5423595,827
1.9063663,828
2.461059,829
2.967099,830
2.991862,831
2.6309988,832
1.3233397,833
1.3178042,834
1.206623,835
1.3170502,836
1.910093,837
2.2018588,838
2.3724897,839
2.6068842,840
2.7892492,841
1.2993642,842
1.0043738,843
1.0747269,844
1.3076881,845
1.4716302,846
1.3918918,847
1.6482444,848
1.8393375,849
1.7927945,850
1.4556614,851
1.2424508,852
1.3652784,853
1.6940453,854
2.3694515,855
2.9598768,856
2.9933243,857
3.0644038,858
3.0319493,859
2.1494133,860
1.1366922,861
1.0251472,862
1.3160205,863
1.4693897,864
1.9378815,865
2.5308406,866
2.9796762,867
2.975867,868
2.3246286,869
1.2810181,870
1.281926,871
1.1940846,872
1.3852416,873
1.8836709,874
2.2746253,875
2.454622,876
2.5909085,877
2.7344906,878
1.1929787,879
1.0885714,880
1.129198,881
1.3642317,882
1.500436,883
1.34559,884
1.7092997,885
1.881553,886
1.6484057,887
1.4745305,888
1.2200799,889
1.313703,890
1.8360558,891
2.4098585,892
2.963189,893
2.9824574,894
3.043001,895
3.0428145,896
2.0055964,897
1.0343786,898
1.063031,899
1.277611,900
1.4845161,901
2.0383341,902
2.5399811,903
2.9929266,904
2.9525912,905
2.4088364,906
1.1997014,907
1.2789152,908
1.1625347,909
1.423911,910
1.964424,911
2.1043818,912
2.5699673,913
2.7060356,914
2.6131957,915
1.2145747,916
0.9969247,917
1.1186023,918
1.3477992,919
1.538769,920
1.2739776,921
1.7300354,922
1.7863823,923
1.7040819,924
1.4420274,925
1.2753699,926
1.3171936,927
1.9344159,928
2.4940596,929
2.9450476,930
2.9981732,931
3.038834,932
3.0348828,933
1.7238716,934
1.0592418,935
1.0761756,936
1.2788687,937
1.473361,938
2.154841,939
2.5628307,940
2.984278,941
2.9743145,942
2.1724014,943
1.2482079,944
1.265965,945
1.1978655,946
1.4371809,947
2.0040789,948
2.1311328,949
2.3943172,950
2.8756764,951
2.4472268,952
1.1950886,953
1.0263922,954
1.1119186,955
1.3522532,956
1.7666974,957
2.409052,958
2.8809102,959
2.9634762,960
2.7466605,961
1.4088526,962
1.314947,963
1.2431865,964
2.0492811,965
2.501511,966
2.9376554,967
3.025576,968
3.045915,969
2.9816961,970
1.6749492,971
0.9946953,972
1.1573435,973
1.3215684,974
1.5151223,975
2.2183251,976
2.6291656,977
2.9595869,978
2.9722738,979
1.9066005,980
1.225357,981
1.2610269,982
1.2853599,983
1.4895797,984
1.9571276,985
2.2246578,986
2.3922892,987
2.8396513,988
2.4194846,989
1.1774241,990
0.97205335,991
1.1389383,992
1.491504,993
1.4301261,994
1.3257653,995
1.8953862,996
1.8323451,997
1.543499,998
1.3945012,999
1.2714603,1000
1.3132089,1001
2.1161237,1002
2.5477324,1003
2.9755337,1004
2.9994915,1005
3.0569022,1006
3.0138118,1007
1.5466286,1008
1.0441767,1009
1.1026946,1010
1.3136798,1011
1.5593774,1012
2.210825,1013
2.6909072,1014
2.97455,1015
2.9636478,1016
1.9244478,1017
1.2484163,1018
1.2894173,1019
1.2313894,1020
1.5960661,1021
1.9522271,1022
2.337079,1023
2.5203464,1024
2.7577195,1025
2.2903306,1026
1.1472006,1027
1.0480086,1028
1.1892717,1029
1.604335,1030
1.3542233,1031
1.3193619,1032
1.9055758,1033
1.898618,1034
1.6316948,1035
1.3466678,1036
1.2410537,1037
1.3017762,1038
2.131764,1039
2.7024922,1040
2.9731593,1041
3.0059264,1042
3.0478292,1043
2.978864,1044
1.3253293,1045
1.0027189,1046
1.0991601,1047
1.3368347,1048
1.6499708,1049
2.2646163,1050
2.7584255,1051
2.985283,1052
2.9913862,1053
1.6759908,1054
1.2859577,1055
1.1928773,1056
1.2949783,1057
1.5738229,1058
2.0037804,1059
2.2662132,1060
2.5331547,1061
2.7243636,1062
2.1674469,1063
1.0619907,1064
1.0135573,1065
1.2409346,1066
1.461755,1067
1.3571608,1068
1.2869909,1069
1.9170817,1070
1.828568,1071
1.5754263,1072
1.3053482,1073
1.3177111,1074
1.3673666,1075
2.1509495,1076
2.7205975,1077
2.9843674,1078
3.018209,1079
3.0414562,1080
2.99339,1081
1.3026809,1082
1.0229383,1083
1.091397,1084
1.2896063,1085
1.6707172,1086
2.4013717,1087
2.7857985,1088
2.9587507,1089
2.9582944,1090
1.5988115,1091
1.2807115,1092
1.186458,1093
1.2383057,1094
1.5927545,1095
2.0825803,1096
2.3257642,1097
2.589208,1098
2.7860806,1099
2.0377564,1100
1.1369792,1101
1.0716759,1102
1.3157854,1103
1.490758,1104
1.9428686,1105
2.470326,1106
2.973966,1107
2.9626896,1108
2.3904457,1109
1.2551875,1110
1.303835,1111
1.4288936,1112
2.1724424,1113
2.769318,1114
2.9998243,1115
3.0563,1116
3.0317488,1117
2.787453,1118
1.2379211,1119
1.0045727,1120
1.1418456,1121
1.3370222,1122
1.7203097,1123
2.3838344,1124
2.8560417,1125
3.0018244,1126
2.94962,1127
1.5520873,1128
1.3165407,1129
1.1666538,1130
1.319394,1131
1.6772976,1132
2.1387343,1133
2.3124106,1134
2.47371,1135
2.8344889,1136
1.785613,1137
1.0501837,1138
1.0543046,1139
1.2612228,1140
1.5133443,1141
1.3070045,1142
1.4221106,1143
1.9077895,1144
1.7882193,1145
1.6348176,1146
1.2476559,1147
1.3275431,1148
1.4286907,1149
2.1523364,1150
2.8942642,1151
2.980697,1152
3.0431888,1153
3.0704927,1154
2.6542714,1155
1.2389648,1156
0.99838334,1157
1.17129,1158
1.3502584,1159
1.8124999,1160
2.366189,1161
2.892621,1162
2.9863586,1163
2.677873,1164
1.4615892,1165
1.2777497,1166
1.1939878,1167
1.3308201,1168
1.6481789,1169
2.1580703,1170
2.4017565,1171
2.4533622,1172
2.8101554,1173
1.6749885,1174
1.0889766,1175
1.1071109,1176
1.3301233,1177
1.5140237,1178
1.2747549,1179
1.4791324,1180
1.8615059,1181
1.8132246,1182
1.5755084,1183
1.2430681,1184
1.2867342,1185
1.534099,1186
1.6935066,1187
1.78932,1188
1.3666219,1189
1.2776012,1190
1.1755819,1191
1.0436283,1192
1.0581528,1193
0.9358956,1194
0.9424723,1195
0.94699657,1196
0.7902839,1197
0.85761696,1198
0.9366847,1199
0.8038885,1200
0.8611517,1201
1.2782286,1202
1.1004701,1203
0.9061083,1204
0.97952294,1205
0.9155017,1206
0.81202745,1207
0.84697926,1208
0.83664954,1209
0.8334605,1210
0.9440143,1211
0.87359595,1212
0.80085737,1213
0.80693257,1214
0.87942004,1215
0.8354148,1216
0.86586833,1217
0.911935,1218
0.9125289,1219
0.9766135,1220
0.80781746,1221
0.859268,1222
0.87738913,1223
0.9242551,1224
0.8862067,1225
0.9366229,1226
0.9916986,1227
1.0738328,1228
1.0464954,1229
1.0757586,1230
1.0910757,1231
1.074939,1232
1.0302796,1233
1.1500208,1234
0.9605355,1235
0.8191602,1236
0.8870229,1237
1.0648338,1238
1.1289153,1239
1.0895008,1240
1.0781488,1241
1.0839119,1242
1.0446473,1243
1.234708,1244
1.134635,1245
1.2145945,1246
1.2770153,1247
1.19267,1248
0.8753729,1249
0.91312116,1250
0.9042243,1251
0.9667478,1252
0.9725427,1253
0.9851615,1254
1.0212562,1255
1.0478148,1256
1.1133803,1257
0.9845123,1258
0.803535,1259
0.9673228,1260
0.84625006,1261
0.92442715,1262
0.8997335,1263
0.8073034,1264
0.81593555,1265
0.854363,1266
0.82636726,1267
0.89531535,1268
0.83296674,1269
0.8907997,1270
0.912861,1271
0.8778093,1272
0.8786694,1273
0.8760204,1274
1.013216,1275
1.1418163,1276
1.056651,1277
0.9428606,1278
0.8753795,1279
0.8932914,1280
0.87455595,1281
0.91055435,1282
0.9445566,1283
0.9894744,1284
0.89857477,1285
0.8735151,1286
0.84707177,1287
0.9944802,1288
1.0552082,1289
0.9995663,1290
1.0123286,1291
1.0558039,1292
1.0245306,1293
1.314997,1294
1.0618812,1295
1.3432757,1296
1.3339623,1297
1.4217907,1298
1.4841516,1299
1.3728516,1300
1.4189203,1301
1.269157,1302
1.1055546,1303
0.9217118,1304
0.9288568,1305
0.97290486,1306
1.002056,1307
0.97694916,1308
1.0808357,1309
1.249581,1310
1.2125632,1311
1.4675148,1312
1.2212877,1313
1.2163297,1314
1.0881628,1315
1.3511419,1316
1.7245221,1317
1.7796694,1318
1.8334409,1319
2.09299,1320
2.0246594,1321
0.9308185,1322
0.9321369,1323
0.8873822,1324
1.0200943,1325
0.9048699,1326
0.89518493,1327
1.0833256,1328
1.0749022,1329
0.9905139,1330
1.3275012,1331
1.1473861,1332
1.276895,1333
1.6252812,1334
1.8714687,1335
1.9157118,1336
1.8075476,1337
2.064072,1338
2.093831,1339
1.301886,1340
0.955765,1341
0.8974372,1342
0.9541715,1343
1.0175322,1344
1.0435376,1345
1.1049854,1346
1.2869889,1347
1.2458783,1348
1.4549079,1349
1.2334356,1350
1.2011579,1351
1.1273073,1352
1.4044867,1353
1.8056766,1354
1.705774,1355
2.0262003,1356
2.0874119,1357
1.9527152,1358
0.9008519,1359
0.91294557,1360
0.9610656,1361
1.0441592,1362
0.9800214,1363
0.92687094,1364
1.0810639,1365
1.1518425,1366
1.0710294,1367
1.3678383,1368
1.1259619,1369
1.3384367,1370
1.6696113,1371
1.9906441,1372
1.8777537,1373
1.866598,1374
2.0176122,1375
2.0153759,1376
1.2915704,1377
0.91194564,1378
0.9159683,1379
1.0397452,1380
1.0221769,1381
0.9964142,1382
1.1248016,1383
1.2152891,1384
1.2292432,1385
1.4753603,1386
1.182211,1387
1.2447613,1388
1.1299025,1389
1.3564003,1390
1.8142459,1391
1.7239395,1392
2.0192456,1393
2.1639454,1394
1.8322995,1395
0.95191395,1396
0.8931342,1397
0.97756696,1398
0.99870473,1399
0.9829823,1400
1.05932,1401
1.25642,1402
1.2735263,1403
1.2636127,1404
1.3501182,1405
1.1235551,1406
1.2774894,1407
1.7872267,1408
1.8521202,1409
1.7511007,1410
1.8190447,1411
2.0137506,1412
1.7312076,1413
1.152948,1414
0.9204661,1415
0.9161775,1416
1.0165051,1417
1.0175728,1418
0.9960399,1419
1.2763609,1420
1.1927974,1421
1.2233641,1422
1.3896518,1423
1.1440947,1424
1.1933036,1425
1.2011707,1426
1.4377176,1427
1.1979011,1428
1.1499834,1429
1.5055126,1430
1.7344431,1431
1.5594862,1432
0.9095035,1433
0.8721696,1434
0.9779662,1435
1.0649842,1436
0.9858571,1437
0.99536616,1438
1.1557571,1439
1.1349889,1440
1.2920247,1441
1.242865,1442
1.1997405,1443
1.2397734,1444
1.842896,1445
1.8782462,1446
1.8375401,1447
1.8183774,1448
2.0491376,1449
1.9672104,1450
1.0310498,1451
0.9314018,1452
0.90795994,1453
1.0607313,1454
1.0895935,1455
1.1032976,1456
1.2376598,1457
1.2807912,1458
1.3573502,1459
1.4604592,1460
1.255977,1461
1.2546757,1462
1.2298229,1463
1.6074781,1464
1.7793851,1465
1.7202123,1466
2.049987,1467
1.9309533,1468
1.6297677,1469
0.90136075,1470
0.8917647,1471
0.99853426,1472
1.0989832,1473
1.1000113,1474
1.2581148,1475
1.409877,1476
1.46675,1477
1.4863279,1478
1.211206,1479
1.2043358,1480
1.3300236,1481
1.73965,1482
1.9201,1483
1.7376578,1484
1.8283466,1485
2.0201354,1486
1.9305222,1487
0.98991615,1488
0.9535358,1489
0.8893132,1490
1.1013203,1491
1.03168,1492
1.2110043,1493
1.4144512,1494
1.4838451,1495
1.484679,1496
1.4726615,1497
1.2965201,1498
1.1685187,1499
1.2334315,1500
1.477879,1501
1.2302753,1502
1.3277872,1503
1.5377626,1504
1.7827156,1505
1.3112864,1506
0.93269575,1507
0.93275076,1508
1.0218742,1509
1.0117164,1510
1.0294178,1511
1.0610727,1512
1.2188684,1513
1.25298,1514
1.3236005,1515
1.2482083,1516
1.2173796,1517
1.3912619,1518
1.7591133,1519
1.877313,1520
1.5802697,1521
1.7709135,1522
1.7547534,1523
1.6707844,1524
0.91389745,1525
0.93672884,1526
0.888958,1527
1.0639849,1528
1.0268304,1529
1.0652875,1530
1.3196371,1531
1.3774544,1532
1.3050294,1533
1.3670869,1534
1.2649815,1535
1.1444522,1536
1.3050895,1537
1.3125733,1538
0.91915894,1539
0.90261686,1540
0.9865027,1541
1.1197877,1542
1.1771798,1543
1.1107544,1544
1.2435384,1545
1.2513435,1546
1.3480545,1547
0.95869523,1548
0.9804938,1549
1.0432031,1550
1.250828,1551
1.415679,1552
1.1347871,1553
1.2144302,1554
1.4345202,1555
1.881992,1556
1.6929225,1557
1.6180394,1558
1.7857819,1559
1.7453228,1560
1.4928129,1561
0.9473412,1562
0.9213791,1563
0.98495,1564
1.0945551,1565
1.0629689,1566
1.2096334,1567
1.2975334,1568
1.422143,1569
1.2831451,1570
1.4215448,1571
1.1778463,1572
1.1783322,1573
1.335561,1574
1.495462,1575
1.1956128,1576
1.2361785,1577
1.507801,1578
1.7891586,1579
1.1938591,1580
0.95446086,1581
0.889862,1582
1.0173209,1583
1.0166962,1584
1.0470598,1585
1.1438482,1586
1.1915408,1587
1.2923692,1588
1.4353402,1589
1.1416,1590
1.2835143,1591
1.4842609,1592
1.7976619,1593
1.7447124,1594
1.5747901,1595
1.717168,1596
1.8659915,1597
1.6054223,1598
0.96981615,1599
0.9128241,1600
0.9973697,1601
1.161356,1602
1.1872883,1603
1.3329247,1604
1.4613627,1605
1.572014,1606
1.4598522,1607
1.4100823,1608
1.1937759,1609
1.2033402,1610
1.3568732,1611
1.5897985,1612
1.7288588,1613
1.8125335,1614
1.7382772,1615
1.898237,1616
1.1862801,1617
0.9647249,1618
0.94402117,1619
1.0488929,1620
1.1467258,1621
1.1146797,1622
1.3137454,1623
1.4757755,1624
1.5266956,1625
1.5331464,1626
1.1779087,1627
1.2777386,1628
1.6252486,1629
1.8013774,1630
1.7788484,1631
1.6187156,1632
1.7912195,1633
1.8692772,1634
1.6037749,1635
0.91497535,1636
0.9338749,1637
1.0161654,1638
1.0635175,1639
1.167708,1640
1.2481674,1641
1.3588006,1642
1.468572,1643
1.4963883,1644
1.3634651,1645
1.2681558,1646
1.2168825,1647
1.3769102,1648
1.7043905,1649
1.6780813,1650
1.6224126,1651
1.7857798,1652
1.8416779,1653
1.1143732,1654
0.97084624,1655
0.96100557,1656
1.0997694,1657
1.0627959,1658
1.0324543,1659
1.1978581,1660
1.2221788,1661
1.1738676,1662
1.4329492,1663
1.1978278,1664
1.2904104,1665
1.537531,1666
1.8217438,1667
1.681958,1668
1.5705699,1669
1.7024839,1670
1.7062755,1671
1.3766164,1672
0.9616668,1673
0.9464935,1674
1.0477474,1675
1.0117308,1676
1.1123261,1677
1.2405357,1678
1.3689636,1679
1.4082165,1680
1.4881327,1681
1.325472,1682
1.1164008,1683
1.1877542,1684
1.3508496,1685
1.710423,1686
1.5981063,1687
1.6205916,1688
1.8192389,1689
1.7369812,1690
1.0017457,1691
1.02105,1692
1.004485,1693
1.0498621,1694
1.046217,1695
1.1344024,1696
1.2937989,1697
1.3229624,1698
1.2401026,1699
1.483226,1700
1.1946278,1701
1.2821205,1702
1.5901114,1703
1.8132372,1704
1.6627333,1705
1.5762728,1706
1.7339637,1707
1.4850341,1708
1.2812389,1709
0.94479644,1710
1.0075793,1711
1.0005524,1712
1.0817655,1713
1.1918094,1714
1.2427753,1715
1.3801972,1716
1.2890844,1717
1.5029937,1718
1.2591517,1719
1.152525,1720
1.2303537,1721
1.2927284,1722
1.3568444,1723
1.1777391,1724
1.3731894,1725
1.6379241,1726
1.8148073,1727
0.9289209,1728
0.9386509,1729
0.9684147,1730
1.0696275,1731
1.1099814,1732
1.1118281,1733
1.2775635,1734
1.3433558,1735
1.2472718,1736
1.3814396,1737
1.1605188,1738
1.3176382,1739
1.5008029,1740
1.8141817,1741
1.8441085,1742
1.6712155,1743
1.8605758,1744
1.846245,1745
1.3483068,1746
0.9393941,1747
1.0494677,1748
1.1352458,1749
1.1541425,1750
1.3208255,1751
1.4894202,1752
1.6071701,1753
1.5944757,1754
1.6353583,1755
1.23098,1756
1.3041273,1757
1.2364588,1758
1.4803183,1759
1.7604302,1760
1.6419688,1761
1.8746208,1762
1.9329083,1763
1.8470265,1764
1.0210112,1765
1.015696,1766
1.1821365,1767
1.2873538,1768
1.1802728,1769
1.1788523,1770
1.216754,1771
1.4350662,1772
1.3445185,1773
1.3661244,1774
1.2740657,1775
1.3759422,1776
1.521541,1777
1.8806165,1778
1.6462129,1779
1.7252686,1780
1.8594681,1781
1.9265103,1782
1.2339159,1783
0.9888314,1784
0.9018284,1785
1.0923362,1786
1.0571868,1787
1.1396441,1788
1.2266563,1789
1.4139671,1790
1.3830614,1791
1.5134803,1792
1.2744983,1793
1.2372149,1794
1.2064977,1795
1.3964946,1796
1.3116026,1797
1.1867636,1798
1.4292214,1799
1.4757603,1800
1.5767825,1801
0.9644425,1802
0.9340806,1803
0.9898862,1804
1.0507417,1805
1.0545117,1806
1.1124547,1807
1.3288571,1808
1.3961756,1809
1.2874974,1810
1.3245124,1811
1.1813525,1812
1.4315611,1813
1.634779,1814
1.722388,1815
1.6734055,1816
1.6637106,1817
1.797651,1818
1.5885272,1819
1.1745809,1820
0.98812264,1821
0.9518725,1822
1.016921,1823
1.049067,1824
1.1365007,1825
1.2713411,1826
1.4174298,1827
1.356238,1828
1.6015111,1829
1.2653497,1830
1.2365413,1831
1.2415997,1832
1.4179844,1833
1.0351859,1834
0.8969674,1835
0.9495917,1836
1.0739571,1837
1.1895095,1838
1.1885184,1839
1.1919557,1840
1.3197614,1841
1.2568196,1842
1.0742644,1843
0.9453573,1844
1.0370241,1845
1.1361341,1846
1.2783322,1847
1.3499105,1848
1.2592149,1849
1.3209637,1850
1.697783,1851
1.746028,1852
1.7236718,1853
1.7690238,1854
1.9499954,1855
1.8199531,1856
1.069342,1857
0.9933067,1858
0.9679851,1859
1.0433131,1860
1.1248919,1861
1.1615027,1862
1.189736,1863
1.3579401,1864
1.4066026,1865
1.4078305,1866
1.1732162,1867
1.1780609,1868
1.2300434,1869
1.5067426,1870
1.3635288,1871
1.2420328,1872
1.4998243,1873
1.6394107,1874
1.4510368,1875
0.94275385,1876
0.90900564,1877
1.0068129,1878
1.1190858,1879
1.0700974,1880
1.2254584,1881
1.271355,1882
1.3973002,1883
1.4021691,1884
1.2648108,1885
1.166737,1886
1.4214617,1887
1.7137089,1888
1.8831617,1889
1.5309327,1890
1.5850629,1891
1.7439156,1892
1.7054363,1893
1.0558983,1894
0.98207873,1895
1.0063032,1896
1.1465741,1897
1.1122466,1898
1.212669,1899
1.399144,1900
1.5500149,1901
1.5217477,1902
1.5583805,1903
1.1997918,1904
1.1637236,1905
1.2080243,1906
1.6096126,1907
1.6098665,1908
1.6967555,1909
1.7072414,1910
1.8603383,1911
1.4213935,1912
0.9865347,1913
0.9669422,1914
1.0238711,1915
1.1292859,1916
1.0773531,1917
1.2661624,1918
1.3881773,1919
1.4604204,1920
1.5644261,1921
1.2362792,1922
1.2139713,1923
1.442649,1924
1.6939788,1925
1.8669603,1926
1.527087,1927
1.6511351,1928
1.7753912,1929
1.6641955,1930
0.9016019,1931
1.0066564,1932
0.9899897,1933
1.0886544,1934
1.0561377,1935
1.1114535,1936
1.3414406,1937
1.3353832,1938
1.4003792,1939
1.4329499,1940
1.2716742,1941
1.1176581,1942
1.2716833,1943
1.5457025,1944
1.659497,1945
1.5235922,1946
1.7614472,1947
1.7812498,1948
1.3716826,1949
1.0221595,1950
0.94732386,1951
1.0444356,1952
1.0651753,1953
1.0456955,1954
1.1788421,1955
1.2859141,1956
1.2980294,1957
1.5098516,1958
1.1604422,1959
1.1696928,1960
1.4083151,1961
1.749215,1962
1.8136396,1963
1.6499643,1964
1.7426114,1965
1.7788168,1966
1.6125736,1967
1.0094633,1968
0.97390085,1969
0.9944408,1970
1.0878769,1971
1.0192412,1972
1.1355282,1973
1.4239252,1974
1.4014097,1975
1.344467,1976
1.4997324,1977
1.263479,1978
1.1745336,1979
1.3364133,1980
1.5072429,1981
1.6164943,1982
1.6174438,1983
1.6598467,1984
1.7818494,1985
1.345968,1986
0.9895921,1987
0.9821759,1988
0.9740765,1989
1.0516671,1990
1.0086423,1991
1.2494186,1992
1.3949952,1993
1.2948532,1994
1.5254644,1995
1.1374292,1996
1.2435689,1997
1.4072936,1998
1.7307996,1999
1.6607019,2000
1.7919264,2001
1.9259002,2002
1.8652192,2003
1.679248,2004
0.8912732,2005
0.9397774,2006
0.9998417,2007
1.1548011,2008
1.1175721,2009
1.142278,2010
1.3426756,2011
1.4608253,2012
1.4446908,2013
1.4066172,2014
1.144968,2015
1.1235876,2016
1.3705872,2017
1.5515622,2018
1.3085876,2019
1.3963369,2020
1.5408065,2021
1.8259271,2022
1.1899107,2023
0.9637684,2024
0.926884,2025
1.0673863,2026
1.0905715,2027
1.1578184,2028
1.1612225,2029
1.3971523,2030
1.5429384,2031
1.6015613,2032
1.1081556,2033
1.2545047,2034
1.5119439,2035
1.7460061,2036
1.7994026,2037
1.7171997,2038
1.8085169,2039
2.0181828,2040
1.7640624,2041
0.93743443,2042
0.9858975,2043
1.0124277,2044
1.0825794,2045
1.2375084,2046
1.2360412,2047
1.4985567,2048
1.485982,2049
1.5606055,2050
1.4103352,2051
1.3107206,2052
1.2552065,2053
1.4629395,2054
1.6810447,2055
1.7309095,2056
1.8939775,2057
1.9735893,2058
2.0531535,2059
1.1312276,2060
0.95036227,2061
0.98840964,2062
1.1164373,2063
1.1269615,2064
1.1792169,2065
1.3381919,2066
1.4220992,2067
1.4731909,2068
1.558121,2069
1.1624855,2070
1.3013793,2071
1.5322173,2072
1.7700281,2073
1.7639643,2074
1.7171158,2075
1.8739165,2076
2.0554368,2077
1.5656434,2078
0.96011907,2079
0.88948697,2080
1.0397817,2081
1.0743586,2082
1.0118668,2083
1.1167685,2084
1.3436776,2085
1.374437,2086
1.4268305,2087
1.3322937,2088
1.2419757,2089
1.1943076,2090
1.3342568,2091
1.4611485,2092
1.2030764,2093
1.4422417,2094
1.7871215,2095
1.8097199,2096
0.9848717,2097
0.98631346,2098
0.97186303,2099
1.0410507,2100
1.0380632,2101
1.0423462,2102
1.1387789,2103
1.3264126,2104
1.364554,2105
1.4544417,2106
1.1570714,2107
1.4200311,2108
1.500617,2109
1.7803236,2110
1.7522837,2111
1.6956846,2112
1.8247452,2113
1.7857691,2114
1.4708179,2115
0.9194475,2116
0.9415439,2117
0.98699015,2118
1.0247588,2119
1.0575342,2120
1.2238568,2121
1.4358641,2122
1.4150178,2123
1.5223945,2124
1.2880594,2125
1.2559623,2126
1.200425,2127
1.2625389,2128
1.1362482,2129
0.8988012,2130
0.9102123,2131
0.9950579,2132
1.1483923,2133
1.2195178,2134
1.2364684,2135
1.2583588,2136
1.4345629,2137
1.2586974,2138
0.9570295,2139
1.0092032,2140
1.1685586,2141
1.2446194,2142
1.3772371,2143
1.1216362,2144
1.34503,2145
1.5347967,2146
1.7957178,2147
1.81388,2148
1.8494229,2149
1.9614087,2150
1.9290776,2151
1.3624766,2152
0.9491176,2153
0.95336425,2154
1.0673951,2155
1.1319737,2156
1.0960902,2157
1.2622725,2158
1.473272,2159
1.5844623,2160
1.6350468,2161
1.2667799,2162
1.227135,2163
1.2133212,2164
1.4199041,2165
1.4831393,2166
1.3079877,2167
1.5043005,2168
1.6654503,2169
1.7006234,2170
0.89195263,2171
1.0031642,2172
0.99805546,2173
1.1045569,2174
1.1103177,2175
1.128432,2176
1.3251815,2177
1.5143038,2178
1.4050089,2179
1.4710168,2180
1.1396024,2181
1.3678789,2182
1.7148336,2183
1.841452,2184
1.7539374,2185
1.6698204,2186
1.8601655,2187
1.8451434,2188
1.2772287,2189
1.0338917,2190
0.9557509,2191
1.0297672,2192
1.1060714,2193
1.0647738,2194
1.1866242,2195
1.3478038,2196
1.4839387,2197
1.6487556,2198
1.2260363,2199
1.2558806,2200
1.157796,2201
1.3798525,2202
1.7479676,2203
1.4715654,2204
1.7460322,2205
1.9356064,2206
1.6183579,2207
0.9511269,2208
0.99854684,2209
1.000402,2210
1.1375997,2211
1.0899738,2212
1.1120037,2213
1.2523756,2214
1.3613305,2215
1.2931485,2216
1.372841,2217
1.1458567,2218
1.3289939,2219
1.7253882,2220
1.8903284,2221
1.5665662,2222
1.6201667,2223
1.8427527,2224
1.7920504,2225
1.140725,2226
0.9940798,2227
0.953051,2228
1.0351957,2229
1.0009818,2230
1.0571322,2231
1.2960721,2232
1.3611755,2233
1.3158517,2234
1.5098501,2235
1.2333786,2236
1.150188,2237
1.2516876,2238
1.4171542,2239
1.7197969,2240
1.5428944,2241
1.6303655,2242
1.8256238,2243
1.5814309,2244
0.9359888,2245
0.98347414,2246
0.9818851,2247
0.99503505,2248
0.9986773,2249
1.096616,2250
1.2172965,2251
1.1595972,2252
1.1860768,2253
1.3788397,2254
1.1796932,2255
1.3018045,2256
1.7320123,2257
1.8059149,2258
1.7001041,2259
1.7650696,2260
1.8278549,2261
1.8207543,2262
1.1569258,2263
0.90422595,2264
0.98321474,2265
1.0515629,2266
1.0230181,2267
1.1029474,2268
1.2075126,2269
1.3164152,2270
1.2885064,2271
1.5347661,2272
1.2536559,2273
1.1218388,2274
1.2360499,2275
1.4161499,2276
1.6087271,2277
1.5676532,2278
1.7759178,2279
1.9131647,2280
1.5081316,2281
0.97649187,2282
0.9607373,2283
1.0274513,2284
1.0191833,2285
1.0792065,2286
1.2454331,2287
1.3704704,2288
1.3505824,2289
1.4006472,2290
1.3160334,2291
1.1680806,2292
1.3540865,2293
1.852198,2294
1.8918635,2295
1.7154728,2296
1.7202682,2297
1.8677768,2298
1.7381167,2299
1.0704219,2300
0.95709604,2301
0.93535876,2302
1.0718025,2303
1.0815039,2304
1.2359806,2305
1.377805,2306
1.5324337,2307
1.5090598,2308
1.5206435,2309
1.2353568,2310
1.1485028,2311
1.2214843,2312
1.5454681,2313
1.2161818,2314
1.3591945,2315
1.5932415,2316
1.7326763,2317
1.4892436,2318
0.94083685,2319
0.95003915,2320
1.0585719,2321
1.1040889,2322
1.1164708,2323
1.1787124,2324
1.3718728,2325
1.5613728,2326
1.4034134,2327
1.2627273,2328
1.2236807,2329
1.3969666,2330
1.6917688,2331
1.8897722,2332
1.6656615,2333
1.8734053,2334
2.1169727,2335
1.9428684,2336
0.97528607,2337
0.9450062,2338
0.9506061,2339
1.1550968,2340
1.127399,2341
1.3947587,2342
1.3888173,2343
1.4261341,2344
1.5727637,2345
1.4989253,2346
1.3242434,2347
1.1541088,2348
1.2403388,2349
1.6010786,2350
1.520503,2351
1.6338165,2352
1.7751328,2353
2.091217,2354
1.5339863,2355
0.950162,2356
0.99059844,2357
1.064208,2358
1.1434431,2359
1.0925775,2360
1.1281135,2361
1.216574,2362
1.2080774,2363
1.4145545,2364
1.239396,2365
1.1593192,2366
1.5223278,2367
1.6737528,2368
1.6659805,2369
1.4544088,2370
1.5189271,2371
1.3864467,2372
1.0948557,2373
0.86832356,2374
0.9549768,2375
0.9258454,2376
1.0406405,2377
0.93009335,2378
0.9525409,2379
0.9687381,2380
0.993106,2381
0.8523932,2382
1.2785515,2383
1.1281812,2384
1.0289617,2385
0.9479232,2386
0.95973694,2387
0.8733949,2388
0.86226976,2389
0.82964253,2390
0.8606846,2391
0.9147626,2392
0.9412473,2393
0.89019483,2394
0.8791489,2395
0.79898936,2396
0.8317596,2397
0.9601071,2398
0.9384967,2399
0.9107665,2400
1.0114619,2401
0.8033488,2402
0.82121474,2403
0.8985118,2404
0.895929,2405
1.0198737,2406
0.96058506,2407
1.0487584,2408
1.0260577,2409
0.99902725,2410
0.95868677,2411
0.94679636,2412
0.99207515,2413
1.0440979,2414
1.1217521,2415
1.0258062,2416
0.8609214,2417
0.8771938,2418
0.9116386,2419
1.202885,2420
1.0946543,2421
1.0473052,2422
1.1316673,2423
1.0424668,2424
0.8970318,2425
0.91549164,2426
1.0435154,2427
1.2253536,2428
1.1632173,2429
1.0300727,2430
0.9998565,2431
0.95150405,2432
0.92451984,2433
0.97235507,2434
0.9971842,2435
1.056706,2436
1.1069752,2437
1.01692,2438
0.8332997,2439
0.8094527,2440
0.8983621,2441
0.89427817,2442
0.9226712,2443
0.91702545,2444
0.8307147,2445
0.8907939,2446
0.8362361,2447
0.96392035,2448
0.932146,2449
0.87059075,2450
0.9251529,2451
0.94568247,2452
0.9752206,2453
0.9430347,2454
0.90309066,2455
0.90311396,2456
1.0524436,2457
0.85016483,2458
0.97790974,2459
0.8622658,2460
0.7918891,2461
0.90872216,2462
0.9679225,2463
0.9637128,2464
0.96071726,2465
0.90338314,2466
1.0220014,2467
0.9890089,2468
0.99360913,2469
1.0684179,2470
1.1118827,2471
1.1371436,2472
1.1571164,2473
1.1837867,2474
1.1655433,2475
0.8005907,2476
0.8111651,2477
0.81669605,2478
0.8398403,2479
0.9318876,2480
0.9694956,2481
0.9724184,2482
0.9723978,2483
1.0098743,2484
0.97566134,2485
0.90657824,2486
1.0171449,2487
1.0957528,2488
1.091294,2489
1.261328,2490
1.2981418,2491
1.3849342,2492
1.3066311,2493
0.94607246,2494
0.90300447,2495
0.79631037,2496
0.820624,2497
0.8549681,2498
0.9950423,2499
0.9780175,2500
0.9467361,2501
0.98671186,2502
0.9461242,2503
0.95662606,2504
0.97225803,2505
1.058814,2506
1.1633699,2507
1.1444849,2508
1.1239853,2509
1.2139907,2510
1.1819775,2511
1.1521827,2512
0.80320716,2513
0.74633586,2514
0.79038787,2515
0.8047584,2516
0.88783234,2517
1.0451739,2518
0.8739847,2519
0.9171515,2520
0.9569324,2521
0.9316845,2522
0.9386596,2523
1.0483453,2524
1.0153782,2525
1.0430009,2526
1.2261851,2527
1.316839,2528
1.4158098,2529
1.4500767,2530
0.9448017,2531
0.83794355,2532
0.8220204,2533
0.84332573,2534
0.941729,2535
0.993424,2536
1.0481154,2537
0.9686877,2538
1.0872433,2539
0.95979357,2540
0.9942112,2541
0.9313132,2542
1.1454407,2543
1.0550977,2544
1.0311307,2545
1.2603977,2546
1.2747879,2547
1.2840452,2548
1.0470651,2549
0.83323985,2550
0.7180253,2551
0.8039334,2552
0.8588657,2553
0.8619389,2554
1.0090547,2555
0.94193834,2556
0.9621992,2557
0.9629365,2558
0.94742537,2559
0.9953347,2560
1.0568271,2561
1.1464635,2562
1.1177609,2563
1.2174821,2564
1.392276,2565
1.5047204,2566
1.4578698,2567
0.8359959,2568
0.9208767,2569
0.8325969,2570
0.8165622,2571
0.9311066,2572
1.1628848,2573
1.189226,2574
1.1163375,2575
1.1056774,2576
0.8907306,2577
1.0226365,2578
1.0008472,2579
1.0974251,2580
1.1595491,2581
1.2178587,2582
1.4569973,2583
1.5703459,2584
1.6085329,2585
1.1777098,2586
0.7824881,2587
0.8110084,2588
0.81087685,2589
0.8472584,2590
1.030345,2591
1.1018821,2592
1.0667164,2593
1.0800911,2594
0.9462587,2595
0.96925056,2596
0.9839039,2597
1.0367161,2598
1.1287389,2599
1.3064299,2600
1.4221711,2601
1.609278,2602
1.505044,2603
1.4547309,2604
0.89318043,2605
0.82254004,2606
0.8378378,2607
0.834697,2608
0.99863726,2609
0.9442043,2610
1.089827,2611
1.1488625,2612
1.0957236,2613
0.9155442,2614
0.92279625,2615
0.98023194,2616
1.1421854,2617
1.0724945,2618
1.1086053,2619
1.254802,2620
1.3562655,2621
1.2368261,2622
1.0293663,2623
0.81458807,2624
0.72777635,2625
0.8302266,2626
0.91767097,2627
0.94416434,2628
0.9883414,2629
0.9996765,2630
1.0554574,2631
0.9704268,2632
0.97858363,2633
0.93471974,2634
1.074322,2635
1.1082779,2636
1.1621433,2637
1.1786869,2638
1.363716,2639
1.3814094,2640
1.3812938,2641
0.88926965,2642
0.86058545,2643
0.81790376,2644
0.8057983,2645
0.9701693,2646
0.9901389,2647
0.9158608,2648
1.0708437,2649
1.0334828,2650
0.91073614,2651
0.96705824,2652
0.9590106,2653
1.09873,2654
1.109177,2655
1.0671059,2656
1.3154696,2657
1.273744,2658
1.2274901,2659
1.0068986,2660
0.8133672,2661
0.8520958,2662
0.8243995,2663
0.8225257,2664
0.9064036,2665
0.9617572,2666
0.98977715,2667
0.99769324,2668
1.0009909,2669
0.96893525,2670
0.9618783,2671
1.0628426,2672
1.0470479,2673
1.1611248,2674
1.2730672,2675
1.342565,2676
1.3613669,2677
1.2717215,2678
0.873618,2679
0.80399245,2680
0.8050074,2681
0.8595788,2682
0.9366196,2683
1.0452605,2684
0.97740877,2685
1.1647569,2686
1.0627934,2687
0.9832819,2688
0.94883466,2689
1.0378402,2690
1.0214158,2691
1.0987679,2692
1.1303514,2693
1.2506397,2694
1.3683532,2695
1.3206238,2696
1.0404823,2697
0.8114823,2698
0.7628095,2699
0.8341756,2700
0.85594845,2701
1.0647645,2702
1.1125984,2703
1.027628,2704
0.8974895,2705
0.93596655,2706
0.9537407,2707
0.92737174,2708
1.0424523,2709
1.0158073,2710
1.2490665,2711
1.4363991,2712
1.467973,2713
1.5604656,2714
1.3991038,2715
0.8265338,2716
0.83879,2717
0.8093024,2718
0.8758037,2719
0.9180965,2720
0.94128376,2721
1.0083028,2722
1.0963132,2723
1.1975169,2724
1.2037003,2725
1.2294556,2726
1.3078693,2727
1.4044622,2728
1.091482,2729
1.1073229,2730
1.2118596,2731
1.4273,2732
1.4708238,2733
0.9657065,2734
0.82644826,2735
0.8599269,2736
0.87515855,2737
0.97742826,2738
0.9477071,2739
1.097425,2740
0.9570092,2741
1.005304,2742
0.91105825,2743
0.967548,2744
0.9749459,2745
1.1236919,2746
1.0776525,2747
1.2321103,2748
1.2415502,2749
1.4376242,2750
1.4911712,2751
1.2635999,2752
0.89167666,2753
0.8763865,2754
0.868743,2755
0.8494383,2756
0.984054,2757
1.1202728,2758
0.97411066,2759
1.223659,2760
1.091457,2761
0.9618677,2762
0.9732454,2763
0.98804265,2764
1.0862111,2765
1.1652856,2766
1.1800243,2767
1.2269495,2768
1.258759,2769
1.2944232,2770
0.8074849,2771
0.76346344,2772
0.7896026,2773
0.86284125,2774
0.9785992,2775
0.92973155,2776
0.9469788,2777
0.90775925,2778
0.9783792,2779
0.88279766,2780
0.9724884,2781
0.965653,2782
1.1274896,2783
1.2300379,2784
1.2824502,2785
1.3944635,2786
1.4895301,2787
1.6028912,2788
1.2077502,2789
0.9199231,2790
0.7820822,2791
0.85404986,2792
0.8288888,2793
1.029428,2794
1.0223005,2795
1.0156534,2796
1.1571671,2797
1.0884415,2798
0.940986,2799
1.027228,2800
1.0998014,2801
1.2133355,2802
1.1780076,2803
1.1923727,2804
1.2256148,2805
1.2574639,2806
1.3225452,2807
0.76836663,2808
0.7512771,2809
0.87918764,2810
0.8250017,2811
0.9149886,2812
1.0435684,2813
1.0874215,2814
1.0054303,2815
1.0015883,2816
0.9543455,2817
0.98570514,2818
0.9601868,2819
1.1278297,2820
1.106868,2821
1.2542341,2822
1.4669007,2823
1.5249052,2824
1.6696963,2825
1.1756618,2826
0.8956782,2827
0.82391673,2828
0.83024323,2829
0.8484315,2830
1.0644219,2831
1.0486983,2832
1.0260426,2833
1.1916392,2834
1.0020295,2835
1.0076965,2836
0.9767598,2837
1.1272575,2838
1.2707005,2839
1.2166,2840
1.2853805,2841
1.3882127,2842
1.2472099,2843
1.4034346,2844
0.8297324,2845
0.81294674,2846
0.78925276,2847
0.9374726,2848
1.0323939,2849
1.0985663,2850
1.0943004,2851
1.1464995,2852
1.1722922,2853
0.97646445,2854
0.97501665,2855
1.0285914,2856
1.1863921,2857
1.2115343,2858
1.2974129,2859
1.5170989,2860
1.634622,2861
1.785523,2862
1.2519364,2863
0.8918894,2864
0.848306,2865
0.81445307,2866
0.93401575,2867
1.0912598,2868
1.1562977,2869
1.1318753,2870
1.2954594,2871
1.0636001,2872
1.0390064,2873
1.0193988,2874
1.2019291,2875
1.2983774,2876
1.2907326,2877
1.4749401,2878
1.5589945,2879
1.4490358,2880
1.4415132,2881
0.90073854,2882
0.8481678,2883
0.8394495,2884
0.8411075,2885
0.91328686,2886
1.067114,2887
0.93174285,2888
1.0528905,2889
1.0437084,2890
0.9523284,2891
0.90424895,2892
1.0747375,2893
1.1838965,2894
1.2623252,2895
1.3535554,2896
1.4321681,2897
1.5888922,2898
1.5412143,2899
1.0077564,2900
0.84259623,2901
0.90797526,2902
0.86255604,2903
0.84576607,2904
1.0334696,2905
1.0634922,2906
1.0738872,2907
1.0772518,2908
1.0295349,2909
0.9544702,2910
1.0408441,2911
1.1972096,2912
1.3598386,2913
1.3277476,2914
1.3604617,2915
1.3172272,2916
1.2635517,2917
1.2959574,2918
0.78492683,2919
0.81816465,2920
0.8484943,2921
0.9261002,2922
0.96499723,2923
0.9139129,2924
0.93576014,2925
1.0354872,2926
1.0374594,2927
0.95719457,2928
0.9680395,2929
1.0855842,2930
1.2157673,2931
1.3372821,2932
1.4657815,2933
1.5275874,2934
1.5967033,2935
1.6761086,2936
1.0148039,2937
0.8085803,2938
0.8357736,2939
0.8742324,2940
0.89943755,2941
0.9948706,2942
1.2032411,2943
1.0470179,2944
1.1768327,2945
1.0032314,2946
1.0245326,2947
1.0988853,2948
1.3891425,2949
1.3774185,2950
1.3380162,2951
1.411263,2952
1.3021879,2953
1.3839834,2954
1.3306116,2955
0.8073931,2956
0.8248777,2957
0.7285965,2958
0.9318474,2959
0.93354756,2960
1.0803312,2961
1.0397377,2962
1.1617253,2963
1.0732005,2964
0.97200906,2965
0.9462737,2966
0.99940693,2967
1.1605562,2968
1.3474874,2969
1.4445354,2970
1.4542106,2971
1.5429543,2972
1.5200397,2973
0.936839,2974
0.86407727,2975
0.85178393,2976
0.8899532,2977
1.0496042,2978
1.0585738,2979
1.1578349,2980
1.2509291,2981
1.3438017,2982
1.0375988,2983
1.0813615,2984
1.0670956,2985
1.4017982,2986
1.4299703,2987
1.4176852,2988
1.6219671,2989
1.5301887,2990
1.6108747,2991
1.2513458,2992
0.8508681,2993
0.85995626,2994
0.8726779,2995
0.9178971,2996
1.0375416,2997
1.1603181,2998
1.1612736,2999
1.236026,3000
1.120359,3001
0.97288364,3002
0.9856172,3003
1.0212435,3004
1.1160959,3005
1.2854551,3006
1.3846284,3007
1.3611482,3008
1.4804758,3009
1.5833232,3010
0.9879897,3011
0.884298,3012
0.91204566,3013
0.8464247,3014
0.9279764,3015
0.91373205,3016
0.9793401,3017
1.0047055,3018
1.1190052,3019
1.2414387,3020
1.1730703,3021
1.3883022,3022
1.4002879,3023
1.2910724,3024
1.194586,3025
1.2029604,3026
1.3122464,3027
1.3985577,3028
1.2313983,3029
0.8770014,3030
0.8538431,3031
0.77617335,3032
0.8328481,3033
1.0184,3034
1.0379857,3035
1.0505614,3036
1.1984688,3037
1.0710657,3038
1.0055642,3039
1.0004897,3040
1.0485727,3041
1.1314565,3042
1.3141879,3043
1.3685129,3044
1.529638,3045
1.7169584,3046
1.5029211,3047
0.90358,3048
0.92623293,3049
0.847092,3050
0.91055727,3051
0.98221135,3052
1.0657907,3053
1.0506358,3054
1.0650938,3055
1.1268939,3056
1.036024,3057
1.060022,3058
1.2551019,3059
1.4336809,3060
1.4640758,3061
1.1791471,3062
1.3244598,3063
1.314274,3064
1.4114997,3065
1.1107947,3066
0.8086279,3067
0.78459656,3068
0.7853478,3069
0.89631736,3070
0.9892917,3071
1.0834695,3072
1.0365026,3073
1.1574732,3074
1.0247035,3075
1.0104549,3076
0.9972417,3077
1.0215197,3078
1.2574484,3079
1.307889,3080
1.4893746,3081
1.7329135,3082
1.6048284,3083
1.5364827,3084
0.8511427,3085
0.83855814,3086
0.84377295,3087
0.85505426,3088
0.9904135,3089
0.97189534,3090
0.9444452,3091
1.037872,3092
1.140152,3093
1.0591378,3094
0.97910345,3095
1.1420405,3096
1.1976976,3097
1.1323231,3098
1.1511866,3099
1.2264892,3100
1.263703,3101
1.408855,3102
1.0579708,3103
0.8425557,3104
0.79999584,3105
0.89949155,3106
0.89607555,3107
0.9383039,3108
1.0892925,3109
0.96696424,3110
1.0060102,3111
0.97866505,3112
1.0280452,3113
1.0227461,3114
1.0704931,3115
1.1385636,3116
1.1566408,3117
1.3715707,3118
1.537677,3119
1.6257752,3120
1.4755743,3121
0.8011277,3122
0.8960024,3123
0.84357125,3124
0.8893959,3125
1.0276121,3126
1.1305488,3127
1.1441603,3128
1.1184247,3129
1.1400295,3130
0.9887104,3131
0.9061541,3132
1.0598044,3133
1.1332556,3134
1.1612687,3135
1.258197,3136
1.477785,3137
1.5104532,3138
1.4073347,3139
0.9816701,3140
0.8505686,3141
0.8169376,3142
0.8507851,3143
0.85622436,3144
1.049917,3145
1.077763,3146
1.1324629,3147
0.98484886,3148
0.98125494,3149
0.98662573,3150
1.0571254,3151
1.1686431,3152
1.1286047,3153
1.3323903,3154
1.5739672,3155
1.533989,3156
1.5628786,3157
1.3676616,3158
0.94933873,3159
0.83981276,3160
0.8356854,3161
0.92133886,3162
0.9974812,3163
1.2360529,3164
1.126216,3165
1.222598,3166
1.1397278,3167
0.96214694,3168
0.984743,3169
1.0913743,3170
1.1266724,3171
1.2052428,3172
1.3483974,3173
1.5608398,3174
1.4822114,3175
1.7319564,3176
0.9347542,3177
0.8398212,3178
0.87622494,3179
0.86696035,3180
0.9455421,3181
0.9756518,3182
1.1003872,3183
0.89604306,3184
0.98804927,3185
0.9637586,3186
0.9859978,3187
1.0702686,3188
1.1506102,3189
1.164795,3190
1.3841316,3191
1.4767753,3192
1.5719128,3193
1.6565614,3194
1.2856909,3195
0.82560784,3196
0.8800652,3197
0.7974886,3198
0.8333235,3199
0.95730776,3200
1.0944914,3201
1.2236369,3202
1.2590197,3203
1.1373638,3204
0.96587545,3205
0.97468746,3206
1.0534556,3207
1.2254381,3208
1.170499,3209
1.1696116,3210
1.2970592,3211
1.2277741,3212
1.3821942,3213
1.0082904,3214
0.84151095,3215
0.876772,3216
0.8750969,3217
0.89744073,3218
1.0083646,3219
1.0032388,3220
1.0307783,3221
1.0560998,3222
0.9826445,3223
0.95600694,3224
1.0139779,3225
1.2592632,3226
1.262066,3227
1.3261805,3228
1.5270334,3229
1.5227574,3230
1.6461059,3231
1.2336878,3232
0.8542758,3233
0.827949,3234
0.88801706,3235
0.8770558,3236
0.95463073,3237
0.9818105,3238
1.1177936,3239
1.3371354,3240
1.1587287,3241
1.0320157,3242
0.9625654,3243
1.0438021,3244
1.2803825,3245
1.2869065,3246
1.3275737,3247
1.5074552,3248
1.4591722,3249
1.5361158,3250
0.8099001,3251
0.8908776,3252
0.87436604,3253
0.8961332,3254
1.0290155,3255
1.1210008,3256
1.0806353,3257
1.0362891,3258
1.1003714,3259
1.0873764,3260
1.0357392,3261
1.1622026,3262
1.3512454,3263
1.268498,3264
1.3560064,3265
1.6210437,3266
1.5899736,3267
1.6687752,3268
1.1941065,3269
0.8958013,3270
0.9289066,3271
0.8848569,3272
0.8915109,3273
1.128622,3274
1.2742682,3275
1.2955779,3276
1.4253523,3277
1.1527346,3278
0.9922881,3279
0.9812588,3280
1.1296788,3281
1.0966568,3282
1.1265339,3283
1.3023249,3284
1.4876406,3285
1.5338451,3286
1.3259554,3287
0.82698053,3288
0.83629835,3289
0.9482899,3290
1.076069,3291
0.9889636,3292
1.1097467,3293
1.0093278,3294
1.0319678,3295
0.97575235,3296
0.9691208,3297
1.0088873,3298
1.1355299,3299
1.2392017,3300
1.3345026,3301
1.4918848,3302
1.7387182,3303
1.6860502,3304
1.641714,3305
1.0999397,3306
0.85471016,3307
0.81424636,3308
0.84139335,3309
0.88609743,3310
0.9029524,3311
0.9843752,3312
1.0739927,3313
1.200644,3314
1.2862178,3315
1.2866693,3316
1.3197035,3317
1.370226,3318
1.362581,3319
1.1272812,3320
1.1240784,3321
1.3394756,3322
1.5162535,3323
1.5089706,3324
0.9119459,3325
0.87601334,3326
1.0129795,3327
0.9970641,3328
1.0564348,3329
1.1034212,3330
0.9976439,3331
1.0489106,3332
0.95567197,3333
1.0220149,3334
1.0472219,3335
1.1484926,3336
1.2146838,3337
1.378883,3338
1.3669405,3339
1.4032521,3340
1.6255882,3341
1.6126938,3342
0.9489725,3343
0.8487294,3344
0.84486485,3345
0.79838115,3346
0.8595217,3347
1.1758047,3348
1.2387809,3349
1.2806638,3350
1.4038461,3351
1.0797683,3352
1.0219995,3353
1.0077704,3354
1.1885666,3355
1.1452887,3356
1.0537235,3357
1.2156099,3358
1.2379936,3359
1.2583588,3360
1.2901098,3361
0.8857868,3362
0.8201745,3363
0.93826246,3364
1.0390749,3365
0.98188263,3366
1.0242835,3367
0.9937912,3368
0.9893995,3369
0.9701872,3370
1.0001197,3371
1.0621768,3372
1.2052754,3373
1.3129052,3374
1.2820531,3375
1.4514322,3376
1.464283,3377
1.7091913,3378
1.6335967,3379
0.8839796,3380
0.84199554,3381
0.8077431,3382
0.8513547,3383
0.9458255,3384
1.0443691,3385
1.1327809,3386
1.332228,3387
1.412891,3388
1.0080929,3389
1.0086083,3390
1.0346202,3391
1.224263,3392
1.2513394,3393
1.0027608,3394
1.1955613,3395
1.2547349,3396
1.3698121,3397
1.1787151,3398
0.8351917,3399
0.83519834,3400
0.9755472,3401
0.98740447,3402
1.0017686,3403
1.0703843,3404
1.0952502,3405
1.1557702,3406
1.0368735,3407
0.94326234,3408
0.9815417,3409
1.146568,3410
1.0714087,3411
1.2293555,3412
1.4955546,3413
1.5514998,3414
1.6559584,3415
1.6839589,3416
0.90774256,3417
0.9050832,3418
0.8219259,3419
0.8519699,3420
1.0209497,3421
0.9253793,3422
1.102657,3423
1.2163093,3424
1.3102006,3425
0.9737842,3426
1.016055,3427
1.0763863,3428
1.2484577,3429
1.0912446,3430
1.1418384,3431
1.269541,3432
1.2132716,3433
1.1983529,3434
1.1595182,3435
0.8071281,3436
0.8875566,3437
0.97163,3438
0.9497636,3439
1.0486553,3440
1.0781395,3441
1.0388575,3442
1.0851636,3443
1.0305467,3444
0.9715371,3445
0.9555289,3446
1.1201062,3447
1.0666159,3448
1.2656682,3449
1.5540199,3450
1.6113809,3451
1.5448989,3452
1.6968191,3453
0.9756009,3454
0.86337084,3455
0.901215,3456
0.82756066,3457
0.8701961,3458
1.106154,3459
1.120688,3460
1.1596433,3461
1.232594,3462
1.0002052,3463
0.99934053,3464
1.1116896,3465
1.2327297,3466
1.3449646,3467
1.2092893,3468
1.2900959,3469
1.3282901,3470
1.314004,3471
1.1246549,3472
0.79936874,3473
0.8806837,3474
0.8431095,3475
0.93173534,3476
0.9624191,3477
1.0459778,3478
0.9357791,3479
1.0885448,3480
1.0206025,3481
0.9629044,3482
0.922747,3483
1.0890361,3484
1.1082418,3485
1.4526302,3486
1.4977939,3487
1.6499845,3488
1.582353,3489
1.6228166,3490
0.880672,3491
0.9151942,3492
0.81785995,3493
0.86447775,3494
0.89682066,3495
0.90176195,3496
1.1286149,3497
1.189744,3498
1.2317146,3499
1.0488414,3500
1.0782928,3501
1.2767445,3502
1.3346055,3503
1.3691769,3504
1.2601236,3505
1.3010672,3506
1.216361,3507
1.1911141,3508
1.0785377,3509
0.87769455,3510
0.85870576,3511
0.9045819,3512
0.9172862,3513
0.96077555,3514
1.1053531,3515
1.0671779,3516
1.0973738,3517
1.0602738,3518
1.0101094,3519
0.95102656,3520
1.0737553,3521
1.0389496,3522
1.4769752,3523
1.5667526,3524
1.521338,3525
1.6010915,3526
1.4804655,3527
0.9272863,3528
0.8789969,3529
0.8838105,3530
0.8742116,3531
0.92794955,3532
0.9754444,3533
1.0852948,3534
1.1128948,3535
1.1514152,3536
1.0734051,3537
1.1625931,3538
1.2555865,3539
1.3617707,3540
1.3035656,3541
1.3404353,3542
1.3151371,3543
1.1562546,3544
1.2693715,3545
0.974677,3546
0.88205075,3547
0.8197342,3548
0.84108365,3549
0.8856131,3550
1.1579424,3551
1.0949169,3552
1.0514259,3553
1.0557121,3554
0.93219465,3555
0.9897501,3556
0.95161545,3557
1.0117129,3558
0.91343004,3559
1.343795,3560
1.1622127,3561
1.4366709,3562
1.3097321,3563
1.3843794,3564
0.9954675,3565
0.9436654,3566
0.92727584,3567
0.9296357,3568
0.9567072,3569
1.0000091,3570
0.91114324,3571
0.87558097,3572
0.9258603,3573
0.9778082,3574
0.9616917,3575
1.06033,3576
1.1253047,3577
1.0041112,3578
0.9822953,3579
0.9821775,3580
0.9379547,3581
0.96892667,3582
0.85320497,3583
0.83878684,3584
0.89772725,3585
0.78891456,3586
0.9654185,3587
1.0006404,3588
1.0029924,3589
1.0990802,3590
1.039633,3591
0.9732897,3592
0.9649259,3593
0.96834826,3594
1.0233444,3595
1.0530901,3596
1.1792269,3597
1.0017422,3598
1.1157534,3599
1.1166784,3600
1.1310426,3601
0.9516071,3602
0.873333,3603
0.9320032,3604
0.96927434,3605
0.89356977,3606
0.90084004,3607
0.9360414,3608
1.0075542,3609
1.0192013,3610
1.0834912,3611
0.94703907,3612
0.9749998,3613
0.9184654,3614
1.0054607,3615
1.0312359,3616
1.0362114,3617
1.0770497,3618
0.9960494,3619
0.9927144,3620
0.87454665,3621
0.84584516,3622
0.8981411,3623
0.89184695,3624
0.94061005,3625
0.810388,3626
0.8658447,3627
0.831552,3628
0.83450073,3629
0.8475808,3630
0.7819283,3631
0.95551115,3632
0.7943308,3633
0.8509952,3634
0.93180656,3635
0.87080467,3636
0.91946316,3637
0.9173241,3638
0.8970457,3639
0.9775558,3640
0.863212,3641
0.886318,3642
0.9516644,3643
0.9292768,3644
0.9254488,3645
1.0009625,3646
1.0431756,3647
1.0706725,3648
1.1020567,3649
1.0154471,3650
1.0763066,3651
1.1483976,3652
1.094492,3653
1.169357,3654
1.0800269,3655
1.1248825,3656
1.3249177,3657
1.4082903,3658
1.4062757,3659
1.5007273,3660
1.3693379,3661
1.2411301,3662
1.1643081,3663
1.1505455,3664
1.1839082,3665
1.6192952,3666
1.5465671,3667
1.560659,3668
1.4273168,3669
1.5000103,3670
1.8035336,3671
1.8231115,3672
1.6389236,3673
1.5233277,3674
1.6338834,3675
1.5173235,3676
1.5501043,3677
1.504522,3678
1.510128,3679
1.8120688,3680
1.8040316,3681
1.7268727,3682
1.6807688,3683
1.709295,3684
1.9730824,3685
1.8541195,3686
1.8332708,3687
1.7120497,3688
1.6674011,3689
1.5122664,3690
1.5482619,3691
1.5480021,3692
1.6680973,3693
2.097741,3694
1.9599198,3695
1.9383084,3696
1.8520819,3697
1.8365686,3698
1.6518162,3699
1.70224,3700
1.5017174,3701
1.5403495,3702
1.8303405,3703
1.9998945,3704
1.7844213,3705
1.8351921,3706
1.6041526,3707
2.1610036,3708
1.8851417,3709
1.9254193,3710
1.8683872,3711
1.7836971,3712
1.5492971,3713
1.5496132,3714
1.4428601,3715
1.4437022,3716
1.7905588,3717
1.8002588,3718
1.6821373,3719
1.7787504,3720
1.9326457,3721
2.1516285,3722
1.9394786,3723
1.8887519,3724
1.7385883,3725
1.6141603,3726
1.6713015,3727
1.612735,3728
1.508695,3729
1.7093822,3730
2.1141343,3731
1.8666216,3732
1.8817774,3733
1.8846643,3734
1.7398237,3735
1.5622385,3736
1.716729,3737
1.7277198,3738
1.5935762,3739
1.7369571,3740
1.9995204,3741
1.8726723,3742
1.7856928,3743
1.8280972,3744
2.0465102,3745
2.118936,3746
2.0366464,3747
1.8573322,3748
1.732623,3749
1.509311,3750
1.3591567,3751
1.480523,3752
1.4212236,3753
1.7579609,3754
1.7213751,3755
1.6338614,3756
1.5325612,3757
1.6412497,3758
1.9258194,3759
1.892915,3760
1.8089784,3761
1.7965946,3762
1.78691,3763
1.7106428,3764
1.6809407,3765
1.4578544,3766
1.5053829,3767
1.842097,3768
1.5192374,3769
1.5294076,3770
1.4754958,3771
1.4820404,3772
1.4460707,3773
1.5544828,3774
1.3928862,3775
1.5315001,3776
1.7123085,3777
1.7003477,3778
1.7451903,3779
1.6157726,3780
1.6499233,3781
1.7944425,3782
1.522731,3783
1.6206087,3784
1.5751604,3785
1.9365993,3786
2.1039014,3787
1.7486731,3788
1.7421031,3789
1.776381,3790
1.9243556,3791
1.6916996,3792
1.7186035,3793
1.6717086,3794
1.882291,3795
1.8972559,3796
1.9376297,3797
1.88752,3798
1.6705873,3799
1.4422277,3800
1.4829513,3801
1.3870602,3802
1.4805553,3803
1.6141618,3804
1.799948,3805
1.8157357,3806
1.7254466,3807
1.7318287,3808
1.6627382,3809
1.6953441,3810
1.6883985,3811
1.6820189,3812
1.645446,3813
1.5658959,3814
1.6729906,3815
1.6211226,3816
1.5529578,3817
1.7102075,3818
1.9397442,3819
1.7212329,3820
1.728418,3821
1.6101903,3822
1.6779509,3823
1.6287469,3824
1.5003486,3825
1.4859012,3826
1.4177767,3827
1.6660761,3828
1.6666145,3829
1.6414188,3830
1.4918815,3831
1.7764207,3832
1.8325127,3833
1.9300656,3834
1.896675,3835
1.6781524,3836
1.720933,3837
1.6603395,3838
1.7142395,3839
1.6472366,3840
1.8191673,3841
1.8906631,3842
1.7803006,3843
1.6637583,3844
1.5157795,3845
1.6529367,3846
1.5569738,3847
1.6569037,3848
1.6477904,3849
1.6509557,3850
1.695818,3851
1.6891739,3852
1.5804538,3853
1.4658278,3854
1.6390823,3855
1.7782586,3856
1.7974914,3857
1.7315512,3858
1.7110211,3859
1.4316127,3860
1.5791725,3861
1.5429747,3862
1.3877255,3863
1.5610484,3864
1.6765819,3865
1.7097108,3866
1.5665237,3867
1.4370097,3868
1.7046193,3869
1.7320181,3870
1.7384334,3871
1.799369,3872
1.5808939,3873
1.4034653,3874
1.3642558,3875
1.4635755,3876
1.4054728,3877
1.6734462,3878
1.6736029,3879
1.8006,3880
1.7628757,3881
1.7527698,3882
1.5715715,3883
1.5815376,3884
1.6000521,3885
1.4238203,3886
1.4617192,3887
1.6842204,3888
1.5251669,3889
1.5031853,3890
1.4755143,3891
1.7979037,3892
1.7750055,3893
1.7096232,3894
1.6422372,3895
1.5263627,3896
1.509793,3897
1.5082828,3898
1.4773498,3899
1.3172661,3900
1.4216331,3901
1.692926,3902
1.607822,3903
1.5563062,3904
1.5226655,3905
1.8786147,3906
1.7437271,3907
1.7833045,3908
1.8509552,3909
1.739737,3910
1.5910338,3911
1.4743179,3912
1.5366654,3913
1.4824287,3914
1.5106171,3915
1.7369287,3916
1.6747308,3917
1.4257371,3918
1.4029962,3919
1.6378348,3920
1.546811,3921
1.5708735,3922
1.5717838,3923
1.775768,3924
1.8065777,3925
1.8655014,3926
1.8143322,3927
1.7800066,3928
1.6376352,3929
1.5127143,3930
1.6376733,3931
1.4352708,3932
1.5504422,3933
1.726229,3934
1.7838012,3935
1.8471932,3936
1.8751696,3937
1.8290007,3938
1.9451115,3939
1.8586282,3940
1.7108718,3941
1.7617888,3942
2.0477328,3943
1.7188629,3944
1.6469826,3945
1.7947619,3946
1.8497536,3947
1.6520017,3948
1.751208,3949
1.649973,3950
1.5561103,3951
1.8562338,3952
1.7667196,3953
1.9287534,3954
1.7862502,3955
1.728891,3956
1.6426156,3957
1.6814339,3958
1.7016498,3959
1.6443655,3960
1.7518414,3961
1.7630333,3962
1.7489139,3963
1.6469402,3964
1.6300637,3965
1.9269764,3966
1.8485899,3967
2.05196,3968
2.0361066,3969
1.7875268,3970
1.7990128,3971
1.734652,3972
1.6793566,3973
1.4993106,3974
1.692987,3975
1.8131791,3976
1.6341288,3977
1.6808897,3978
1.6912457,3979
1.8842443,3980
2.0059378,3981
1.7542506,3982
1.886486,3983
1.8811954,3984
1.6136178,3985
1.5118915,3986
1.5331713,3987
1.5917816,3988
2.010213,3989
1.8006705,3990
1.8468927,3991
1.8604507,3992
1.7868301,3993
1.9078108,3994
1.6966355,3995
1.5943073,3996
1.5727392,3997
1.6012158,3998
1.8134675,3999
1.7372934,4000
1.5858915,4001
1.6634158,4002
1.8956649,4003
1.7628152,4004
1.8633218,4005
1.9480178,4006
1.8583041,4007
1.6081594,4008
1.7182564,4009
1.6570725,4010
1.4104733,4011
1.6666343,4012
1.7972744,4013
1.6481024,4014
1.6160833,4015
1.7024173,4016
1.945837,4017
1.881283,4018
1.8020484,4019
1.6493816,4020
1.7306252,4021
1.7117059,4022
1.6858208,4023
1.5556214,4024
1.5730741,4025
1.967904,4026
2.0424576,4027
1.7794913,4028
1.8562251,4029
1.8158637,4030
1.6937381,4031
1.6833631,4032
1.6319594,4033
1.708274,4034
1.7749453,4035
1.7723548,4036
1.6597687,4037
1.5783472,4038
1.6737251,4039
1.9958028,4040
1.9796337,4041
1.942436,4042
2.0656412,4043
1.903719,4044
1.6736588,4045
1.6177739,4046
1.6831858,4047
1.5976124,4048
1.7926956,4049
1.769925,4050
1.7287518,4051
1.6869969,4052
1.728904,4053
1.9631604,4054
1.9822154,4055
1.7862289,4056
1.8700492,4057
1.7837692,4058
1.7595944,4059
1.7096026,4060
1.543742,4061
1.5778738,4062
1.8005228,4063
1.6241672,4064
1.5515265,4065
1.7577611,4066
1.5787619,4067
1.5525825,4068
1.7095633,4069
1.6819803,4070
1.6766511,4071
1.8419619,4072
2.0936868,4073
1.887173,4074
1.8932675,4075
2.1549768,4076
1.8537126,4077
1.7472417,4078
1.5712626,4079
1.6039345,4080
1.6883148,4081
1.8061144,4082
1.8215722,4083
1.8668272,4084
1.8744045,4085
1.902916,4086
1.8422946,4087
1.7453789,4088
1.7902852,4089
1.9680248,4090
1.8574406,4091
1.8012699,4092
1.8519229,4093
2.0017576,4094
1.8980159,4095
1.6781837,4096
1.6833862,4097
1.7644806,4098
1.8196391,4099
1.9855509,4100
1.8888727,4101
1.8284758,4102
1.8681656,4103
1.7105384,4104
1.6053591,4105
1.7066776,4106
1.7025318,4107
1.788821,4108
1.8453277,4109
1.7707727,4110
1.7010537,4111
1.6304889,4112
1.8159343,4113
2.0091996,4114
2.0909774,4115
1.8250577,4116
1.9478309,4117
1.8774017,4118
1.8272097,4119
1.9502523,4120
1.9273661,4121
1.7798012,4122
1.787643,4123
1.6287858,4124
1.705081,4125
1.6958967,4126
1.8121274,4127
2.0349896,4128
1.890032,4129
1.8738103,4130
1.8159362,4131
1.8135538,4132
1.6755204,4133
1.8599473,4134
1.7535235,4135
1.8256412,4136
2.2079554,4137
2.0833242,4138
1.9496063,4139
1.8621008,4140
1.8938676,4141
1.8700953,4142
1.8521233,4143
1.6737612,4144
1.6108763,4145
1.7391888,4146
1.7411177,4147
1.7458206,4148
1.5751038,4149
1.8315169,4150
2.1299047,4151
2.1100588,4152
2.0625284,4153
1.8581481,4154
1.8786203,4155
1.6742711,4156
1.6346246,4157
1.6542557,4158
1.6862961,4159
1.7832733,4160
1.8004478,4161
1.7177271,4162
1.6953496,4163
1.850642,4164
2.002962,4165
2.0664902,4166
1.9057913,4167
1.8943474,4168
1.8420755,4169
1.7617561,4170
1.7021828,4171
1.5506492,4172
1.6734918,4173
2.0842798,4174
1.7994843,4175
2.0501022,4176
1.9695847,4177
1.8366646,4178
1.728722,4179
1.7375109,4180
1.7312484,4181
1.7118527,4182
1.754166,4183
1.6584644,4184
1.7242916,4185
1.7315578,4186
1.7780554,4187
1.9768285,4188
1.9108487,4189
1.9810772,4190
1.9973266,4191
2.015239,4192
1.6672379,4193
1.5529946,4194
1.7393652,4195
1.5611008,4196
1.6087081,4197
1.7390875,4198
1.7529433,4199
1.6587675,4200
1.9688283,4201
2.1537294,4202
2.0613577,4203
1.9236277,4204
2.0320294,4205
1.8876002,4206
1.7887889,4207
1.6384414,4208
1.6794163,4209
1.6431562,4210
1.771896,4211
1.7193532,4212
1.6786262,4213
1.5735073,4214
1.6122719,4215
1.8213187,4216
1.900723,4217
1.7989305,4218
1.7558842,4219
1.9391907,4220
2.1157472,4221
2.222588,4222
2.0204203,4223
1.8232303,4224
1.8972044,4225
1.8234586,4226
1.6896447,4227
1.6183188,4228
1.9967602,4229
1.9988219,4230
1.9044055,4231
1.8763132,4232
1.9104356,4233
1.8637724,4234
1.701788,4235
1.7116852,4236
1.6155803,4237
1.9070373,4238
1.9886367,4239
1.9516602,4240
2.0079434,4241
1.8058685,4242
1.9095112,4243
1.9161878,4244
1.8750182,4245
1.8529141,4246
1.9696082,4247
1.9619172,4248
1.7943013,4249
1.7976952,4250
1.979374,4251
1.9343457,4252
1.7906476,4253
1.5873443,4254
1.6678156,4255
1.6099942,4256
1.7687523,4257
1.6913971,4258
1.7197034,4259
1.599611,4260
1.942493,4261
2.0144236,4262
1.9322348,4263
1.8322033,4264
1.8572394,4265
1.6793559,4266
1.5608848,4267
1.5310405,4268
1.3855321,4269
1.4786358,4270
1.713748,4271
1.7010826,4272
1.6068046,4273
1.4794124,4274
2.0058446,4275
1.823436,4276
1.8875949,4277
1.8790743,4278
1.9597224,4279
1.666415,4280
1.6287448,4281
1.5443641,4282
1.5495602,4283
1.7677903,4284
1.9824908,4285
2.0613666,4286
1.7970432,4287
1.9316058,4288
1.8469545,4289
1.6256927,4290
1.6323682,4291
1.590788,4292
1.6175274,4293
1.6921576,4294
1.6385608,4295
1.5288912,4296
1.4321343,4297
2.063553,4298
1.8418673,4299
1.8397914,4300
1.9016688,4301
1.8324784,4302
1.5677321,4303
1.640202,4304
1.6546284,4305
1.4074606,4306
1.5734688,4307
1.6704913,4308
1.6133238,4309
1.6072782,4310
1.6157382,4311
2.061369,4312
1.9204284,4313
1.9786912,4314
1.8856118,4315
1.7828242,4316
1.7386447,4317
1.4999802,4318
1.5686916,4319
1.556691,4320
1.9968022,4321
1.9954565,4322
2.0760984,4323
2.115094,4324
1.9152596,4325
1.8733497,4326
1.6531368,4327
1.765765,4328
1.7246859,4329
1.55205,4330
1.768864,4331
1.6858774,4332
1.5883819,4333
1.5338172,4334
1.9973038,4335
1.8056272,4336
2.089886,4337
1.880896,4338
1.869648,4339
1.8152959,4340
1.7519886,4341
1.7562608,4342
1.6776633,4343
1.8174504,4344
1.7378576,4345
1.7936049,4346
1.8395894,4347
1.697187,4348
2.0935347,4349
2.0938988,4350
1.8980902,4351
1.9892632,4352
1.9809881,4353
1.8196814,4354
1.760481,4355
1.744512,4356
1.7069755,4357
1.7936529,4358
1.7510016,4359
1.7202802,4360
1.7264978,4361
1.7114807,4362
1.7658759,4363
1.8529865,4364
1.7679126,4365
1.7996943,4366
1.9798607,4367
2.0821083,4368
2.0707803,4369
1.9494387,4370
2.0309124,4371
1.9411236,4372
1.8139021,4373
1.8705274,4374
1.7493393,4375
1.7539473,4376
2.0369556,4377
2.1524127,4378
2.1027217,4379
1.9880043,4380
2.0538335,4381
1.7675875,4382
1.8736854,4383
1.9479979,4384
1.9210317,4385
2.0408642,4386
2.0308743,4387
2.1264179,4388
1.9758502,4389
2.0049,4390
1.8849975,4391
1.9500315,4392
1.8209667,4393
1.7572141,4394
2.0483186,4395
2.1033769,4396
1.9521874,4397
2.1179993,4398
1.9437703,4399
1.8745035,4400
1.8047695,4401
1.7998987,4402
1.6914877,4403
1.8037256,4404
1.6722814,4405
1.7672608,4406
1.7419066,4407
1.6709569,4408
2.0924394,4409
2.1346958,4410
1.9693413,4411
2.0637486,4412
1.9301074,4413
1.8988528,4414
1.9002764,4415
1.7891756,4416
1.7227074,4417
1.733857,4418
1.5995423,4419
1.7342507,4420
1.5762824,4421
1.6728681,4422
2.0661187,4423
2.007658,4424
1.983182,4425
2.0547519,4426
1.9620758,4427
1.87331,4428
1.8454137,4429
1.7120893,4430
1.5570805,4431
2.169861,4432
2.0767443,4433
2.1471097,4434
2.0853715,4435
2.0830045,4436
1.9458593,4437
1.91774,4438
1.9284061,4439
1.7689964,4440
1.7241426,4441
1.7140013,4442
1.8485781,4443
1.7676266,4444
1.6856614,4445
2.1891444,4446
2.0646055,4447
2.1053452,4448
2.087858,4449
2.0927553,4450
1.992061,4451
1.6911728,4452
1.6978799,4453
1.654746,4454
1.640159,4455
1.7876382,4456
1.7433527,4457
1.6888927,4458
1.7335384,4459
1.9806455,4460
2.1711574,4461
2.0421731,4462
2.073545,4463
2.0254338,4464
1.8695245,4465
1.7798232,4466
1.688213,4467
1.6405183,4468
2.0637493,4469
1.9623976,4470
1.9128337,4471
1.9703228,4472
1.9862314,4473
1.810449,4474
1.886845,4475
1.8086034,4476
1.8368524,4477
1.7376095,4478
1.7954932,4479
1.752538,4480
1.7063646,4481
1.6703169,4482
1.9496363,4483
2.02621,4484
1.8917006,4485
1.8724133,4486
2.0068445,4487
2.0299284,4488
1.715458,4489
1.5935551,4490
1.7057512,4491
1.6334301,4492
1.7278625,4493
1.8110341,4494
1.6545326,4495
1.7695737,4496
1.9445107,4497
2.0471787,4498
1.9666342,4499
1.9690566,4500
2.0160737,4501
1.9571794,4502
1.8867908,4503
1.8263848,4504
1.6840725,4505
1.5255438,4506
1.4693241,4507
1.3795755,4508
1.3967497,4509
1.5587277,4510
1.6767458,4511
1.7197025,4512
1.6837362,4513
1.5621493,4514
1.8389766,4515
1.6843451,4516
1.6785975,4517
1.8003843,4518
1.5782391,4519
1.6846597,4520
1.5594087,4521
1.6478225,4522
1.5546974,4523
1.790222,4524
1.6927793,4525
1.6096448,4526
1.7210486,4527
1.5700701,4528
1.6705846,4529
1.6378546,4530
1.753484,4531
1.6223667,4532
1.6850725,4533
1.6298555,4534
1.6935344,4535
1.6776972,4536
1.6889297,4537
1.6187769,4538
1.4427907,4539
1.6045622,4540
1.6151316,4541
1.6351509,4542
1.7879534,4543
1.7746794,4544
1.6777829,4545
1.5924809,4546
1.5830482,4547
1.4130049,4548
1.4570884,4549
1.4504672,4550
1.6092616,4551
1.3719045,4552
1.2590175,4553
1.2754292,4554
1.2365192,4555
1.4429018,4556
1.6225444,4557
1.8679496,4558
1.7218714,4559
1.7507974,4560
1.5802231,4561
1.3721431,4562
1.1858757,4563
1.3212312,4564
1.1752417,4565
1.2828325,4566
1.3701062,4567
1.3680086,4568
1.4371711,4569
1.6274961,4570
1.5814103,4571
1.5011357,4572
1.6581706,4573
1.5971262,4574
1.3856597,4575
1.3253781,4576
1.3448054,4577
1.3558481,4578
1.5367417,4579
1.605478,4580
1.4055436,4581
1.5566489,4582
1.5233109,4583
1.4423082,4584
1.5673845,4585
1.4805436,4586
1.5611176,4587
1.5649011,4588
1.3229349,4589
1.1423932,4590
1.0614002,4591
1.1480148,4592
1.4614184,4593
1.6247436,4594
1.6793977,4595
1.6708125,4596
1.8166718,4597
1.4843433,4598
1.206173,4599
1.1505687,4600
1.2075192,4601
1.2222977,4602
1.2467729,4603
1.3373989,4604
1.3089541,4605
1.3373802,4606
1.5417635,4607
1.4932394,4608
1.4845381,4609
1.4037153,4610
1.4175694,4611
1.4188234,4612
1.3449681,4613
1.3331897,4614
1.3101872,4615
1.4722525,4616
1.410511,4617
1.4029177,4618
1.4678811,4619
1.3305095,4620
1.45012,4621
1.475204,4622
1.4980245,4623
1.3669417,4624
1.2956536,4625
1.2568047,4626
1.1100922,4627
1.0424402,4628
1.0922074,4629
1.3222224,4630
1.587664,4631
1.5897223,4632
1.5109808,4633
1.4911363,4634
1.2798389,4635
1.1573801,4636
1.1466591,4637
1.1627512,4638
1.1628183,4639
1.2757245,4640
1.468317,4641
1.4663316,4642
1.4060777,4643
1.4919577,4644
1.3255764,4645
1.2730255,4646
1.3881953,4647
1.4672902,4648
1.3903463,4649
1.3891295,4650
1.3733385,4651
1.389929,4652
1.2266287,4653
1.1764342,4654
1.0585421,4655
1.0781914,4656
1.0530108,4657
1.29848,4658
1.2018548,4659
1.4255488,4660
1.2934694,4661
1.457567,4662
1.2529263,4663
1.241879,4664
1.2640073,4665
1.2317789,4666
1.1952863,4667
1.2650453,4668
1.4620036,4669
1.3321431,4670
1.2744881,4671
1.1858562,4672
1.1771798,4673
1.1680745,4674
1.1837591,4675
1.1963727,4676
1.2260334,4677
1.2778491,4678
1.2405684,4679
1.2825614,4680
1.2020023,4681
1.1491038,4682
1.1518896,4683
1.1243539,4684
1.1853321,4685
1.1201411,4686
1.2341454,4687
1.1845379,4688
1.2152866,4689
1.1734415,4690
1.1284593,4691
1.1082201,4692
1.1408824,4693
1.0954187,4694
1.0557634,4695
1.1623358,4696
1.2081584,4697
1.2293202,4698
1.1661539,4699
1.0849705,4700
1.0059245,4701
1.0124625,4702
1.0170448,4703
1.1929023,4704
1.1296116,4705
1.1284381,4706
1.1392286,4707
1.1787882,4708
1.0741149,4709
0.9854629,4710
1.0097092,4711
0.99432075,4712
1.0026037,4713
1.0153682,4714
1.0602838,4715
1.13714,4716
1.1459805,4717
1.265886,4718
1.0606394,4719
1.1000125,4720
1.0603033,4721
1.1624911,4722
1.1289471,4723
1.1420381,4724
1.0556113,4725
1.1190997,4726
1.1543367,4727
1.1127065,4728
1.1933151,4729
1.0496042,4730
1.0610437,4731
1.1557559,4732
1.0493975,4733
1.0363684,4734
0.9481367,4735
0.9672777,4736
1.0070823,4737
0.969572,4738
0.91644466,4739
0.9196065,4740
1.1140696,4741
1.0791751,4742
1.0427247,4743
1.0015217,4744
1.0360298,4745
0.9913784,4746
0.9084135,4747
0.96611756,4748
0.94618165,4749
0.92704034,4750
1.0099607,4751
0.9328711,4752
0.8589505,4753
0.8948499,4754
0.96406233,4755
0.93594605,4756
0.86119217,4757
0.9101216,4758
0.9346241,4759
0.90708405,4760
0.94962126,4761
0.9463678,4762
0.9054317,4763
0.9279982,4764
0.88148904,4765
0.9374915,4766
0.9149537,4767
1.0257949,4768
0.98493105,4769
1.0308539,4770
1.0002004,4771
1.0348576,4772
1.1012355,4773
1.0151284,4774
1.0084416,4775
1.1388611,4776
0.95829403,4777
1.2164216,4778
1.0220515,4779
1.0492475,4780
1.0693502,4781
0.9848909,4782
1.0358559,4783
1.0067239,4784
1.0048153,4785
1.0042022,4786
1.1101284,4787
1.0718845,4788
1.0393996,4789
0.975846,4790
1.0019655,4791
1.1793059,4792
0.9884292,4793
1.0584131,4794
0.92073864,4795
1.0567452,4796
1.0391878,4797
1.0010153,4798
1.050121,4799
0.9810924,4800
0.98855054,4801
0.9335389,4802
0.94420916,4803
0.9333941,4804
0.8962675,4805
0.95799077,4806
0.9080335,4807
0.8730258,4808
0.8232338,4809
0.91300535,4810
0.92921525,4811
0.960644,4812
1.0397049,4813
0.9877528,4814
0.9746871,4815
1.0377946,4816
0.9876714,4817
1.0117934,4818
1.0108974,4819
1.152851,4820
1.0816264,4821
1.1455678,4822
1.0324333,4823
1.2380462,4824
1.1729542,4825
1.250107,4826
1.2215359,4827
1.2289996,4828
1.3142657,4829
1.3996632,4830
1.349636,4831
1.5079936,4832
1.442545,4833
1.4332085,4834
1.4086457,4835
1.3433355,4836
1.3537962,4837
1.5182196,4838
1.6801813,4839
1.6857648,4840
1.6616066,4841
1.7325274,4842
1.6933944,4843
1.6083201,4844
1.6980263,4845
1.6531371,4846
1.803556,4847
1.9602644,4848
1.8721514,4849
1.7518398,4850
1.8702031,4851
1.704911,4852
1.8033539,4853
1.840274,4854
1.7179439,4855
1.7906505,4856
1.766502,4857
1.7784096,4858
1.7112912,4859
1.6502508,4860
1.9894551,4861
1.9375974,4862
1.8147787,4863
1.7724853,4864
1.9172803,4865
1.6909746,4866
1.7110461,4867
1.765524,4868
1.791407,4869
1.8007472,4870
1.9162129,4871
1.8336765,4872
1.6916395,4873
1.7623861,4874
1.7613897,4875
1.8727981,4876
1.8804477,4877
1.9777641,4878
2.0124977,4879
1.8834524,4880
1.8261956,4881
1.748611,4882
1.7806381,4883
1.9745029,4884
1.966441,4885
2.077018,4886
1.918653,4887
1.9316511,4888
1.8508006,4889
1.8635513,4890
1.8854723,4891
1.908049,4892
1.9872867,4893
1.9348931,4894
1.7543207,4895
1.774226,4896
1.74226,4897
2.003158,4898
1.9801445,4899
1.9658561,4900
1.9544573,4901
1.9288431,4902
1.7333646,4903
1.6917593,4904
1.9076673,4905
1.9524462,4906
1.9859977,4907
1.9816946,4908
1.9288675,4909
2.0260289,4910
1.9911358,4911
1.6640781,4912
1.886822,4913
1.878226,4914
1.8982736,4915
1.8061975,4916
1.8781555,4917
1.8287907,4918
1.9193387,4919
1.9451555,4920
1.9983667,4921
1.9796685,4922
2.0761275,4923
1.9571247,4924
1.9214679,4925
1.7854536,4926
1.7856457,4927
1.8233464,4928
1.9060556,4929
2.007904,4930
1.8949888,4931
1.8480111,4932
1.9725232,4933
1.8142757,4934
1.8061409,4935
1.8799667,4936
1.8673755,4937
1.6575989,4938
1.7034427,4939
1.6526392,4940
1.6653302,4941
1.8669022,4942
1.716918,4943
1.7246417,4944
1.7375338,4945
1.7748355,4946
1.617709,4947
1.620018,4948
1.8550417,4949
2.1466966,4950
1.9999506,4951
1.9682528,4952
1.7549518,4953
1.7251606,4954
1.6556671,4955
1.7897147,4956
1.6010379,4957
1.7101779,4958
1.7958305,4959
1.6971283,4960
1.7405864,4961
1.7939414,4962
1.8582757,4963
1.9365772,4964
1.8081747,4965
1.8094119,4966
1.6740977,4967
1.7259457,4968
1.8570715,4969
1.7666627,4970
1.8676356,4971
1.759455,4972
1.7381402,4973
1.8975987,4974
1.7776736,4975
1.8033422,4976
1.6656972,4977
1.7938641,4978
1.7283181,4979
1.8175539,4980
1.7191081,4981
1.6908605,4982
1.8087591,4983
1.7668278,4984
1.7195612,4985
1.6641592,4986
1.7595537,4987
1.8444992,4988
1.8400221,4989
1.8940413,4990
1.7625568,4991
1.7507182,4992
1.7963437,4993
1.7753861,4994
1.7989125,4995
1.8277997,4996
1.9661431,4997
1.9781783,4998
1.7205766,4999
1.5928793,5000
1.7341967,5001
1.7790681,5002
1.8410804,5003
1.7726345,5004
1.7876668,5005
1.8236029,5006
1.8493773,5007
1.8457936,5008
1.887839,5009
1.880905,5010
2.1264997,5011
1.8975087,5012
1.8882312,5013
1.5920613,5014
1.7524508,5015
1.8274132,5016
1.8121232,5017
2.0025802,5018
1.9859189,5019
1.8579488,5020
1.824059,5021
1.8503565,5022
1.8379787,5023
1.9403594,5024
1.9665688,5025
1.9399301,5026
1.7976403,5027
1.764492,5028
1.9326482,5029
1.8269079,5030
1.869453,5031
1.9663856,5032
1.9402249,5033
2.0636134,5034
2.0199378,5035
1.8493749,5036
1.8315402,5037
1.8763186,5038
1.8415564,5039
1.9665147,5040
1.9353422,5041
1.9475656,5042
1.933876,5043
1.9008007,5044
1.9433888,5045
1.904909,5046
1.9826525,5047
2.0925167,5048
2.0094795,5049
1.861471,5050
1.7521361,5051
1.8190764,5052
1.9375925,5053
1.9809527,5054
2.000666,5055
1.9496069,5056
1.9545051,5057
2.0291786,5058
1.8465112,5059
1.7155068,5060
1.9099377,5061
1.935791,5062
1.9524233,5063
1.8299097,5064
1.8389078,5065
1.9056623,5066
1.8828925,5067
2.0562751,5068
1.9849396,5069
2.04785,5070
2.0513816,5071
2.0991971,5072
1.8412588,5073
1.6471307,5074
1.7703387,5075
1.7953275,5076
1.9830779,5077
1.846895,5078
1.876092,5079
2.0367527,5080
1.9997163,5081
1.9295963,5082
1.7484866,5083
1.7021948,5084
1.7665122,5085
1.7121031,5086
1.7548528,5087
1.6050279,5088
1.632353,5089
1.7741122,5090
1.86128,5091
1.8249356,5092
1.7741688,5093
1.8416517,5094
1.770002,5095
1.6609728,5096
1.9282428,5097
1.866419,5098
2.0732036,5099
1.9953916,5100
1.658217,5101
1.7213075,5102
1.7015336,5103
1.7581447,5104
1.8286378,5105
1.658187,5106
1.8152584,5107
1.7412813,5108
1.8448932,5109
1.8271705,5110
1.8016773,5111
1.7725389,5112
1.7765018,5113
1.7146523,5114
1.7397755,5115
1.7754191,5116
1.69255,5117
1.883165,5118
1.8190573,5119
1.6713892,5120
1.7951365,5121
1.9123822,5122
1.9353372,5123
1.685103,5124
1.6756996,5125
1.7411199,5126
1.7471396,5127
1.7068986,5128
1.6991314,5129
1.6903954,5130
1.835236,5131
1.6746689,5132
1.79847,5133
1.6477413,5134
1.7245632,5135
1.931085,5136
1.8919944,5137
1.7773976,5138
1.7681859,5139
1.7234422,5140
1.7412211,5141
1.828145,5142
1.8171462,5143
1.9863949,5144
1.9150834,5145
1.9114069,5146
1.8335232,5147
1.5952363,5148
1.8473532,5149
1.7786982,5150
1.7806906,5151
1.8814201,5152
1.8785527,5153
1.8425844,5154
1.7268666,5155
1.8206584,5156
1.7888247,5157
1.8621734,5158
1.9065827,5159
1.8389168,5160
1.6807414,5161
1.6549298,5162
1.816651,5163
1.7035369,5164
1.7671438,5165
1.8357463,5166
1.8157315,5167
1.785264,5168
1.7811481,5169
1.8638077,5170
1.8047644,5171
1.8684673,5172
1.9377472,5173
1.9427476,5174
1.8669269,5175
1.7460113,5176
1.7802782,5177
1.8218699,5178
1.9717016,5179
1.9176625,5180
1.8561505,5181
1.9642764,5182
1.9481776,5183
1.7944323,5184
1.8265526,5185
1.8820716,5186
1.9824425,5187
1.979403,5188
1.8004613,5189
1.8239471,5190
1.8040444,5191
1.7652867,5192
1.870996,5193
1.8676115,5194
1.7863905,5195
1.824651,5196
1.9427098,5197
1.6724026,5198
1.8344971,5199
1.803755,5200
1.8146045,5201
1.9128398,5202
1.8930974,5203
1.8638461,5204
2.0425386,5205
2.1234946,5206
1.804742,5207
1.7785677,5208
1.6736426,5209
1.8753513,5210
1.9071147,5211
1.8299837,5212
1.9390708,5213
1.9282862,5214
1.9341043,5215
1.9445032,5216
1.9495536,5217
1.8226506,5218
1.9035208,5219
1.862198,5220
1.7589718,5221
1.6669707,5222
1.8642317,5223
1.9309331,5224
1.9345592,5225
1.9189914,5226
2.047851,5227
2.0225596,5228
1.9473165,5229
1.8680886,5230
1.7057769,5231
1.7094412,5232
1.733273,5233
1.5928825,5234
1.6366463,5235
1.7039161,5236
1.7058595,5237
1.7485734,5238
1.7291958,5239
1.702279,5240
1.7182078,5241
1.651882,5242
1.6623485,5243
1.664267,5244
1.7652584,5245
1.6497161,5246
1.8230362,5247
1.8860484,5248
1.7030435,5249
1.8033806,5250
1.7840387,5251
1.6585557,5252
1.70143,5253
1.658698,5254
1.6890686,5255
1.7408792,5256
1.8642012,5257
1.8437257,5258
1.7816668,5259
1.6771111,5260
1.7197348,5261
1.7080662,5262
1.7414567,5263
1.8406662,5264
1.7898455,5265
1.9271083,5266
1.7609156,5267
1.706858,5268
1.7068592,5269
1.8046238,5270
1.7579058,5271
1.6062073,5272
1.5675257,5273
1.7186415,5274
1.7682097,5275
1.7298185,5276
1.8656278,5277
1.9020084,5278
1.8451003,5279
1.7943785,5280
1.6150315,5281
1.6990179,5282
1.8785901,5283
1.8952675,5284
1.8408687,5285
1.7675338,5286
1.688742,5287
1.8007647,5288
1.7930676,5289
1.7704809,5290
1.91194,5291
1.8790345,5292
1.7957896,5293
1.905571,5294
1.5776509,5295
1.6145401,5296
1.6433595,5297
1.6498394,5298
1.8686271,5299
1.9179994,5300
1.7952807,5301
1.9325267,5302
1.8662055,5303
1.7658902,5304
1.9055487,5305
1.9802542,5306
2.0684278,5307
1.8139993,5308
1.5895308,5309
1.5085306,5310
1.4796939,5311
1.8031666,5312
1.7816312,5313
1.980959,5314
1.9070338,5315
1.9644312,5316
2.0164843,5317
1.8995923,5318
1.8368582,5319
1.9841543,5320
1.8995445,5321
1.9254234,5322
1.6466732,5323
1.7409877,5324
1.6406429,5325
1.6924064,5326
1.8896648,5327
1.9940039,5328
2.0428035,5329
2.1010675,5330
1.9568311,5331
1.5117159,5332
1.4326606,5333
1.5461196,5334
1.6569257,5335
1.7296036,5336
1.91972,5337
1.8350756,5338
1.9265178,5339
1.8876024,5340
2.0828955,5341
1.978756,5342
2.0193505,5343
2.1853247,5344
1.7998321,5345
1.4506146,5346
1.5266087,5347
1.5343777,5348
1.5702544,5349
1.8465018,5350
1.8660799,5351
1.7924215,5352
1.8204364,5353
2.0081844,5354
1.970672,5355
1.7885714,5356
1.8836701,5357
1.9957268,5358
1.7278396,5359
1.6380982,5360
1.6561661,5361
1.5703038,5362
1.7500556,5363
1.9346318,5364
2.0132396,5365
2.066537,5366
2.1461778,5367
1.9517581,5368
1.4680182,5369
1.3179086,5370
1.5696098,5371
1.5618106,5372
1.6572657,5373
1.740457,5374
1.7149124,5375
1.739714,5376
1.7407421,5377
1.90559,5378
1.9398785,5379
1.8180581,5380
1.7467312,5381
1.5735385,5382
1.3043118,5383
1.3201569,5384
1.3811735,5385
1.465019,5386
1.6221821,5387
1.8036405,5388
1.7118994,5389
1.7231344,5390
1.6404278,5391
1.9565175,5392
1.9171757,5393
1.8350741,5394
1.9567124,5395
1.7222341,5396
1.3697587,5397
1.3505266,5398
1.573906,5399
1.5797434,5400
1.6416345,5401
1.7701904,5402
1.7688409,5403
1.8988122,5404
1.7150762,5405
1.3958321,5406
1.5066541,5407
1.5153577,5408
1.7719553,5409
1.6622032,5410
1.641482,5411
1.7716339,5412
1.7330562,5413
1.7576137,5414
1.797629,5415
1.8164161,5416
1.9140375,5417
1.9628655,5418
1.6314303,5419
1.626863,5420
1.6152828,5421
1.6918291,5422
1.7169969,5423
1.7333323,5424
1.6774927,5425
1.7373191,5426
1.711668,5427
1.8038386,5428
1.800749,5429
1.7772846,5430
1.6637871,5431
1.7410644,5432
1.6919723,5433
1.6726414,5434
1.5333459,5435
1.6616867,5436
1.7301009,5437
1.8636949,5438
1.7251381,5439
1.8219689,5440
1.7230303,5441
1.7499925,5442
1.6565661,5443
1.7144219,5444
1.8111559,5445
1.8484349,5446
1.8043672,5447
1.6303438,5448
1.6194288,5449
1.6731141,5450
1.7724077,5451
2.066438,5452
2.0093179,5453
1.9180187,5454
1.8905126,5455
1.7738152,5456
1.60223,5457
1.9213418,5458
1.8798673,5459
1.8587651,5460
1.866989,5461
1.7736065,5462
1.8668047,5463
1.8755479,5464
1.8092711,5465
1.8873574,5466
1.9754467,5467
1.8492206,5468
1.9090906,5469
1.8967047,5470
1.7129085,5471
1.8492916,5472
1.8695656,5473
1.8546412,5474
2.023694,5475
2.103191,5476
2.05501,5477
1.787003,5478
1.9012994,5479
1.7903184,5480
1.7568374,5481
2.020126,5482
2.0519578,5483
1.9184806,5484
1.8997419,5485
1.9710258,5486
1.768517,5487
1.9242489,5488
2.1053963,5489
1.9881418,5490
1.9486424,5491
1.9823247,5492
1.805408,5493
1.6561059,5494
1.9405274,5495
1.865123,5496
2.0050573,5497
1.9760485,5498
2.011357,5499
1.9062066,5500
2.1038094,5501
1.7773956,5502
1.7707487,5503
1.8837607,5504
1.9405986,5505
1.9967076,5506
1.8489372,5507
1.7727371,5508
1.8480021,5509
1.9816618,5510
1.8358134,5511
1.9342703,5512
2.0412989,5513
2.1813734,5514
1.9585682,5515
1.7953591,5516
1.7309208,5517
1.8765378,5518
2.0533397,5519
2.0777793,5520
1.8554657,5521
1.9493166,5522
2.035201,5523
2.0027092,5524
1.9584485,5525
1.9684268,5526
1.8146993,5527
1.8029264,5528
1.8233781,5529
1.6579292,5530
1.6173176,5531
1.794757,5532
1.7506713,5533
1.9109123,5534
1.7871373,5535
1.714534,5536
1.7277964,5537
1.8650395,5538
1.8080142,5539
1.8188277,5540
2.0222995,5541
1.8056751,5542
2.015371,5543
1.6985327,5544
1.7730606,5545
1.7604048,5546
1.806058,5547
1.8224113,5548
1.6334561,5549
1.6728481,5550
1.7856592,5551
1.796818,5552
1.8143862,5553
2.0045502,5554
1.9529102,5555
1.932764,5556
1.9086074,5557
1.7818244,5558
1.6996852,5559
1.8618044,5560
1.8495132,5561
1.787795,5562
1.7579721,5563
1.854671,5564
1.9911314,5565
1.8598794,5566
1.6079154,5567
1.7313867,5568
1.673418,5569
1.9078262,5570
1.7643859,5571
1.7475139,5572
1.8522867,5573
1.8640966,5574
1.8650011,5575
1.8692272,5576
1.6475043,5577
1.7666523,5578
1.917574,5579
1.862513,5580
1.7523134,5581
1.7424566,5582
1.7396928,5583
1.8160071,5584
1.8874737,5585
1.8708794,5586
1.8391143,5587
1.9404225,5588
2.0821126,5589
1.737181,5590
1.7569422,5591
1.8577268,5592
1.8205477,5593
1.929911,5594
1.8872467,5595
1.8304588,5596
2.0650938,5597
2.0201774,5598
1.9483455,5599
1.850643,5600
1.9885676,5601
1.8815783,5602
2.0368035,5603
1.744983,5604
1.7489581,5605
1.8791192,5606
1.9632248,5607
1.903691,5608
1.8432926,5609
1.9354278,5610
1.9391766,5611
2.0662866,5612
1.8163246,5613
1.8465136,5614
1.857747,5615
1.9548148,5616
1.8713764,5617
1.7462867,5618
1.9265434,5619
1.9702058,5620
1.9438148,5621
1.9334469,5622
1.8793015,5623
1.8809898,5624
1.8946785,5625
2.0996113,5626
1.8281722,5627
1.7579757,5628
1.8655512,5629
1.8759592,5630
1.9146631,5631
1.9582442,5632
1.9970785,5633
1.9153228,5634
1.9989542,5635
1.8852042,5636
1.8900032,5637
1.810732,5638
1.8408251,5639
1.9750445,5640
1.8037676,5641
1.8743371,5642
1.8460221,5643
1.8766922,5644
1.9821585,5645
2.0233953,5646
1.9793283,5647
1.9526681,5648
1.9802345,5649
1.8602389,5650
1.8523159,5651
1.8827496,5652
1.8186622,5653
1.9496112,5654
1.7394598,5655
1.9062576,5656
1.9688294,5657
1.8914385,5658
1.9193634,5659
1.9520389,5660
1.8464726,5661
1.9184468,5662
1.9824356,5663
1.9141934,5664
1.7938391,5665
1.7863857,5666
1.9168736,5667
1.9686569,5668
1.9320985,5669
1.9659729,5670
1.9588102,5671
2.0826602,5672
1.7785956,5673
1.7621346,5674
1.7690504,5675
1.6567134,5676
1.8893354,5677
1.6358299,5678
1.6882443,5679
1.7508804,5680
1.73426,5681
1.7314731,5682
1.8409884,5683
1.7484968,5684
1.7870125,5685
1.8179766,5686
1.7144253,5687
1.6490037,5688
1.6064327,5689
1.6927477,5690
1.7709047,5691
1.6668434,5692
1.5708296,5693
1.726075,5694
1.7248772,5695
1.6899102,5696
1.6467739,5697
1.6712642,5698
1.7659543,5699
1.818833,5700
1.730184,5701
1.7637335,5702
1.7547725,5703
1.7457285,5704
1.7519308,5705
1.634153,5706
1.5626832,5707
1.852882,5708
1.769426,5709
1.7278044,5710
1.8039987,5711
1.7996271,5712
1.7194706,5713
1.8788869,5714
1.6813338,5715
1.6323119,5716
1.6507514,5717
1.8036243,5718
1.6280868,5719
1.609051,5720
1.7530178,5721
1.9088914,5722
1.884165,5723
1.5761316,5724
1.6275997,5725
1.7144837,5726
1.6796002,5727
1.8177807,5728
1.5889853,5729
1.5667917,5730
1.737954,5731
1.7920659,5732
1.6806617,5733
1.5735066,5734
1.6891154,5735
1.6367545,5736
1.6053277,5737
1.6662451,5738
1.6565378,5739
1.7717543,5740
1.8412862,5741
1.7069871,5742
1.4021417,5743
1.3600855,5744
1.3528317,5745
1.3063498,5746
1.7821043,5747
1.6267995,5748
1.8134884,5749
1.8628048,5750
1.7757367,5751
1.6038313,5752
1.597433,5753
1.7351903,5754
1.4954097,5755
1.6441692,5756
1.551125,5757
1.6082917,5758
1.5378897,5759
1.5675509,5760
1.7018343,5761
1.7184625,5762
1.5812284,5763
1.6969224,5764
1.7089875,5765
1.6730585,5766
1.7851189,5767
1.6978327,5768
1.6559625,5769
1.5311584,5770
1.4453391,5771
1.2673382,5772
1.536576,5773
1.4000535,5774
1.7656965,5775
1.7148522,5776
1.8741049,5777
1.882531,5778
1.6827118,5779
1.5336592,5780
1.2459561,5781
1.266125,5782
1.1512316,5783
1.5127758,5784
1.5705703,5785
1.5811436,5786
1.7800144,5787
1.6753451,5788
1.6464529,5789
1.5380121,5790
1.5988653,5791
1.563213,5792
1.5562736,5793
1.5123637,5794
1.3787336,5795
1.4262551,5796
1.4891547,5797
1.542444,5798
1.6179248,5799
1.510362,5800
1.5474076,5801
1.5056772,5802
1.5770154,5803
1.5165057,5804
1.5469816,5805
1.7885649,5806
1.3751063,5807
1.2094421,5808
1.1870279,5809
1.369596,5810
1.3331555,5811
1.6140112,5812
1.7674892,5813
1.7471461,5814
1.8538222,5815
1.5206957,5816
1.268482,5817
1.2396384,5818
1.1593117,5819
1.1078998,5820
1.3171935,5821
1.4189371,5822
1.5214063,5823
1.4834052,5824
1.5352522,5825
1.4660386,5826
1.5719253,5827
1.5816847,5828
1.4979143,5829
1.5193852,5830
1.4167879,5831
1.3964939,5832
1.4813787,5833
1.4693002,5834
1.3047725,5835
1.1149162,5836
1.2092512,5837
1.1841477,5838
1.3328733,5839
1.3524678,5840
1.4540033,5841
1.4447885,5842
1.4441689,5843
1.452682,5844
1.4843339,5845
1.451354,5846
1.505413,5847
1.4419332,5848
1.5314289,5849
1.6231567,5850
1.6504588,5851
1.750256,5852
1.4917477,5853
1.5752482,5854
1.4538491,5855
1.4258155,5856
1.4081686,5857
1.4539838,5858
1.4103396,5859
1.4716494,5860
1.5574514,5861
1.5308288,5862
1.6132354,5863
1.4826801,5864
1.4810528,5865
1.4840741,5866
1.5004328,5867
1.3606197,5868
1.4632682,5869
1.4928687,5870
1.5375713,5871
1.4970801,5872
1.4231341,5873
1.45276,5874
1.3459874,5875
1.347986,5876
1.4456466,5877
1.4192741,5878
1.4396664,5879
1.2438979,5880
1.1965781,5881
1.1117011,5882
1.0724337,5883
1.097459,5884
1.2750306,5885
1.4498461,5886
1.3877008,5887
1.433606,5888
1.4090874,5889
1.1948476,5890
1.1047364,5891
0.98363954,5892
1.029744,5893
0.9381661,5894
0.9512943,5895
0.9495831,5896
0.9149061,5897
0.88515276,5898
1.0399164,5899
1.2734047,5900
1.12761,5901
1.1306034,5902
1.1056553,5903
0.960281,5904
0.96331006,5905
1.0116603,5906
0.90739393,5907
0.9676848,5908
0.8869667,5909
0.8699114,5910
0.99842644,5911
1.1526705,5912
1.1438758,5913
1.147485,5914
1.1219162,5915
1.1345911,5916
1.0730335,5917
1.2556679,5918
1.1116229,5919
1.0707536,5920
0.98084587,5921
1.3228626,5922
1.2962468,5923
1.3153449,5924
1.4398769,5925
1.4167727,5926
1.3597256,5927
1.2502978,5928
1.1945994,5929
1.1058059,5930
1.1081072,5931
1.2335042,5932
1.1391703,5933
1.0329434,5934
1.0015342,5935
1.3357506,5936
1.151997,5937
1.1681231,5938
1.443608,5939
1.4260306,5940
1.3877406,5941
1.2184385,5942
1.0524069,5943
1.069917,5944
1.2491586,5945
1.311416,5946
1.1513792,5947
1.2464032,5948
1.1034098,5949
1.1418464,5950
1.1542435,5951
1.085614,5952
1.119272,5953
1.1030703,5954
1.165917,5955
1.0245299,5956
1.0764799,5957
1.009401,5958
1.3529655,5959
1.2734224,5960
1.3136821,5961
1.2904772,5962
1.3830286,5963
1.1923399,5964
1.0434482,5965
1.0891185,5966
1.1081647,5967
1.1130372,5968
1.0472696,5969
1.0659738,5970
0.9703803,5971
1.0222719,5972
1.343129,5973
1.2883841,5974
1.2652255,5975
1.314689,5976
1.1286793,5977
1.0768112,5978
1.0603683,5979
0.978943,5980
1.0398833,5981
1.0195817,5982
0.8750307,5983
0.8276857,5984
0.92637664,5985
0.8678716,5986
0.9212047,5987
0.92961603,5988
0.782489,5989
0.86144257,5990
0.8105978,5991
0.99881494,5992
1.0889556,5993
1.0394003,5994
1.1237695,5995
1.007249,5996
0.9465125,5997
0.98128325,5998
1.0064735,5999
1.0484589,6000
0.98192006,6001
1.0358349,6002
1.1287038,6003
1.1135244,6004
1.0353472,6005
1.0630859,6006
1.0949912,6007
1.0788386,6008
1.1475567,6009
1.0313598,6010
1.0780969,6011
1.059504,6012
1.1781919,6013
1.1913167,6014
1.387222,6015
1.414798,6016
1.3344805,6017
1.2687653,6018
1.2360332,6019
1.145042,6020
1.0581563,6021
0.9611206,6022
1.1239908,6023
1.1259847,6024
1.2743547,6025
1.2008946,6026
1.3381972,6027
1.0457218,6028
0.9637034,6029
0.90534276,6030
1.097074,6031
1.2073866,6032
1.2182443,6033
1.3010381,6034
1.2251709,6035
1.2027433,6036
1.2393899,6037
0.8229095,6038
0.8766199,6039
0.89449126,6040
0.801757,6041
1.1057581,6042
1.286434,6043
1.1944976,6044
1.2440007,6045
1.2935065,6046
1.1057492,6047
1.0752083,6048
1.2153361,6049
1.1362711,6050
1.3419427,6051
1.3387303,6052
1.4356941,6053
1.4106448,6054
1.3705292,6055
1.1630615,6056
1.0397495,6057
1.0415365,6058
1.1281866,6059
1.1087245,6060
1.1879596,6061
1.2087508,6062
1.1226416,6063
1.2055391,6064
1.0494595,6065
0.9715218,6066
0.99863654,6067
1.1028516,6068
1.1233217,6069
1.3345418,6070
1.4108002,6071
1.2620597,6072
1.220088,6073
1.2901715,6074
0.8622915,6075
0.8455818,6076
0.8300691,6077
0.9415927,6078
1.1015497,6079
1.2299805,6080
1.1197517,6081
1.1478688,6082
1.2820042,6083
1.0097648,6084
1.1033425,6085
1.1730665,6086
1.2183986,6087
1.2719861,6088
1.2943482,6089
1.370538,6090
1.3403808,6091
1.3949908,6092
1.1120403,6093
1.0699778,6094
1.0125135,6095
1.1600752,6096
1.1393766,6097
1.1478208,6098
1.1006052,6099
1.1856846,6100
1.2360905,6101
1.0111463,6102
0.9686466,6103
1.0284079,6104
1.0830953,6105
1.2288313,6106
1.247839,6107
1.2679783,6108
1.2026322,6109
1.2252039,6110
1.2608461,6111
0.8728561,6112
0.89749354,6113
0.806622,6114
0.9475245,6115
1.0113734,6116
1.2013826,6117
1.2120563,6118
1.1626751,6119
1.1717741,6120
1.0530266,6121
1.0298876,6122
1.2446129,6123
1.1748053,6124
1.4302686,6125
1.3774499,6126
1.5543426,6127
1.5540622,6128
1.4676075,6129
1.002328,6130
0.7762831,6131
0.8778577,6132
0.9792444,6133
0.95238143,6134
1.058794,6135
1.1590414,6136
1.134411,6137
1.1552596,6138
1.0831941,6139
1.1049591,6140
1.1909132,6141
1.2521844,6142
1.1335295,6143
1.3149065,6144
1.5157293,6145
1.4948308,6146
1.5896176,6147
1.3591971,6148
1.0500673,6149
0.91310585,6150
1.1212314,6151
1.0899885,6152
1.2091146,6153
1.4007466,6154
1.3107826,6155
1.3017896,6156
1.2682285,6157
1.0723189,6158
1.1131837,6159
1.2549602,6160
1.1176966,6161
1.3441386,6162
1.4443496,6163
1.5276425,6164
1.5806063,6165
1.6047703,6166
1.0450449,6167
1.1135494,6168
1.173465,6169
1.0946329,6170
1.1666069,6171
1.2448859,6172
1.3602675,6173
1.1840863,6174
1.2631884,6175
0.9938878,6176
0.9548884,6177
1.0326358,6178
1.2071012,6179
1.2169389,6180
1.2274084,6181
1.2473539,6182
1.2679974,6183
1.2038767,6184
1.1604694,6185
0.9266782,6186
0.926061,6187
0.8803462,6188
0.8874221,6189
1.1341414,6190
1.1018776,6191
1.1978697,6192
1.2732443,6193
1.1809138,6194
1.0160902,6195
1.0928913,6196
1.2397045,6197
1.2564301,6198
1.2523478,6199
1.3412682,6200
1.4374793,6201
1.5164686,6202
1.5998336,6203
1.0020577,6204
1.0429038,6205
1.0352699,6206
1.1202055,6207
1.175573,6208
1.1685944,6209
1.1623765,6210
1.259642,6211
1.2626604,6212
0.95429116,6213
0.9449842,6214
1.012658,6215
1.1689404,6216
1.1982391,6217
1.2122041,6218
1.3492422,6219
1.2615457,6220
1.2680199,6221
1.1906444,6222
0.88084376,6223
0.85185665,6224
0.92935205,6225
1.0090567,6226
1.0744123,6227
1.2439038,6228
1.1886007,6229
1.2579554,6230
1.0544676,6231
1.034617,6232
1.1116908,6233
1.2397304,6234
1.1676869,6235
1.3382267,6236
1.3927964,6237
1.4227344,6238
1.3913041,6239
1.5558918,6240
1.0161915,6241
1.0935563,6242
1.0927746,6243
1.0783798,6244
1.1063579,6245
1.1414438,6246
1.1222603,6247
1.2179687,6248
1.2345517,6249
0.9616492,6250
0.94861835,6251
1.0620116,6252
1.1321684,6253
1.2385153,6254
1.2175957,6255
1.2521789,6256
1.1820928,6257
1.2407453,6258
1.0678577,6259
0.87369996,6260
0.8467657,6261
0.85690516,6262
0.9411964,6263
0.90756375,6264
0.92284894,6265
0.9775012,6266
1.0666957,6267
1.2055849,6268
1.2701899,6269
1.1942418,6270
1.2834268,6271
1.2488607,6272
1.146066,6273
1.1697444,6274
1.3348539,6275
1.5164138,6276
1.4426615,6277
0.8776446,6278
0.7987286,6279
0.92075527,6280
0.9450021,6281
0.9529932,6282
1.1619171,6283
1.1027901,6284
1.2287952,6285
1.1900104,6286
1.0158147,6287
1.1132389,6288
1.2068272,6289
1.193169,6290
1.2328842,6291
1.379674,6292
1.491303,6293
1.5768454,6294
1.7015214,6295
1.2204106,6296
1.0496019,6297
1.0330637,6298
1.011573,6299
1.1450987,6300
1.1877666,6301
1.2420478,6302
1.2169034,6303
1.3137089,6304
1.0613958,6305
1.1087909,6306
1.1014909,6307
1.2281619,6308
1.1707268,6309
1.3536747,6310
1.3999959,6311
1.4770323,6312
1.4595476,6313
1.4390566,6314
0.97691846,6315
1.1194594,6316
1.1235138,6317
1.1455753,6318
1.0997353,6319
1.202002,6320
1.1635863,6321
1.2160659,6322
1.2150996,6323
0.9651818,6324
0.9254499,6325
1.0323261,6326
1.1553761,6327
1.3145027,6328
1.4016368,6329
1.2662643,6330
1.2310331,6331
1.2035109,6332
1.0908527,6333
0.8528827,6334
0.8491194,6335
0.8163794,6336
0.9630649,6337
1.0592092,6338
1.052167,6339
1.0807958,6340
1.2664948,6341
1.1210188,6342
1.1625649,6343
1.1987411,6344
1.1717635,6345
1.3027253,6346
1.245202,6347
1.3754692,6348
1.3466359,6349
1.3412075,6350
1.3216789,6351
0.9639196,6352
1.0674567,6353
1.0574502,6354
1.0662389,6355
1.0839753,6356
1.2052444,6357
1.1551696,6358
1.1531225,6359
1.2124333,6360
0.9710708,6361
0.90993404,6362
0.99660015,6363
1.200371,6364
1.3547482,6365
1.3106415,6366
1.3610635,6367
1.2565433,6368
1.2829255,6369
0.9337626,6370
0.9044532,6371
0.83712673,6372
0.92431545,6373
0.9271068,6374
1.0159521,6375
1.0759218,6376
1.0061383,6377
1.2273242,6378
1.0916586,6379
1.0550404,6380
1.1210393,6381
1.2208546,6382
1.2958201,6383
1.2403706,6384
1.4151865,6385
1.3714553,6386
1.537135,6387
1.4022123,6388
1.0491798,6389
1.0169008,6390
1.0428722,6391
1.1685897,6392
1.0423787,6393
1.1798593,6394
1.1227067,6395
1.2174294,6396
1.1206902,6397
0.9088773,6398
0.9257852,6399
1.0445596,6400
1.1972915,6401
1.2362821,6402
1.3080256,6403
1.2170143,6404
1.2468919,6405
1.3825368,6406
0.93299603,6407
0.8550345,6408
0.86282223,6409
0.8681896,6410
1.0595765,6411
1.0932236,6412
1.0812898,6413
1.1274295,6414
1.1930873,6415
1.0386686,6416
1.0855471,6417
1.1970134,6418
1.2310052,6419
1.3429525,6420
1.3488241,6421
1.4500996,6422
1.4050009,6423
1.5242387,6424
1.1413026,6425
0.80418766,6426
0.8590137,6427
0.7885367,6428
0.9148754,6429
1.0963894,6430
1.1246932,6431
1.1361613,6432
1.1848875,6433
1.1760174,6434
1.1173085,6435
1.0731541,6436
1.1878692,6437
1.167325,6438
1.4133753,6439
1.3647248,6440
1.5840064,6441
1.6358349,6442
1.611017,6443
1.024218,6444
1.0550871,6445
1.0886406,6446
1.1426018,6447
1.193107,6448
1.1605198,6449
1.2993082,6450
1.2685502,6451
1.2752802,6452
1.0600667,6453
1.1907551,6454
1.1532806,6455
1.2406214,6456
1.287542,6457
1.4414617,6458
1.5614871,6459
1.6417036,6460
1.527805,6461
1.3056649,6462
0.9679239,6463
1.0952169,6464
1.1517586,6465
1.1548282,6466
1.1545589,6467
1.2630763,6468
1.2323972,6469
1.2143773,6470
1.1006818,6471
0.99651057,6472
0.960269,6473
1.0904276,6474
1.2727197,6475
1.263283,6476
1.2732033,6477
1.4037044,6478
1.1884085,6479
1.2882873,6480
0.92022413,6481
0.876004,6482
0.85309523,6483
0.9555284,6484
0.9163055,6485
1.0575546,6486
1.1300161,6487
1.2057906,6488
1.1425855,6489
1.0759667,6490
1.1212453,6491
1.2680695,6492
1.2463193,6493
1.4239005,6494
1.4884744,6495
1.5354799,6496
1.5588266,6497
1.5432025,6498
1.235344,6499
0.97700065,6500
1.0612607,6501
1.08236,6502
1.1904781,6503
1.174521,6504
1.1823266,6505
1.1834878,6506
1.2646496,6507
1.1059874,6508
0.8851503,6509
0.9430979,6510
1.0481712,6511
1.2441626,6512
1.3105322,6513
1.3345749,6514
1.3082032,6515
1.3207564,6516
1.3681697,6517
0.8692974,6518
0.85764056,6519
0.9100029,6520
0.9621689,6521
0.99830455,6522
1.0434458,6523
1.0957098,6524
1.2681707,6525
1.2804137,6526
1.1046159,6527
1.1875446,6528
1.2437481,6529
1.3820206,6530
1.5048752,6531
1.515593,6532
1.6021118,6533
1.4525317,6534
1.4648256,6535
1.2246722,6536
1.0671523,6537
1.0131397,6538
1.1307031,6539
1.1189401,6540
1.1512239,6541
1.1467929,6542
1.2719518,6543
1.327586,6544
1.0196619,6545
0.92501694,6546
0.95438695,6547
1.0644112,6548
1.1355584,6549
1.3387702,6550
1.2927871,6551
1.3334256,6552
1.470773,6553
1.3521991,6554
0.89196515,6555
0.9222853,6556
0.89919686,6557
0.95852333,6558
0.9654488,6559
0.8695186,6560
0.9925524,6561
1.0572815,6562
1.177703,6563
1.345279,6564
1.2452925,6565
1.3367343,6566
1.3468423,6567
1.3442067,6568
1.1618245,6569
1.3591042,6570
1.4291403,6571
1.4840306,6572
0.99411905,6573
0.77706695,6574
0.8585305,6575
0.8353545,6576
0.91187924,6577
1.1268309,6578
1.1721411,6579
1.2196625,6580
1.4332252,6581
1.0798719,6582
1.0206207,6583
1.1061652,6584
1.15217,6585
1.1648103,6586
1.3752902,6587
1.51712,6588
1.6795744,6589
1.5266334,6590
1.4969984,6591
0.98365957,6592
0.97063065,6593
1.0573697,6594
1.0752298,6595
1.045173,6596
1.2086482,6597
1.0970949,6598
1.2287449,6599
1.2029635,6600
1.1279228,6601
1.1785086,6602
1.2417945,6603
1.3464284,6604
1.5240091,6605
1.3057061,6606
1.5246127,6607
1.454554,6608
1.5467309,6609
1.0542696,6610
1.1005977,6611
1.0742809,6612
1.1138413,6613
1.1359875,6614
1.2059664,6615
1.2307019,6616
1.1253763,6617
1.3295236,6618
0.9585477,6619
0.87245786,6620
0.92608005,6621
1.0598155,6622
1.2219428,6623
1.1849667,6624
1.3798598,6625
1.1982212,6626
1.2005467,6627
1.2475437,6628
0.84638476,6629
0.83746403,6630
0.9270324,6631
0.9339286,6632
0.96874386,6633
1.1433,6634
1.0673192,6635
1.2648252,6636
1.1927679,6637
1.0504777,6638
1.156626,6639
1.2773577,6640
1.1362978,6641
1.3234192,6642
1.2049459,6643
1.2963245,6644
1.3232181,6645
1.4187248,6646
0.9366281,6647
1.0487404,6648
1.0813849,6649
0.9818044,6650
1.1438396,6651
1.1538095,6652
1.205007,6653
1.1490897,6654
1.1974705,6655
0.88316387,6656
0.94191647,6657
0.9763544,6658
1.0814883,6659
1.1969007,6660
1.2654582,6661
1.3053705,6662
1.1863322,6663
1.2122983,6664
1.1940085,6665
0.88649297,6666
0.7967714,6667
0.8593216,6668
0.9253462,6669
1.0008172,6670
1.20593,6671
1.1016145,6672
1.1273049,6673
1.115464,6674
1.0338093,6675
1.0472475,6676
1.1498036,6677
1.2680453,6678
1.3998595,6679
1.3551005,6680
1.4467661,6681
1.4168706,6682
1.4536086,6683
0.98354065,6684
0.9852243,6685
1.0329742,6686
1.1109068,6687
1.0009423,6688
1.1461071,6689
1.2011201,6690
1.179671,6691
1.1807036,6692
0.9739363,6693
0.90533733,6694
0.9962375,6695
1.1637412,6696
1.214228,6697
1.2315314,6698
1.2359438,6699
1.2906655,6700
1.283509,6701
1.1080905,6702
0.9094484,6703
0.8371942,6704
0.85568976,6705
0.942153,6706
1.0686169,6707
1.1749501,6708
1.2423189,6709
1.2832862,6710
1.1851951,6711
1.090936,6712
1.1417153,6713
1.2752097,6714
1.232179,6715
1.3560338,6716
1.506264,6717
1.6294389,6718
1.7588174,6719
1.6542659,6720
0.8756885,6721
0.8880002,6722
0.8443073,6723
0.94304156,6724
0.9476271,6725
1.1497341,6726
1.1781188,6727
1.1306689,6728
1.1677037,6729
1.0551417,6730
1.1550881,6731
1.1178467,6732
1.2149193,6733
1.2943034,6734
1.5560323,6735
1.5665022,6736
1.6313797,6737
1.4615666,6738
1.136238,6739
1.045018,6740
1.0066903,6741
1.1082604,6742
1.196212,6743
1.1362287,6744
1.217279,6745
1.2612675,6746
1.2518584,6747
1.1297096,6748
1.1049163,6749
1.066395,6750
1.1687158,6751
1.1555233,6752
1.3352472,6753
1.3501271,6754
1.4909189,6755
1.4690421,6756
1.4984664,6757
1.0704788,6758
0.932766,6759
1.1027555,6760
1.1211166,6761
1.1134049,6762
1.1622409,6763
1.1952093,6764
1.2150083,6765
1.1430788,6766
0.90563685,6767
0.9386472,6768
1.0788915,6769
1.2063352,6770
1.1946101,6771
1.3420297,6772
1.3270234,6773
1.237088,6774
1.294379,6775
1.022613,6776
0.8382765,6777
0.82453924,6778
0.8198158,6779
0.8964293,6780
1.0423162,6781
1.1747227,6782
1.1233057,6783
1.3359214,6784
1.147639,6785
1.1002448,6786
1.123426,6787
1.1883721,6788
1.1837685,6789
1.3549013,6790
1.4135971,6791
1.4701754,6792
1.3748204,6793
1.3560071,6794
0.9410643,6795
0.9830932,6796
1.0581346,6797
1.1798153,6798
1.0444661,6799
1.2454242,6800
1.1527599,6801
1.2268271,6802
1.1102831,6803
0.96150964,6804
0.92697954,6805
1.0525231,6806
1.2836155,6807
1.3957798,6808
1.3372157,6809
1.3161281,6810
1.2168292,6811
1.2791406,6812
0.9211397,6813
0.86502385,6814
0.8078292,6815
0.86785597,6816
0.94274914,6817
1.0692277,6818
1.1461517,6819
1.1266406,6820
1.3644608,6821
1.114731,6822
1.0517102,6823
1.1080152,6824
1.2280838,6825
1.2988778,6826
1.3024013,6827
1.4291486,6828
1.4922318,6829
1.3205835,6830
1.2963787,6831
1.0689398,6832
0.99545664,6833
1.0717328,6834
1.131282,6835
1.0854291,6836
1.2277927,6837
1.2032392,6838
1.180154,6839
1.1321095,6840
0.98240817,6841
0.95675784,6842
1.0796958,6843
1.2801498,6844
1.2487632,6845
1.2134044,6846
1.2787117,6847
1.2596331,6848
1.2732023,6849
0.9077386,6850
0.82962614,6851
0.7994769,6852
0.811186,6853
0.9065035,6854
0.943814,6855
1.0116794,6856
1.138937,6857
1.2772673,6858
1.2955186,6859
1.2617401,6860
1.3232993,6861
1.1984537,6862
1.2245833,6863
1.1317455,6864
1.1851313,6865
1.4642501,6866
1.5456507,6867
1.3106139,6868
0.9363295,6869
0.86144155,6870
1.020776,6871
0.9921551,6872
1.0934842,6873
1.2227968,6874
1.1253707,6875
1.2488574,6876
1.1336207,6877
1.09617,6878
1.143105,6879
1.196407,6880
1.1567721,6881
1.3488153,6882
1.5999165,6883
1.6589441,6884
1.528166,6885
1.5398266,6886
1.0584347,6887
0.9513324,6888
1.1381165,6889
1.056511,6890
1.1367083,6891
1.269751,6892
1.4069453,6893
1.3991328,6894
1.5227402,6895
0.95428514,6896
1.0787358,6897
1.212735,6898
1.1817673,6899
1.2434567,6900
1.3020858,6901
1.4650806,6902
1.5232177,6903
1.5402266,6904
1.1674806,6905
1.0764369,6906
1.0503943,6907
1.1774231,6908
1.2508343,6909
1.156708,6910
1.142564,6911
1.0799522,6912
1.1770523,6913
1.0894581,6914
0.9867619,6915
0.9958683,6916
1.2254709,6917
1.3893416,6918
1.2236279,6919
1.2595879,6920
1.2612658,6921
1.2276808,6922
1.3617394,6923
0.795681,6924
0.8628446,6925
0.8650776,6926
0.8535512,6927
1.0704948,6928
1.082978,6929
1.1766806,6930
1.2869469,6931
1.4033517,6932
1.0395412,6933
1.1303558,6934
1.1809056,6935
1.2626436,6936
1.2861862,6937
1.227849,6938
1.3032091,6939
1.4268092,6940
1.3666029,6941
1.2133092,6942
1.025313,6943
1.0434833,6944
1.1734995,6945
1.1664243,6946
1.1795295,6947
1.2259178,6948
1.1481434,6949
1.212674,6950
1.0992448,6951
0.9578506,6952
0.94032687,6953
1.2313672,6954
1.1986687,6955
1.2992005,6956
1.2767413,6957
1.379951,6958
1.2916561,6959
1.2611248,6960
0.87482524,6961
0.86850685,6962
0.80207235,6963
0.8986443,6964
1.0559094,6965
1.0442905,6966
1.0850544,6967
1.3430849,6968
1.2382935,6969
1.0260352,6970
1.1516225,6971
1.2066145,6972
1.2451193,6973
1.3677124,6974
1.4515989,6975
1.5024307,6976
1.4724648,6977
1.4264171,6978
1.1280695,6979
1.041267,6980
1.047919,6981
1.2090796,6982
1.0977966,6983
1.207974,6984
1.1698779,6985
1.1948808,6986
1.2495944,6987
1.0272027,6988
0.93632823,6989
0.99987113,6990
1.1612239,6991
1.2036196,6992
1.2949231,6993
1.3008497,6994
1.2456528,6995
1.203944,6996
1.2134787,6997
0.8777378,6998
0.9277812,6999
0.86626285,7000
0.87494254,7001
1.0150928,7002
1.1249894,7003
1.0416651,7004
1.2197138,7005
1.1596705,7006
1.1091534,7007
1.1429532,7008
1.2380135,7009
1.2159991,7010
1.3967453,7011
1.521415,7012
1.5811874,7013
1.6123114,7014
1.4807147,7015
0.8839837,7016
0.70746136,7017
0.844143,7018
0.9025654,7019
0.79019487,7020
1.0673383,7021
1.1761714,7022
1.1370193,7023
1.1601405,7024
1.1257054,7025
1.0928476,7026
1.1436036,7027
1.1785916,7028
1.2735864,7029
1.6503325,7030
1.6992927,7031
1.6967047,7032
1.8318238,7033
1.3441675,7034
1.1753198,7035
0.99477065,7036
1.1197712,7037
1.0976034,7038
1.0208527,7039
1.2783886,7040
1.2371643,7041
1.3483557,7042
1.2285926,7043
1.1294098,7044
1.1151129,7045
1.2857779,7046
1.2916286,7047
1.3225251,7048
1.4001597,7049
1.512556,7050
1.564975,7051
1.5848566,7052
0.95626855,7053
1.0195128,7054
1.0734159,7055
1.1696377,7056
1.1010771,7057
1.2260294,7058
1.1287854,7059
1.2336626,7060
1.2037687,7061
0.98629546,7062
0.926806,7063
0.9919949,7064
1.3114629,7065
1.2759492,7066
1.3067322,7067
1.3828977,7068
1.3247731,7069
1.321935,7070
1.0866754,7071
0.9415103,7072
0.862416,7073
0.8970839,7074
0.9080686,7075
0.9270497,7076
1.1104518,7077
1.1447611,7078
1.2098289,7079
1.1576744,7080
1.1585091,7081
1.3122548,7082
1.2571102,7083
1.3263861,7084
1.5414168,7085
1.5692626,7086
1.5819563,7087
1.4488996,7088
1.5390221,7089
1.0535237,7090
1.0636286,7091
1.021357,7092
1.0921162,7093
1.1072708,7094
1.2654424,7095
1.1497097,7096
1.302338,7097
1.2667787,7098
0.9345746,7099
0.95743614,7100
1.0596,7101
1.1451308,7102
1.2923822,7103
1.4156646,7104
1.3417692,7105
1.2813275,7106
1.3713375,7107
1.2743834,7108
0.93653286,7109
0.98355204,7110
0.9211686,7111
0.98546106,7112
1.0003941,7113
1.1642101,7114
1.2180873,7115
1.3548568,7116
1.1483152,7117
1.1241503,7118
1.0956821,7119
1.1954315,7120
1.304293,7121
1.4533244,7122
1.6066681,7123
1.6288793,7124
1.6672451,7125
1.5622315,7126
0.973289,7127
1.0586338,7128
1.1235255,7129
1.1746513,7130
1.0266378,7131
1.1373855,7132
1.1712025,7133
1.273538,7134
1.2857406,7135
0.9568232,7136
0.9470085,7137
1.0874892,7138
1.1940951,7139
1.2644029,7140
1.2500284,7141
1.295852,7142
1.328035,7143
1.2917372,7144
1.235446,7145
0.8700185,7146
0.86377954,7147
0.9094135,7148
0.94323426,7149
0.89209414,7150
0.85183644,7151
1.0127753,7152
1.0205607,7153
1.22656,7154
1.2691205,7155
1.2366555,7156
1.1962441,7157
1.316072,7158
1.1605617,7159
1.0436778,7160
1.2454255,7161
1.441031,7162
1.2417048,7163
0.8636079,7164
0.88421726,7165
0.8336608,7166
0.8206795,7167
0.8890643,7168
0.90051574,7169
0.8787742,7170
0.858134,7171
0.85654813,7172
0.9615783,7173
1.0915403,7174
1.0425048,7175
1.1187195,7176
1.0303358,7177
1.0171423,7178
0.96657187,7179
0.96830535,7180
0.9786075,7181
1.0643324,7182
1.1091051,7183
1.0512426,7184
1.10022,7185
1.093436,7186
1.1396595,7187
1.0650773,7188
1.0886974,7189
1.1797565,7190
1.0616133,7191
1.028977,7192
1.2672205,7193
1.105265,7194
1.2123967,7195
1.2690661,7196
1.3525243,7197
1.3167776,7198
1.3481656,7199
1.407135,7200
1.0823821,7201
1.0439367,7202
1.0886565,7203
1.1058574,7204
1.0891699,7205
1.1809123,7206
1.0916125,7207
1.1390194,7208
1.1239194,7209
0.95181113,7210
0.9353092,7211
1.0545318,7212
1.0905883,7213
1.2141796,7214
1.3154321,7215
1.307193,7216
1.2089224,7217
1.2428651,7218
1.006019,7219
0.8964255,7220
0.7963234,7221
0.87265706,7222
0.9381467,7223
1.1997422,7224
1.2064035,7225
1.0424192,7226
1.3551948,7227
1.084879,7228
1.0845673,7229
1.0859386,7230
1.20217,7231
1.2053134,7232
1.3703235,7233
1.3092096,7234
1.3642558,7235
1.3448145,7236
1.3562124,7237
1.0891398,7238
0.9827673,7239
0.99927247,7240
1.0833743,7241
1.1264294,7242
1.1788048,7243
1.1507382,7244
1.1764208,7245
1.191388,7246
0.94565535,7247
0.9691413,7248
1.0442154,7249
1.0927144,7250
1.2500628,7251
1.3015033,7252
1.2803348,7253
1.2472385,7254
1.215271,7255
0.9250183,7256
0.88956165,7257
0.8396797,7258
0.89761764,7259
1.0612124,7260
1.2460386,7261
1.3226343,7262
1.1521643,7263
1.3483468,7264
1.0256572,7265
1.0169206,7266
1.1219206,7267
1.2141823,7268
1.2373079,7269
1.4571621,7270
1.4148164,7271
1.4966909,7272
1.5108334,7273
1.3653038,7274
0.98816913,7275
1.1541196,7276
1.1277294,7277
1.0553659,7278
1.1021194,7279
1.234346,7280
1.2671286,7281
1.2717035,7282
1.1275655,7283
0.9683944,7284
0.99778825,7285
1.1305056,7286
1.2626022,7287
1.2280041,7288
1.2932731,7289
1.1445434,7290
1.2702156,7291
1.3712608,7292
0.9015413,7293
0.90391475,7294
0.83174324,7295
0.8333436,7296
1.062496,7297
1.2184063,7298
1.342424,7299
1.1908901,7300
1.3033684,7301
1.1003705,7302
1.0746047,7303
1.1275713,7304
1.2156322,7305
1.3160793,7306
1.3355343,7307
1.4952477,7308
1.5009601,7309
1.3933386,7310
1.2026534,7311
0.86308664,7312
0.83502847,7313
0.9034841,7314
0.94520885,7315
1.0452936,7316
1.083521,7317
1.0256679,7318
1.165929,7319
1.1885955,7320
1.0376108,7321
1.152321,7322
1.2177325,7323
1.149897,7324
1.4290421,7325
1.3402401,7326
1.5623001,7327
1.506073,7328
1.4571438,7329
0.94993174,7330
0.839642,7331
1.0686418,7332
1.0743945,7333
1.0870115,7334
1.2259732,7335
1.276294,7336
1.2532238,7337
1.3214232,7338
0.98277444,7339
1.1722323,7340
1.1545665,7341
1.2107767,7342
1.2046022,7343
1.3056504,7344
1.4527432,7345
1.505796,7346
1.610962,7347
1.209805,7348
1.0332439,7349
1.1216613,7350
1.1132137,7351
1.1459961,7352
1.0614862,7353
1.2564559,7354
1.1090751,7355
1.2367691,7356
1.0149012,7357
0.9733724,7358
0.9866175,7359
1.1386683,7360
1.1934162,7361
1.26465,7362
1.3898695,7363
1.3168498,7364
1.1420933,7365
1.2804686,7366
0.88969624,7367
0.92260057,7368
0.8032424,7369
0.7914995,7370
1.027945,7371
1.0815543,7372
1.1456137,7373
1.1669844,7374
1.1290689,7375
1.0878124,7376
1.141217,7377
1.2226231,7378
1.1617992,7379
1.333229,7380
1.4206375,7381
1.4206512,7382
1.3711516,7383
1.4980056,7384
1.1849817,7385
1.0413566,7386
1.0518681,7387
1.1019592,7388
1.1291735,7389
1.2265522,7390
1.2537177,7391
1.2507999,7392
1.2791289,7393
1.0562844,7394
0.9388766,7395
0.9644172,7396
1.1955439,7397
1.2059951,7398
1.3152753,7399
1.2049317,7400
1.1997219,7401
1.2599331,7402
1.1795754,7403
0.9012586,7404
0.8978594,7405
0.87774664,7406
0.88618565,7407
1.1403388,7408
1.3498673,7409
1.2068644,7410
1.3081818,7411
1.2145452,7412
1.045827,7413
1.0943984,7414
1.1879314,7415
1.1181194,7416
1.332387,7417
1.3370192,7418
1.4736977,7419
1.5838888,7420
1.4854075,7421
1.1131263,7422
0.9901086,7423
1.1436026,7424
1.1678511,7425
1.1251116,7426
1.1314353,7427
1.2031163,7428
1.1454964,7429
1.1634284,7430
1.0213035,7431
0.974417,7432
0.9990775,7433
1.1050417,7434
1.1945691,7435
1.2293746,7436
1.2623305,7437
1.1532288,7438
1.2523761,7439
1.2188581,7440
0.95559436,7441
0.79395586,7442
0.8092828,7443
0.92126167,7444
0.8731579,7445
0.90294486,7446
0.9523571,7447
1.0863223,7448
1.2825534,7449
1.2061503,7450
1.2800736,7451
1.2451059,7452
1.2588581,7453
1.1795292,7454
1.151955,7455
1.2597779,7456
1.3461711,7457
1.5340593,7458
0.94072163,7459
0.81431836,7460
0.8829547,7461
0.9212585,7462
0.95356226,7463
1.0450413,7464
1.1742382,7465
1.1410233,7466
1.2973746,7467
1.0211291,7468
1.1414942,7469
1.0667946,7470
1.2401373,7471
1.2745731,7472
1.3334422,7473
1.3013328,7474
1.5804402,7475
1.6094644,7476
1.3556681,7477
1.0154897,7478
1.0638863,7479
1.0860896,7480
1.1761614,7481
1.122752,7482
1.2408905,7483
1.0522207,7484
1.403314,7485
1.2705888,7486
1.1115559,7487
1.0908237,7488
1.1237463,7489
1.2112012,7490
1.3069799,7491
1.3021193,7492
1.3938483,7493
1.5262235,7494
1.6066176,7495
0.98503995,7496
1.006986,7497
1.132116,7498
1.0835822,7499
1.200811,7500
1.2642047,7501
1.1954864,7502
1.2094134,7503
1.2458795,7504
0.97011584,7505
0.991163,7506
1.0716789,7507
1.2132349,7508
1.335267,7509
1.2879524,7510
1.2899835,7511
1.3053758,7512
1.1887435,7513
1.2065084,7514
0.85314304,7515
0.8897101,7516
0.8874088,7517
0.9467356,7518
1.0821631,7519
1.1140425,7520
1.1036528,7521
1.2200814,7522
1.1920325,7523
1.1142384,7524
1.0567918,7525
1.1537865,7526
1.2161297,7527
1.3942965,7528
1.3875377,7529
1.3907839,7530
1.4855714,7531
1.4734819,7532
1.0333115,7533
0.979573,7534
1.1076775,7535
1.0248901,7536
1.1492707,7537
1.175792,7538
1.1626387,7539
1.2120883,7540
1.3019308,7541
0.90493745,7542
0.9438434,7543
0.9934069,7544
1.2052269,7545
1.2479197,7546
1.2751029,7547
1.272039,7548
1.2663879,7549
1.2981484,7550
1.0396818,7551
0.89616215,7552
0.7996652,7553
0.86244977,7554
0.88427085,7555
1.1222068,7556
1.1432197,7557
1.1093533,7558
1.3050392,7559
1.1347737,7560
1.1320317,7561
1.0672151,7562
1.2018514,7563
1.2515273,7564
1.2859921,7565
1.43433,7566
1.5398686,7567
1.3459771,7568
1.4184883,7569
0.9963024,7570
1.0446877,7571
1.0919911,7572
1.0951952,7573
1.1527877,7574
1.1637291,7575
1.0413127,7576
1.2191942,7577
1.2524854,7578
0.92969507,7579
0.9191013,7580
0.97095156,7581
1.1692072,7582
1.2122031,7583
1.285283,7584
1.2165983,7585
1.2875082,7586
1.3364737,7587
1.1542788,7588
0.92651176,7589
0.8753655,7590
0.8632667,7591
0.9506684,7592
0.96408755,7593
1.2058705,7594
1.0206147,7595
1.2430397,7596
1.1311976,7597
1.1014805,7598
1.0607072,7599
1.2371409,7600
1.2611096,7601
1.2826267,7602
1.3369701,7603
1.5062858,7604
1.531207,7605
1.3209035,7606
0.7934364,7607
0.7830039,7608
0.7810948,7609
0.85227144,7610
0.8702921,7611
1.1462657,7612
1.0942827,7613
1.0990099,7614
1.145776,7615
1.0710685,7616
1.0549592,7617
1.1469908,7618
1.217399,7619
1.3506752,7620
1.3034239,7621
1.5419865,7622
1.5816242,7623
1.6158414,7624
1.1240647,7625
1.120068,7626
1.0846457,7627
1.1735978,7628
1.09028,7629
1.0593084,7630
1.170801,7631
1.2006431,7632
1.3478429,7633
1.0893025,7634
1.0790704,7635
1.1589215,7636
1.2984015,7637
1.3654332,7638
1.493886,7639
1.4627645,7640
1.4907602,7641
1.480067,7642
1.3349158,7643
1.0176408,7644
1.048792,7645
1.0788621,7646
1.1477282,7647
1.1187387,7648
1.2439463,7649
1.2110186,7650
1.2179784,7651
1.2771819,7652
0.97053444,7653
0.95967185,7654
1.0385698,7655
1.1928078,7656
1.2479573,7657
1.2096078,7658
1.3999934,7659
1.2603151,7660
1.3298318,7661
1.0308374,7662
0.9531869,7663
0.86523896,7664
0.8938119,7665
0.91723967,7666
1.0549883,7667
1.0295507,7668
1.1882148,7669
1.1166784,7670
1.1369994,7671
1.0998976,7672
1.2346414,7673
1.2566867,7674
1.4359096,7675
1.539687,7676
1.6343545,7677
1.6713047,7678
1.638554,7679
1.3737068,7680
1.0735495,7681
1.0586727,7682
1.0308795,7683
1.1848769,7684
1.1045822,7685
1.1642474,7686
1.287141,7687
1.275888,7688
1.1876681,7689
0.9178879,7690
0.9196654,7691
1.0157317,7692
1.1812288,7693
1.2634834,7694
1.3956064,7695
1.3907505,7696
1.4252313,7697
1.4313755,7698
0.932182,7699
0.93138176,7700
0.8590535,7701
0.9342974,7702
1.0340747,7703
1.0443034,7704
0.9950147,7705
1.2043875,7706
1.274434,7707
1.0675242,7708
1.1970255,7709
1.2346158,7710
1.3413872,7711
1.441072,7712
1.5025196,7713
1.6301771,7714
1.4610224,7715
1.5096859,7716
1.3872333,7717
1.0913298,7718
1.1043351,7719
0.9791237,7720
1.0587281,7721
1.0605373,7722
1.2056594,7723
1.1617192,7724
1.2950895,7725
1.1973989,7726
0.9552612,7727
0.95082664,7728
1.0990419,7729
1.1549189,7730
1.3412083,7731
1.3098577,7732
1.3164229,7733
1.3221189,7734
1.3464935,7735
0.9916812,7736
0.87335914,7737
0.8431303,7738
0.9495114,7739
0.917653,7740
0.92990696,7741
0.96519667,7742
0.99031836,7743
1.0974935,7744
1.3706435,7745
1.2205157,7746
1.2477692,7747
1.2503366,7748
1.4461209,7749
1.216209,7750
1.3319621,7751
1.3576267,7752
1.4088365,7753
1.2015586,7754
0.80148244,7755
0.7329704,7756
0.8092398,7757
0.8469511,7758
1.1504124,7759
1.1390259,7760
1.224181,7761
1.3166674,7762
1.1232439,7763
1.0257399,7764
1.1055678,7765
1.198238,7766
1.176526,7767
1.3970839,7768
1.4184391,7769
1.487939,7770
1.5837833,7771
1.5007224,7772
0.9824534,7773
0.9491368,7774
1.1422249,7775
1.0859758,7776
1.0273832,7777
1.208046,7778
1.1323929,7779
1.1901973,7780
1.2294428,7781
1.1432269,7782
1.1431564,7783
1.1497048,7784
1.2209004,7785
1.4464568,7786
1.3673156,7787
1.6149962,7788
1.4821422,7789
1.4938545,7790
1.1331867,7791
0.9910033,7792
1.0158364,7793
1.0089879,7794
1.1530857,7795
1.2286745,7796
1.2439989,7797
1.2042445,7798
1.2685846,7799
1.0996919,7800
0.93974227,7801
0.9300848,7802
1.0731757,7803
1.0993859,7804
1.2429882,7805
1.3624048,7806
1.2995672,7807
1.243899,7808
1.2870985,7809
0.85677046,7810
0.8235259,7811
0.89049613,7812
0.86904615,7813
1.0987084,7814
1.0760057,7815
1.1506093,7816
1.2004622,7817
1.2865894,7818
1.0482719,7819
1.0687339,7820
1.1611985,7821
1.2279254,7822
1.2646813,7823
1.3812466,7824
1.4890991,7825
1.4154296,7826
1.3379244,7827
1.1609969,7828
0.9781728,7829
1.0625976,7830
1.0557961,7831
1.101545,7832
1.1101421,7833
1.1424066,7834
1.1486788,7835
1.1504059,7836
0.9971445,7837
0.924164,7838
0.95506656,7839
1.0528115,7840
1.1819361,7841
1.2938068,7842
1.2568347,7843
1.286116,7844
1.2668914,7845
1.223583,7846
0.8833608,7847
0.8133178,7848
0.8648251,7849
0.87172216,7850
0.9880933,7851
1.1868161,7852
1.1406571,7853
1.1200209,7854
1.1710483,7855
1.0601053,7856
1.0829424,7857
1.1107544,7858
1.28447,7859
1.2289673,7860
1.315912,7861
1.3702431,7862
1.4238,7863
1.4377651,7864
1.0669935,7865
1.0935637,7866
1.0608374,7867
1.0885868,7868
1.0597072,7869
1.1108787,7870
1.1084967,7871
1.1122673,7872
1.1779429,7873
0.98937964,7874
0.94295496,7875
0.91799396,7876
1.1370747,7877
1.2698592,7878
1.2319648,7879
1.2314447,7880
1.2243544,7881
1.196084,7882
1.2112013,7883
0.8366237,7884
0.89156187,7885
0.8740598,7886
0.8200258,7887
0.99993795,7888
1.1505928,7889
1.1585352,7890
1.2152053,7891
1.1790075,7892
1.0215559,7893
1.1115035,7894
1.2617545,7895
1.121104,7896
1.3546728,7897
1.3705053,7898
1.4760948,7899
1.470089,7900
1.6173645,7901
0.88277936,7902
0.83528584,7903
0.84663093,7904
0.83569103,7905
0.99391574,7906
1.1095208,7907
1.144489,7908
1.1044986,7909
1.1222333,7910
1.0382757,7911
1.1723208,7912
1.083716,7913
1.2067466,7914
1.2744818,7915
1.4571407,7916
1.5303463,7917
1.5364674,7918
1.5824642,7919
1.3386412,7920
1.0786842,7921
0.9884142,7922
1.0930976,7923
1.1251256,7924
1.0842724,7925
1.1646276,7926
1.3320353,7927
1.3666276,7928
1.2212813,7929
1.0490806,7930
1.1577091,7931
1.1468782,7932
1.156353,7933
1.3228796,7934
1.4812373,7935
1.4817988,7936
1.5618532,7937
1.6373068,7938
1.0351725,7939
1.0290499,7940
1.0763099,7941
1.0741564,7942
1.129323,7943
1.2185725,7944
1.2999653,7945
1.1929259,7946
1.2835357,7947
0.9156701,7948
0.93677366,7949
1.0331745,7950
1.2566464,7951
1.2574699,7952
1.2906029,7953
1.2513034,7954
1.2028022,7955
1.2004243,7956
1.2161452,7957
0.9057948,7958
0.86955833,7959
0.9247148,7960
1.0027844,7961
1.0363007,7962
1.1846582,7963
1.1663824,7964
1.3756229,7965
1.116386,7966
1.063065,7967
1.0971409,7968
1.2363852,7969
1.1862814,7970
1.2592171,7971
1.4676198,7972
1.5769328,7973
1.4416114,7974
1.4342127,7975
1.0073252,7976
1.0412393,7977
1.1086642,7978
1.1333628,7979
1.2015684,7980
1.2509682,7981
1.2662886,7982
1.1242129,7983
1.225332,7984
0.9619989,7985
0.94164014,7986
1.0323651,7987
1.1975715,7988
1.3752548,7989
1.3777846,7990
1.2832383,7991
1.2579854,7992
1.2101002,7993
1.0969374,7994
0.84192735,7995
0.9161487,7996
0.82177883,7997
0.8683572,7998
1.1001649,7999
0.9851766,8000
1.1662502,8001
1.2836303,8002
1.1545727,8003
1.0980312,8004
1.0798364,8005
1.1266239,8006
1.2926732,8007
1.2680576,8008
1.4140261,8009
1.398929,8010
1.3499542,8011
1.2262528,8012
0.97850776,8013
1.0599337,8014
1.0503362,8015
1.1766016,8016
1.001525,8017
1.1298068,8018
1.184354,8019
1.195055,8020
1.1466304,8021
0.9893259,8022
0.9347549,8023
1.1612368,8024
1.2092233,8025
1.2287593,8026
1.2928144,8027
1.2341994,8028
1.2626503,8029
1.2866002,8030
1.0787696,8031
0.83421886,8032
0.8259165,8033
0.8121727,8034
0.89143616,8035
0.94733775,8036
0.9348022,8037
1.0912352,8038
1.1594789,8039
1.3092754,8040
1.167053,8041
1.2313884,8042
1.2357268,8043
1.1622905,8044
1.0798708,8045
1.0998967,8046
1.3400365,8047
1.4576185,8048
1.431059,8049
0.9499473,8050
0.9487288,8051
1.0186965,8052
0.9812005,8053
0.9977168,8054
1.2033547,8055
1.031789,8056
1.1849765,8057
1.2180269,8058
0.9862296,8059
1.1515663,8060
1.2155707,8061
1.248366,8062
1.386254,8063
1.4028728,8064
1.5236057,8065
1.4655181,8066
1.5476944,8067
1.0497193,8068
1.0782901,8069
1.0059621,8070
1.1147343,8071
1.1686741,8072
1.1442196,8073
1.399667,8074
1.3565265,8075
1.5443298,8076
1.154552,8077
1.043023,8078
1.1262641,8079
1.2382864,8080
1.2224504,8081
1.379473,8082
1.5012195,8083
1.5133963,8084
1.5773891,8085
1.361466,8086
1.1305057,8087
1.0227039,8088
1.1358408,8089
1.1248914,8090
1.181382,8091
1.1828685,8092
1.2408241,8093
1.2178944,8094
1.176592,8095
0.9614545,8096
1.0123639,8097
1.2201328,8098
1.3103263,8099
1.2868642,8100
1.319347,8101
1.1984116,8102
1.2855201,8103
1.3664756,8104
0.9676158,8105
0.90307516,8106
0.85531896,8107
0.848428,8108
0.9023709,8109
1.0594958,8110
1.29101,8111
1.2590309,8112
1.4338582,8113
1.0486833,8114
1.0785993,8115
1.2143891,8116
1.138544,8117
1.2355778,8118
1.3172787,8119
1.2516035,8120
1.2704883,8121
1.2788186,8122
1.2516656,8123
0.9221063,8124
0.92667073,8125
1.1302187,8126
1.1465106,8127
1.1041218,8128
1.2489473,8129
1.1155543,8130
1.1921991,8131
1.1645452,8132
0.96969366,8133
0.9825533,8134
1.1035416,8135
1.0248652,8136
1.345906,8137
1.2898747,8138
1.3210461,8139
1.2179849,8140
1.3356007,8141
0.88929534,8142
0.9108128,8143
0.834139,8144
0.89609426,8145
0.97976583,8146
0.9555424,8147
1.0967897,8148
1.1874226,8149
1.2446759,8150
1.0427041,8151
1.1050556,8152
1.1871312,8153
1.2111785,8154
1.2523509,8155
1.2234048,8156
1.2900381,8157
1.2727407,8158
1.2926432,8159
1.1784031,8160
0.9910388,8161
0.9709477,8162
1.1602967,8163
1.0491732,8164
1.1099474,8165
1.1390316,8166
1.133185,8167
1.21786,8168
1.090008,8169
0.9432005,8170
0.8942981,8171
1.0738856,8172
1.1590803,8173
1.2135786,8174
1.3392673,8175
1.1884981,8176
1.2490771,8177
1.43168,8178
0.89490145,8179
0.90042955,8180
0.74384445,8181
0.8817306,8182
0.90567154,8183
0.96103084,8184
1.1568582,8185
1.198222,8186
1.2097026,8187
1.0856104,8188
1.0810757,8189
1.2385582,8190
1.2144861,8191
1.3670136,8192
1.3172631,8193
1.3691359,8194
1.376414,8195
1.3822507,8196
1.0597636,8197
0.9028181,8198
0.81991166,8199
0.86780196,8200
0.90868795,8201
0.963794,8202
1.1931486,8203
1.1812732,8204
1.178454,8205
1.0528724,8206
1.1015135,8207
1.1280642,8208
1.2631208,8209
1.2996693,8210
1.4337215,8211
1.619495,8212
1.584539,8213
1.6496668,8214
1.5598257,8215
1.0689349,8216
1.0394604,8217
1.1409196,8218
1.1696564,8219
1.0192655,8220
1.1266603,8221
1.1495227,8222
1.2439499,8223
1.2788383,8224
1.0321182,8225
1.1963489,8226
1.3135306,8227
1.1297066,8228
1.3779416,8229
1.3237836,8230
1.3905427,8231
1.4396526,8232
1.3892572,8233
1.1672434,8234
1.0293342,8235
1.0620682,8236
1.1176051,8237
1.1571522,8238
1.2222896,8239
1.216346,8240
1.2382762,8241
1.2867877,8242
1.0226858,8243
0.9035737,8244
0.90241957,8245
0.97494626,8246
0.92848086,8247
1.2927359,8248
1.3665811,8249
1.3114914,8250
1.2884675,8251
1.2905507,8252
0.9465968,8253
0.9322563,8254
1.0119526,8255
0.89983594,8256
0.9501923,8257
0.8685301,8258
0.88057476,8259
0.9527413,8260
0.89403903,8261
0.98699546,8262
1.1777558,8263
1.0560235,8264
1.0541663,8265
1.0584694,8266
0.8967205,8267
0.940339,8268
0.9441892,8269
0.84284586,8270
1.0104223,8271
0.9404231,8272
1.013215,8273
1.0657392,8274
1.0558844,8275
1.0723921,8276
1.0978764,8277
1.0700414,8278
1.0098628,8279
0.9948172,8280
0.89264387,8281
0.99235487,8282
1.0039321,8283
1.0548992,8284
1.3121452,8285
1.1997112,8286
1.3822135,8287
1.292463,8288
1.0875776,8289
0.90746725,8290
0.87348354,8291
0.85168034,8292
0.93816555,8293
0.9964301,8294
1.0640258,8295
1.0705593,8296
0.99385875,8297
1.0477127,8298
1.070707,8299
1.0647607,8300
1.1970093,8301
1.312404,8302
1.2598634,8303
1.3198491,8304
1.1198639,8305
1.0205202,8306
1.0554025,8307
1.1354382,8308
0.9797313,8309
1.1104015,8310
1.1505828,8311
1.0623517,8312
1.0925732,8313
1.0667015,8314
0.9863415,8315
1.0519016,8316
0.9770178,8317
0.92403245,8318
0.91263014,8319
1.0359147,8320
1.0448521,8321
1.2964634,8322
1.1987097,8323
1.195756,8324
1.2907845,8325
1.0986333,8326
0.8702333,8327
0.81746686,8328
0.9178311,8329
0.8583431,8330
0.95295364,8331
0.82861763,8332
0.9263169,8333
0.9577161,8334
1.1673132,8335
1.1999722,8336
1.0595149,8337
1.2388362,8338
1.1437794,8339
1.1091301,8340
1.024211,8341
0.99046564,8342
0.96915275,8343
0.9481828,8344
0.96334136,8345
0.84940857,8346
0.8164988,8347
0.8880244,8348
0.8983087,8349
0.93333215,8350
0.81581473,8351
0.88006437,8352
0.8345392,8353
0.7492657,8354
0.89344144,8355
0.77866787,8356
0.9660192,8357
0.8106845,8358
0.9137315,8359
0.95207024,8360
0.8628321,8361
0.95050496,8362
0.9599639,8363
0.96725476,8364
0.9727794,8365
0.8850559,8366
0.88257253,8367
1.000319,8368
1.048927,8369
1.0246514,8370
1.0148178,8371
1.0140254,8372
1.0416522,8373
1.0873833,8374
1.0316854,8375
1.0502368,8376
1.119983,8377
1.2772263,8378
1.3196063,8379
1.3458875,8380
1.2259339,8381
1.3046293,8382
1.3459015,8383
1.2734443,8384
1.398535,8385
1.5267718,8386
1.6717672,8387
1.5878034,8388
1.5357437,8389
1.3764218,8390
1.4690901,8391
1.4204596,8392
1.5126632,8393
1.5439583,8394
1.5595009,8395
1.5908054,8396
1.6987619,8397
1.6179761,8398
1.6036657,8399
1.5055546,8400
1.3736035,8401
1.6099766,8402
1.5815859,8403
1.6090705,8404
1.6560699,8405
1.5710423,8406
1.6612526,8407
1.5876409,8408
1.4794787,8409
1.4966241,8410
1.4288467,8411
1.4967674,8412
1.5295022,8413
1.5275838,8414
1.5327626,8415
1.6230463,8416
1.558171,8417
1.5999835,8418
1.5369107,8419
1.5576577,8420
1.6988624,8421
1.6162819,8422
1.5823076,8423
1.4609509,8424
1.5628915,8425
1.5899155,8426
1.7067114,8427
1.5650963,8428
1.5484928,8429
1.4706539,8430
1.4010521,8431
1.4726998,8432
1.6915017,8433
1.7007121,8434
1.7087244,8435
1.6204121,8436
1.6910598,8437
1.5409416,8438
1.6959676,8439
1.619804,8440
1.7804967,8441
1.6397071,8442
1.5839399,8443
1.6365304,8444
1.6797944,8445
1.7219698,8446
1.6219475,8447
1.6025318,8448
1.6449606,8449
1.3791406,8450
1.5540681,8451
1.7204494,8452
1.762609,8453
1.7689356,8454
1.748882,8455
1.7490361,8456
1.7665309,8457
1.7432503,8458
1.8158689,8459
1.8091578,8460
1.5038028,8461
1.708617,8462
1.5960821,8463
1.6440809,8464
1.6124619,8465
1.6035503,8466
1.4962642,8467
1.5119671,8468
1.5387928,8469
1.6155064,8470
1.6858889,8471
1.7133273,8472
1.5794402,8473
1.7589159,8474
1.857308,8475
1.8573984,8476
1.8714454,8477
1.8244411,8478
1.6575202,8479
1.6837604,8480
1.8194337,8481
1.786754,8482
1.803219,8483
1.7313908,8484
1.5629874,8485
1.5740417,8486
1.2775936,8487
1.6598095,8488
1.828305,8489
1.8760958,8490
1.8230616,8491
1.898475,8492
1.8883648,8493
1.9907695,8494
1.9661298,8495
1.8762283,8496
1.8675799,8497
1.6194818,8498
1.93167,8499
2.0078545,8500
1.9057493,8501
1.6474066,8502
1.6779788,8503
1.7333754,8504
1.6968951,8505
1.6881206,8506
1.7931464,8507
1.8793274,8508
1.8887482,8509
1.9079239,8510
1.8547559,8511
1.7356256,8512
1.8320789,8513
1.7908118,8514
1.7275623,8515
1.7528223,8516
1.7771378,8517
2.015517,8518
2.0231183,8519
1.6809531,8520
1.7127281,8521
1.769742,8522
1.7958995,8523
1.7280151,8524
1.7335601,8525
1.8168715,8526
2.0487676,8527
1.8684696,8528
1.8271964,8529
1.9067843,8530
1.7809708,8531
1.92379,8532
1.7850784,8533
1.7591561,8534
1.6460835,8535
1.8007916,8536
1.8909835,8537
1.799469,8538
1.6256776,8539
1.7559999,8540
1.6733323,8541
1.6245191,8542
1.6029058,8543
1.6438879,8544
1.8315604,8545
1.8738916,8546
1.6886768,8547
1.6383948,8548
1.7327867,8549
1.6562842,8550
1.6998465,8551
1.7578405,8552
1.6659728,8553
1.7848709,8554
1.8731098,8555
1.7884318,8556
1.584825,8557
1.6818327,8558
1.654793,8559
1.6494755,8560
1.5438601,8561
1.6642615,8562
1.6994635,8563
1.8817453,8564
1.7306576,8565
1.6114135,8566
1.7004663,8567
1.5983218,8568
1.6298022,8569
1.7364705,8570
1.6423358,8571
1.487674,8572
1.778087,8573
1.7713996,8574
1.7727896,8575
1.7972759,8576
1.6036143,8577
1.4244125,8578
1.4446352,8579
1.4571924,8580
1.6074666,8581
1.7283655,8582
1.7300831,8583
1.7648712,8584
1.6927271,8585
1.8839592,8586
1.8658712,8587
1.7198756,8588
1.8194319,8589
1.6013873,8590
1.6418582,8591
1.6655827,8592
1.5820483,8593
1.6304237,8594
1.6727517,8595
1.5399554,8596
1.4076593,8597
1.4492334,8598
1.6000174,8599
1.6999621,8600
1.7028824,8601
1.6967713,8602
1.731771,8603
1.6691252,8604
1.7094338,8605
1.6445776,8606
1.7992764,8607
1.6193597,8608
1.4944731,8609
1.5530058,8610
1.5707598,8611
1.4863924,8612
1.7223445,8613
1.7237457,8614
1.5106713,8615
1.3049192,8616
1.5367742,8617
1.6940136,8618
1.8136854,8619
1.7013401,8620
1.6623288,8621
1.88679,8622
1.871135,8623
1.721503,8624
1.6431608,8625
1.782546,8626
1.6211708,8627
1.7283932,8628
1.7681011,8629
1.6926415,8630
1.6663195,8631
1.8679221,8632
1.7966509,8633
1.6145519,8634
1.6443441,8635
1.7579306,8636
1.9554763,8637
1.8952769,8638
1.8393756,8639
1.7906582,8640
1.672522,8641
1.8131571,8642
1.841062,8643
1.7856357,8644
1.7622546,8645
1.6548564,8646
1.8149996,8647
1.8528775,8648
1.6652352,8649
1.7217282,8650
1.7219502,8651
1.6847141,8652
1.407223,8653
1.5978459,8654
1.7063707,8655
1.8683738,8656
1.8973707,8657
1.8766264,8658
1.7483686,8659
1.8484099,8660
1.8428098,8661
1.7450432,8662
1.8364855,8663
1.6165346,8664
1.655596,8665
1.6331164,8666
1.690652,8667
1.6714882,8668
1.67295,8669
1.6971486,8670
1.5491993,8671
1.3702399,8672
1.430881,8673
1.6167417,8674
1.7624394,8675
1.829894,8676
1.6868128,8677
1.6938984,8678
1.6819651,8679
1.667099,8680
1.7723341,8681
1.5971737,8682
1.5977665,8683
1.5991557,8684
1.6453958,8685
1.680412,8686
1.6699582,8687
1.655453,8688
1.6349825,8689
1.4269898,8690
1.3883808,8691
1.467996,8692
1.530443,8693
1.6897042,8694
1.6367692,8695
1.5911932,8696
1.7407677,8697
1.7028198,8698
1.719771,8699
1.6421074,8700
1.4831742,8701
1.5761393,8702
1.66364,8703
1.616348,8704
1.6521295,8705
1.7772093,8706
1.6446527,8707
1.4742763,8708
1.3433163,8709
1.3850077,8710
1.486914,8711
1.5941641,8712
1.6508037,8713
1.6204814,8714
1.7665049,8715
1.7285162,8716
1.6330475,8717
1.7015206,8718
1.5318099,8719
1.3999691,8720
1.5370847,8721
1.5527126,8722
1.5136845,8723
1.7728655,8724
1.6341804,8725
1.3408141,8726
1.0709549,8727
1.419698,8728
1.591986,8729
1.4463081,8730
1.5241731,8731
1.6484102,8732
1.7639887,8733
1.7043436,8734
1.5901147,8735
1.6237429,8736
1.5183456,8737
1.4310024,8738
1.4508549,8739
1.569487,8740
1.7298146,8741
1.6239451,8742
1.6812958,8743
1.5821528,8744
1.0488007,8745
1.2170603,8746
1.5464054,8747
1.5900996,8748
1.6936917,8749
1.6326576,8750
1.7066919,8751
1.7526457,8752
1.7705675,8753
1.5626677,8754
1.7435288,8755
1.6795484,8756
1.6265439,8757
1.633375,8758
1.6124176,8759
1.6446824,8760
1.7295908,8761
1.7066616,8762
1.2877924,8763
1.120649,8764
1.5906235,8765
1.6131822,8766
1.5800699,8767
1.5283517,8768
1.7318819,8769
1.7829652,8770
1.7916776,8771
1.7627932,8772
1.6942214,8773
1.8368992,8774
1.6089486,8775
1.7795221,8776
1.8387749,8777
1.6479173,8778
1.7703623,8779
1.691292,8780
1.5042733,8781
1.0936445,8782
1.5704745,8783
1.6260018,8784
1.809346,8785
1.8931191,8786
1.8879372,8787
1.6808884,8788
1.6987826,8789
1.7681755,8790
1.6302072,8791
1.7864528,8792
1.6739963,8793
1.7493004,8794
1.7427597,8795
1.7381232,8796
1.7545841,8797
1.823361,8798
1.7920138,8799
1.5906602,8800
1.4971758,8801
1.5938137,8802
1.6621045,8803
1.9516207,8804
1.8456551,8805
1.7435076,8806
1.5349787,8807
1.7522557,8808
1.6836965,8809
1.6502568,8810
1.6662254,8811
1.6620395,8812
1.8389581,8813
1.8626324,8814
1.7814445,8815
1.8082331,8816
1.8688409,8817
1.7622343,8818
1.547359,8819
1.498065,8820
1.5204309,8821
1.6735243,8822
1.6756328,8823
1.8062134,8824
1.7726653,8825
1.869588,8826
1.82714,8827
1.6249399,8828
1.7279676,8829
1.6681277,8830
1.7354699,8831
1.6432793,8832
1.8076552,8833
1.6220272,8834
1.7552093,8835
1.751188,8836
1.5683401,8837
1.4828407,8838
1.6618929,8839
1.610239,8840
1.7675544,8841
1.8010427,8842
1.8207599,8843
1.865307,8844
1.828795,8845
1.6017022,8846
1.5310053,8847
1.6585094,8848
1.6379488,8849
1.7481894,8850
1.7063553,8851
1.6974105,8852
1.6360543,8853
1.7050083,8854
1.6931862,8855
1.565157,8856
1.4711833,8857
1.4754456,8858
1.5283985,8859
1.5159553,8860
1.6496547,8861
1.6464325,8862
1.8160651,8863
1.7319818,8864
1.5900187,8865
1.6600993,8866
1.5785824,8867
1.7929176,8868
1.6272014,8869
1.7562301,8870
1.556747,8871
1.6471307,8872
1.5794634,8873
1.2430134,8874
1.3240759,8875
1.4739335,8876
1.6479199,8877
1.6772859,8878
1.5928855,8879
1.6633949,8880
1.8475146,8881
1.8694346,8882
1.5891834,8883
1.483714,8884
1.6342311,8885
1.618552,8886
1.6030635,8887
1.7062607,8888
1.7484404,8889
1.8569739,8890
1.6256187,8891
1.528079,8892
1.3326946,8893
1.3626457,8894
1.6463854,8895
1.7519025,8896
1.9290804,8897
1.7162399,8898
1.5918646,8899
1.7658659,8900
1.5876011,8901
1.6254784,8902
1.6272296,8903
1.5096645,8904
1.673844,8905
1.935051,8906
1.7728411,8907
1.7753923,8908
1.7161427,8909
1.62741,8910
1.3287079,8911
1.4237603,8912
1.6327597,8913
1.6657802,8914
1.8501505,8915
1.8817434,8916
1.8378537,8917
1.7507601,8918
1.7867849,8919
1.5787687,8920
1.6620231,8921
1.6948391,8922
1.6691755,8923
1.8590736,8924
1.8134114,8925
1.6834345,8926
1.7352016,8927
1.6213112,8928
1.6372888,8929
1.3399771,8930
1.6500019,8931
1.7293407,8932
1.7886654,8933
1.7872047,8934
1.8059016,8935
1.822885,8936
1.8901783,8937
2.0543432,8938
1.8240514,8939
1.8681852,8940
1.6196995,8941
1.8771995,8942
1.9385803,8943
1.734737,8944
1.6624366,8945
1.7085092,8946
1.6674249,8947
1.4886252,8948
1.4379961,8949
1.5106257,8950
1.6803213,8951
1.918726,8952
1.7214996,8953
1.7091968,8954
1.8249276,8955
1.9780406,8956
1.9504718,8957
1.8644272,8958
1.6368988,8959
1.572179,8960
1.663498,8961
1.6088673,8962
1.6026788,8963
1.7807393,8964
1.6586004,8965
1.5334228,8966
1.4393405,8967
1.4199859,8968
1.3708229,8969
1.5521708,8970
1.6542063,8971
1.6601616,8972
1.7496537,8973
1.7579738,8974
1.6571925,8975
1.5706427,8976
1.5548322,8977
1.5572164,8978
1.551848,8979
1.5196428,8980
1.6529204,8981
1.7177818,8982
1.7027215,8983
1.5873755,8984
1.4631618,8985
1.3705549,8986
1.6047505,8987
1.6297761,8988
1.7328552,8989
1.7675884,8990
1.6490732,8991
1.763239,8992
1.9270123,8993
1.784575,8994
1.8500024,8995
1.6418326,8996
1.5639945,8997
1.6096516,8998
1.536194,8999
1.5570803,9000
1.8322815,9001
1.6150256,9002
1.5257939,9003
1.3485128,9004
1.4488487,9005
1.4670634,9006
1.6405543,9007
1.6550947,9008
1.6728816,9009
1.6420715,9010
1.7443213,9011
1.7895981,9012
1.8355685,9013
1.5313412,9014
1.5875701,9015
1.6006877,9016
1.6642693,9017
1.6299144,9018
1.7772286,9019
1.7191626,9020
1.5288677,9021
1.154055,9022
1.3327285,9023
1.6465684,9024
1.5480427,9025
1.5912893,9026
1.6894331,9027
1.6241809,9028
1.7714697,9029
1.8550805,9030
1.7214098,9031
1.8913792,9032
1.6309776,9033
1.6962249,9034
1.7171804,9035
1.7037252,9036
1.5711689,9037
1.7882901,9038
1.5915638,9039
1.2154001,9040
1.1571286,9041
1.5895692,9042
1.6664171,9043
1.7528309,9044
1.788183,9045
1.725897,9046
1.7225472,9047
1.6709335,9048
1.8628975,9049
1.8573443,9050
1.8647095,9051
1.6991596,9052
1.7848853,9053
1.7834785,9054
1.8253671,9055
1.710996,9056
1.6941797,9057
1.5586017,9058
1.1724507,9059
1.5504289,9060
1.6907741,9061
1.7518482,9062
1.8191831,9063
1.7760854,9064
1.8391868,9065
1.8769449,9066
1.9974082,9067
1.8932287,9068
1.9284035,9069
1.6822236,9070
1.791564,9071
1.8306253,9072
1.8672868,9073
1.6989597,9074
1.8022951,9075
1.5607271,9076
1.2552522,9077
1.1927521,9078
1.6279393,9079
1.7037354,9080
1.6116449,9081
1.768317,9082
1.8942367,9083
1.8319565,9084
1.947755,9085
1.9389073,9086
1.9202847,9087
1.7403859,9088
1.7569371,9089
1.8889016,9090
1.7691368,9091
1.7382442,9092
1.840023,9093
1.8396657,9094
1.6771153,9095
1.4721286,9096
1.6310643,9097
1.7305359,9098
1.9470382,9099
1.9221145,9100
1.972985,9101
1.764528,9102
1.9354914,9103
1.9657508,9104
2.0162935,9105
1.8253504,9106
1.6670327,9107
1.8792095,9108
1.847629,9109
1.8176793,9110
1.7160051,9111
1.9167714,9112
1.8163664,9113
1.5847073,9114
1.5932405,9115
1.6436152,9116
1.8635107,9117
1.8455219,9118
1.904042,9119
1.8933797,9120
1.890432,9121
1.9242599,9122
1.9549277,9123
1.8115872,9124
1.61797,9125
1.7243173,9126
1.8874376,9127
1.8807133,9128
1.7494893,9129
1.7742395,9130
1.7976527,9131
1.6825615,9132
1.5232859,9133
1.4981182,9134
1.6668061,9135
1.8560185,9136
1.7838652,9137
1.8640023,9138
1.9021944,9139
1.9093174,9140
1.9969906,9141
1.8968648,9142
1.761671,9143
1.7692934,9144
1.8887819,9145
1.932559,9146
1.8661768,9147
1.7072262,9148
1.7616832,9149
1.6967343,9150
1.4892122,9151
1.5641847,9152
1.6758765,9153
1.9332459,9154
1.9919379,9155
1.9585711,9156
1.7550654,9157
1.8606945,9158
1.9846102,9159
1.8158181,9160
1.776087,9161
1.7836361,9162
1.8800403,9163
2.0387173,9164
1.8967586,9165
1.7916723,9166
1.6204708,9167
1.5848954,9168
1.649729,9169
1.5000755,9170
1.3252583,9171
1.6089085,9172
1.8313307,9173
1.6588905,9174
1.7921171,9175
1.7779133,9176
1.7630227,9177
1.9040805,9178
1.8162916,9179
1.9040318,9180
1.7898502,9181
1.9040781,9182
2.0483975,9183
1.9519503,9184
1.7110813,9185
1.6871476,9186
1.5529413,9187
1.4507264,9188
1.4681476,9189
1.6607126,9190
1.9221649,9191
1.9589975,9192
1.9515636,9193
1.8516561,9194
1.9834794,9195
1.9813039,9196
1.8803475,9197
1.9831054,9198
1.7677567,9199
1.7210165,9200
1.8708272,9201
1.9132204,9202
1.6818827,9203
1.8804088,9204
1.7378532,9205
1.545289,9206
1.4624811,9207
1.6735181,9208
1.7973492,9209
1.7867005,9210
1.9715182,9211
1.8913553,9212
1.8453351,9213
1.8657318,9214
2.0084999,9215
1.9149373,9216
1.8394427,9217
1.6714071,9218
1.7742873,9219
1.7495738,9220
1.8285666,9221
1.7379682,9222
1.7507188,9223
1.4794598,9224
1.3857567,9225
1.3942673,9226
1.6164583,9227
1.8757876,9228
1.881128,9229
1.65519,9230
1.3635696,9231
1.4012219,9232
1.3487917,9233
1.2908854,9234
1.3214456,9235
1.3855797,9236
1.454503,9237
1.5825881,9238
1.5369732,9239
1.366162,9240
1.5695335,9241
1.3406093,9242
1.3412181,9243
1.2659106,9244
1.3865256,9245
1.4563458,9246
1.5380671,9247
1.7046858,9248
1.4374326,9249
1.2980702,9250
1.2998747,9251
1.3026859,9252
1.2086153,9253
1.3268946,9254
1.4188665,9255
1.4047678,9256
1.4820749,9257
1.3410184,9258
1.5399072,9259
1.3844712,9260
1.3970428,9261
1.2359977,9262
1.2450264,9263
1.3029863,9264
1.4383192,9265
1.5405322,9266
1.5545694,9267
1.273447,9268
1.2544388,9269
1.1894194,9270
1.1957111,9271
1.1755469,9272
1.3208239,9273
1.3062559,9274
1.4370195,9275
1.4175869,9276
1.2880602,9277
1.4526294,9278
1.3143251,9279
1.2705103,9280
1.2094626,9281
1.2491435,9282
1.2751353,9283
1.4279857,9284
1.566773,9285
1.2811786,9286
1.2966659,9287
1.298505,9288
1.3190937,9289
1.1519746,9290
1.237597,9291
1.2636588,9292
1.3537937,9293
1.2867777,9294
1.2956488,9295
1.4823895,9296
1.3340342,9297
1.3092782,9298
1.2035087,9299
1.2044212,9300
1.2588919,9301
1.3688455,9302
1.3888696,9303
1.4283471,9304
1.2543314,9305
1.1739992,9306
1.1386411,9307
1.047456,9308
1.187757,9309
1.2363523,9310
1.292276,9311
1.3149548,9312
1.4850117,9313
1.3323636,9314
1.3754218,9315
1.1681522,9316
1.062057,9317
1.0487477,9318
1.3343431,9319
1.2246193,9320
1.2614841,9321
1.4475583,9322
1.2116094,9323
1.2637023,9324
1.2115829,9325
1.254564,9326
1.1913799,9327
1.3307226,9328
1.2989372,9329
1.4300078,9330
1.4416082,9331
1.3391088,9332
1.410703,9333
1.2678636,9334
1.1207999,9335
0.99867254,9336
1.2739054,9337
1.4898854,9338
1.444176,9339
1.4492853,9340
1.362481,9341
1.1705877,9342
1.2522342,9343
1.1519804,9344
1.0046537,9345
1.1808988,9346
1.229638,9347
1.3509445,9348
1.4834585,9349
1.3510429,9350
1.2959398,9351
1.2505983,9352
1.099019,9353
1.0179105,9354
1.0587298,9355
1.2400284,9356
1.3035599,9357
1.2712402,9358
1.2733536,9359
1.1925023,9360
1.182443,9361
1.0926644,9362
1.0973343,9363
1.0278221,9364
1.0869226,9365
1.2023501,9366
1.242915,9367
1.2384758,9368
1.23248,9369
1.2971382,9370
1.1407049,9371
1.0354056,9372
0.9375301,9373
1.0350592,9374
1.1465429,9375
1.13779,9376
1.2378837,9377
1.2685965,9378
1.2023091,9379
1.185728,9380
1.1328121,9381
0.95686734,9382
1.0540061,9383
1.1633792,9384
1.1843102,9385
1.1378943,9386
1.2460456,9387
1.1903408,9388
1.1780541,9389
1.0282884,9390
1.0994256,9391
1.1009238,9392
1.0011928,9393
1.1315488,9394
1.0943164,9395
1.1690949,9396
1.1023363,9397
1.0358956,9398
0.99701077,9399
1.0267817,9400
1.0058568,9401
1.0321454,9402
1.0943742,9403
1.2275661,9404
1.2328643,9405
1.207159,9406
1.2426829,9407
1.045262,9408
1.1160758,9409
1.0030249,9410
1.0753146,9411
1.0589297,9412
1.0347579,9413
1.11449,9414
1.1468176,9415
1.0973686,9416
1.0441538,9417
0.99750847,9418
0.9134421,9419
0.93175507,9420
1.0760995,9421
1.0490012,9422
1.0597208,9423
0.9997354,9424
1.1049782,9425
1.0371814,9426
0.96284586,9427
0.9412457,9428
0.9537708,9429
0.9001755,9430
0.9425335,9431
0.92584795,9432
0.8798112,9433
0.9470027,9434
0.9426364,9435
0.94818866,9436
0.9420501,9437
0.8519841,9438
0.90212196,9439
0.8480642,9440
0.85202384,9441
0.87988454,9442
0.90789837,9443
0.92998564,9444
0.79204893,9445
0.8886064,9446
0.8285765,9447
0.8850036,9448
0.8588821,9449
0.8842638,9450
0.8941085,9451
0.98035705,9452
0.80267304,9453
0.9144041,9454
0.92397106,9455
1.0178238,9456
1.1715925,9457
1.1343514,9458
1.0811238,9459
1.0445038,9460
1.031707,9461
1.1186727,9462
1.0039965,9463
1.0572497,9464
0.89447516,9465
1.3184227,9466
1.059055,9467
1.0730566,9468
1.0227607,9469
1.0264759,9470
1.1636816,9471
1.1739748,9472
1.1829219,9473
1.0807444,9474
1.0029392,9475
1.1227359,9476
0.9645191,9477
0.87740487,9478
0.9701677,9479
1.3109306,9480
1.1202452,9481
0.978843,9482
1.1067529,9483
1.0146667,9484
1.1782942,9485
1.1420549,9486
1.0494035,9487
0.9948823,9488
1.2853187,9489
1.0575622,9490
0.92102647,9491
1.0668195,9492
0.94995266,9493
1.0220993,9494
1.0002205,9495
0.9103313,9496
0.9186506,9497
1.0318974,9498
1.1780956,9499
1.1152185,9500
1.0249177,9501
0.8750877,9502
1.2856357,9503
1.077846,9504
0.93354297,9505
0.9703146,9506
0.9221271,9507
1.0766021,9508
0.98579234,9509
1.0300583,9510
0.9371513,9511
1.0306277,9512
1.0669258,9513
0.96335495,9514
0.85195565,9515
0.9948113,9516
1.2181258,9517
1.039549,9518
0.9162841,9519
0.98429054,9520
0.9363329,9521
1.0163801,9522
0.9912895,9523
0.8632479,9524
0.93611693,9525
0.9661929,9526
0.9011662,9527
0.87300277,9528
0.85041857,9529
0.8459334,9530
0.91856265,9531
0.86371857,9532
0.8335898,9533
0.7978814,9534
0.7926391,9535
0.9644831,9536
0.9363341,9537
0.8712681,9538
0.8701009,9539
0.86480445,9540
0.9497818,9541
0.9301394,9542
0.90586376,9543
0.9398899,9544
0.8988521,9545
0.87318355,9546
0.8131251,9547
0.80976146,9548
0.9034301,9549
0.93403035,9550
0.9492727,9551
0.9679577,9552
0.92696077,9553
0.9474918,9554
0.91428554,9555
0.9976013,9556
1.0592688,9557
1.0853019,9558
0.9829689,9559
1.1353546,9560
1.1767291,9561
1.0388547,9562
0.94651467,9563
0.7704605,9564
0.7794414,9565
0.7912702,9566
0.8464481,9567
0.92391306,9568
0.96571213,9569
0.9864871,9570
0.94150037,9571
0.9543343,9572
0.9814185,9573
0.98350245,9574
1.0797285,9575
1.0951004,9576
1.1608409,9577
1.2665722,9578
1.3079414,9579
1.4641131,9580
1.2089213,9581
0.87090576,9582
0.83876413,9583
0.8714104,9584
0.890298,9585
0.89899623,9586
1.0113666,9587
0.9871412,9588
0.9804491,9589
1.0265406,9590
0.9677376,9591
0.9508872,9592
0.9399506,9593
1.0739267,9594
1.099901,9595
1.1676052,9596
1.2738894,9597
1.5336016,9598
1.3875659,9599
0.8950725,9600
0.7865433,9601
0.8160873,9602
0.82767016,9603
0.85216516,9604
1.1332299,9605
1.0567175,9606
1.0728343,9607
1.0613788,9608
0.9693811,9609
0.96166295,9610
0.98653626,9611
1.0298517,9612
1.109048,9613
1.2433015,9614
1.3749944,9615
1.4790314,9616
1.5711771,9617
1.2729596,9618
0.89119226,9619
0.8163214,9620
0.8659714,9621
0.9257235,9622
1.0273432,9623
1.0635707,9624
1.0422829,9625
1.1406775,9626
1.0501062,9627
0.9165263,9628
0.9096169,9629
1.1389878,9630
1.0963141,9631
1.1109899,9632
1.219861,9633
1.3577235,9634
1.2618523,9635
1.3924719,9636
0.92451835,9637
0.7979891,9638
0.7566644,9639
0.80172336,9640
0.8983281,9641
1.0277716,9642
0.97792846,9643
0.9081882,9644
1.0108825,9645
0.928606,9646
0.9624685,9647
0.9979325,9648
1.1593468,9649
1.0802361,9650
1.1394789,9651
1.3304881,9652
1.3514607,9653
1.4054595,9654
1.20279,9655
0.90691334,9656
0.82832265,9657
0.8290914,9658
0.8665865,9659
1.0083745,9660
0.9862465,9661
0.93642664,9662
1.0536493,9663
0.9855491,9664
0.97202134,9665
0.9597301,9666
0.98576826,9667
1.1211162,9668
1.1134864,9669
1.2866114,9670
1.2561467,9671
1.3831246,9672
1.4368967,9673
0.79620254,9674
0.7346085,9675
0.797582,9676
0.77171975,9677
0.9117346,9678
0.9238881,9679
0.9457059,9680
0.8550899,9681
0.9706757,9682
0.89541113,9683
0.8757932,9684
0.98910177,9685
1.0592273,9686
1.1219331,9687
1.2386827,9688
1.342768,9689
1.3225181,9690
1.3544643,9691
1.1617099,9692
0.8241587,9693
0.7884427,9694
0.87585497,9695
0.8861046,9696
0.95899475,9697
1.026887,9698
1.0112628,9699
1.1232738,9700
0.98717326,9701
0.9540965,9702
0.9332825,9703
1.0311195,9704
1.1699896,9705
1.0443165,9706
1.1160464,9707
1.2558458,9708
1.2327224,9709
1.3641337,9710
0.89397144,9711
0.78688073,9712
0.784384,9713
0.8440178,9714
0.8996413,9715
1.0023406,9716
1.0802336,9717
0.94327134,9718
1.0905812,9719
0.9252765,9720
0.96088624,9721
1.0444317,9722
1.143424,9723
1.1415625,9724
1.1935616,9725
1.3269533,9726
1.5084771,9727
1.5071481,9728
1.1746576,9729
0.89071125,9730
0.8795107,9731
0.9262029,9732
0.9705409,9733
0.98373896,9734
1.0672606,9735
1.0037116,9736
1.1071038,9737
1.0644772,9738
0.9684798,9739
0.9955609,9740
1.1488093,9741
1.2233129,9742
1.3569161,9743
1.4810768,9744
1.6216878,9745
1.621112,9746
1.3932062,9747
0.8746587,9748
0.8150612,9749
0.8014937,9750
0.83846736,9751
0.9415631,9752
1.1503482,9753
1.127517,9754
1.181651,9755
1.0772057,9756
0.9540602,9757
0.95379746,9758
1.0097375,9759
1.132106,9760
1.1312482,9761
1.3636073,9762
1.5786998,9763
1.6938474,9764
1.4895055,9765
1.0256808,9766
0.83309263,9767
0.94087213,9768
0.92546475,9769
0.8877657,9770
1.1257601,9771
1.0695673,9772
1.1544032,9773
1.1873803,9774
0.9640751,9775
0.980077,9776
0.9053445,9777
1.1111863,9778
1.029361,9779
1.1137547,9780
1.1908524,9781
1.3566278,9782
1.1694325,9783
1.2320132,9784
0.77430916,9785
0.7847238,9786
0.81577206,9787
0.836726,9788
0.87701976,9789
0.9628759,9790
0.9401167,9791
0.90331167,9792
0.945044,9793
0.9151854,9794
0.95755976,9795
0.997046,9796
1.049416,9797
1.1546098,9798
1.2775565,9799
1.4100385,9800
1.3874744,9801
1.3857594,9802
1.0130942,9803
0.87377936,9804
0.86208105,9805
0.78774565,9806
0.82279676,9807
0.9297551,9808
0.934326,9809
0.9909968,9810
1.0405829,9811
1.2059011,9812
1.1584661,9813
1.189534,9814
1.3044604,9815
1.2516328,9816
0.9862847,9817
1.0239726,9818
1.2748727,9819
1.2202758,9820
1.2985227,9821
0.8785376,9822
0.7700173,9823
0.8240641,9824
0.95649195,9825
0.9004596,9826
0.95858127,9827
0.8974318,9828
0.93564767,9829
0.9493715,9830
0.97121376,9831
0.99681884,9832
1.0535166,9833
1.1699207,9834
1.1014662,9835
1.1814725,9836
1.4079316,9837
1.4326583,9838
1.6053561,9839
0.9541799,9840
0.8902406,9841
0.8657853,9842
0.8479346,9843
0.9257605,9844
1.032788,9845
1.0586118,9846
1.1000383,9847
1.2436244,9848
0.8897235,9849
1.0006903,9850
0.90632176,9851
1.1164393,9852
1.1928493,9853
1.1161686,9854
1.092889,9855
1.3597931,9856
1.3001436,9857
1.1500314,9858
0.92605793,9859
0.71757567,9860
0.8732091,9861
0.90022975,9862
0.8996978,9863
0.92961234,9864
0.94867307,9865
1.0569967,9866
1.0125369,9867
0.96134335,9868
1.0203118,9869
0.9560667,9870
1.2132034,9871
1.39864,9872
1.3258598,9873
1.6472983,9874
1.4614735,9875
1.5944399,9876
0.9097742,9877
0.8405816,9878
0.884085,9879
0.80983955,9880
1.0056705,9881
1.146159,9882
1.1655343,9883
1.1396474,9884
1.2515835,9885
0.91636306,9886
0.98043424,9887
0.9720938,9888
1.1439837,9889
1.190398,9890
1.221263,9891
1.3442503,9892
1.4716886,9893
1.423289,9894
1.2290246,9895
0.8076213,9896
0.88927025,9897
0.89139026,9898
0.9089333,9899
1.0431379,9900
1.1695867,9901
1.0061692,9902
1.1222804,9903
1.0828831,9904
0.97917885,9905
0.98208416,9906
1.0656817,9907
1.1090038,9908
1.2044737,9909
1.3726989,9910
1.4320123,9911
1.6937228,9912
1.5061615,9913
0.8074082,9914
0.876755,9915
0.85786086,9916
0.82602376,9917
0.9573965,9918
1.089682,9919
1.0339159,9920
1.104223,9921
1.2292804,9922
0.93991596,9923
0.9656665,9924
0.98471624,9925
1.2385589,9926
1.2788885,9927
1.1573528,9928
1.2613723,9929
1.2498761,9930
1.3703976,9931
1.0506122,9932
0.8559991,9933
0.7721278,9934
0.8654057,9935
0.9376648,9936
0.9421415,9937
1.003315,9938
0.9855527,9939
0.98614746,9940
1.0038741,9941
0.9886079,9942
0.9850731,9943
1.0329779,9944
1.0983768,9945
1.239727,9946
1.32339,9947
1.3777286,9948
1.5952934,9949
1.495339,9950
0.860746,9951
0.8197324,9952
0.761004,9953
0.80764997,9954
0.97590023,9955
1.0315243,9956
0.97936904,9957
1.0599784,9958
1.1422384,9959
0.9834891,9960
0.9856196,9961
1.0221894,9962
1.2300729,9963
1.1711613,9964
1.1842752,9965
1.4171617,9966
1.3823818,9967
1.4009159,9968
1.056226,9969
0.7955081,9970
0.82551295,9971
0.8622398,9972
0.91578686,9973
0.959719,9974
1.0567575,9975
0.9715657,9976
1.0021279,9977
0.9675817,9978
1.0145133,9979
0.9147478,9980
1.0825174,9981
1.1433883,9982
1.2813913,9983
1.3971539,9984
1.453748,9985
1.6094549,9986
1.4676503,9987
0.88744146,9988
0.837371,9989
0.8297037,9990
0.86647964,9991
0.97334415,9992
1.044281,9993
1.0382811,9994
1.0797925,9995
1.0595878,9996
0.9667572,9997
0.9391593,9998
1.111342,9999
1.2702782,10000
1.3633262,10001
1.4230754,10002
1.4266452,10003
1.473782,10004
1.4712204,10005
0.93583363,10006
0.7195556,10007
0.8173573,10008
0.9151163,10009
0.92098665,10010
0.9812028,10011
1.0688722,10012
1.0534359,10013
1.0229894,10014
0.98762,10015
0.9897958,10016
1.1128948,10017
1.134957,10018
1.1944462,10019
1.3961182,10020
1.4588592,10021
1.6089134,10022
1.7354946,10023
1.36935,10024
0.8824693,10025
0.8159809,10026
0.87429905,10027
0.91726,10028
1.099722,10029
1.1714048,10030
1.1057794,10031
1.1436048,10032
1.2031678,10033
1.0582566,10034
1.0485013,10035
1.224261,10036
1.3821323,10037
1.3386312,10038
1.4738516,10039
1.5095435,10040
1.3903279,10041
1.4517803,10042
0.8967689,10043
0.9422049,10044
0.79233855,10045
0.869808,10046
0.9050599,10047
1.0115038,10048
1.1045629,10049
1.0829933,10050
1.1654733,10051
0.9755299,10052
1.0051644,10053
0.9687005,10054
1.1335462,10055
1.2444518,10056
1.2866994,10057
1.443063,10058
1.5980136,10059
1.4520022,10060
1.3958156,10061
0.94324803,10062
0.8922922,10063
0.9102919,10064
0.9525849,10065
0.9916732,10066
1.0852405,10067
1.0734212,10068
1.2398288,10069
1.1498537,10070
0.9396742,10071
1.0820745,10072
1.3532861,10073
1.484288,10074
1.4619173,10075
1.3546312,10076
1.421914,10077
1.4147258,10078
1.4775014,10079
0.8651233,10080
0.77530545,10081
0.9325505,10082
0.85103136,10083
0.9446437,10084
0.99587655,10085
1.0364244,10086
1.0636708,10087
1.2467033,10088
0.94785494,10089
0.9640845,10090
0.96919227,10091
1.1327492,10092
1.2194405,10093
1.357363,10094
1.4452815,10095
1.5746465,10096
1.4914495,10097
1.3107301,10098
0.9295552,10099
0.8188734,10100
0.88111,10101
0.92053616,10102
0.9703422,10103
0.9370138,10104
0.88587755,10105
1.0620879,10106
1.2542739,10107
1.2387588,10108
1.175551,10109
1.4362726,10110
1.5439125,10111
1.1799521,10112
1.1487418,10113
1.1579499,10114
1.2985325,10115
1.3676956,10116
0.81138456,10117
0.8417968,10118
0.74128497,10119
0.809732,10120
0.95004165,10121
1.1084669,10122
1.071141,10123
1.1945003,10124
1.1858348,10125
0.9170426,10126
0.95658237,10127
0.99845934,10128
1.1545537,10129
1.1868308,10130
1.3602983,10131
1.4947752,10132
1.5529282,10133
1.5672296,10134
1.2333082,10135
0.85082805,10136
0.8554647,10137
0.8589886,10138
0.9198157,10139
0.99523973,10140
1.0791415,10141
1.001895,10142
1.0734035,10143
1.0119071,10144
1.089615,10145
1.0442855,10146
1.3163136,10147
1.4755738,10148
1.2966243,10149
1.3395611,10150
1.4937855,10151
1.5041975,10152
1.4246745,10153
0.8235872,10154
0.76467764,10155
0.7728204,10156
0.8529685,10157
0.9772738,10158
1.1590297,10159
1.1292206,10160
1.1364309,10161
1.1271225,10162
0.9543039,10163
0.98632574,10164
1.053757,10165
1.1304678,10166
1.1909698,10167
1.4064267,10168
1.5852026,10169
1.7061497,10170
1.6150665,10171
1.073266,10172
0.87735546,10173
0.8199956,10174
0.8209713,10175
0.8464286,10176
1.0986488,10177
1.1288987,10178
1.1295955,10179
1.181214,10180
0.98252386,10181
1.0627472,10182
1.0618323,10183
1.1562698,10184
1.1034392,10185
1.208616,10186
1.2666687,10187
1.2582093,10188
1.3960875,10189
1.3571656,10190
0.88975215,10191
0.85609007,10192
0.7812071,10193
0.872193,10194
0.9281999,10195
1.0343506,10196
0.9763208,10197
0.98852056,10198
0.9417368,10199
0.9788877,10200
0.98395354,10201
1.0711159,10202
1.047875,10203
1.07752,10204
1.3004111,10205
1.3877392,10206
1.5444643,10207
1.729392,10208
1.0584615,10209
0.86342394,10210
0.82086134,10211
0.8342275,10212
0.91333497,10213
1.0188496,10214
1.1099766,10215
0.96484303,10216
1.1640153,10217
0.99103916,10218
1.0197979,10219
0.96614623,10220
1.117166,10221
1.095154,10222
1.136893,10223
1.3075644,10224
1.3248153,10225
1.206181,10226
1.2780638,10227
0.82761246,10228
0.8257581,10229
0.8306323,10230
0.86906135,10231
0.9233051,10232
0.9982113,10233
0.95656896,10234
0.9832392,10235
0.9073584,10236
1.0125816,10237
1.033996,10238
1.0648545,10239
1.1349618,10240
1.2339833,10241
1.4606887,10242
1.577184,10243
1.5444177,10244
1.6518773,10245
0.88682556,10246
0.86351097,10247
0.8492519,10248
0.82802445,10249
0.9208565,10250
1.0557191,10251
1.1674799,10252
1.1463562,10253
1.2263136,10254
1.0054698,10255
1.0236485,10256
1.0722091,10257
1.0964199,10258
1.1684042,10259
1.2006491,10260
1.545957,10261
1.4899302,10262
1.6064608,10263
1.3017819,10264
0.8232307,10265
0.8259361,10266
0.79561144,10267
0.9326644,10268
0.9417018,10269
1.0684967,10270
0.9533932,10271
0.95873386,10272
1.0251251,10273
0.92995775,10274
1.0354261,10275
1.1912085,10276
1.2206253,10277
1.2356166,10278
1.4175397,10279
1.6367059,10280
1.5775262,10281
1.4859598,10282
0.8564201,10283
0.8739345,10284
0.82545686,10285
0.81537735,10286
1.0416961,10287
1.0565271,10288
1.142205,10289
1.2052813,10290
1.3271298,10291
0.91880864,10292
0.96863455,10293
1.040185,10294
1.1192566,10295
1.1734552,10296
1.2044699,10297
1.3380952,10298
1.4284065,10299
1.3792932,10300
1.2852395,10301
0.8325976,10302
0.884045,10303
0.9145707,10304
1.0567236,10305
1.0192109,10306
1.1024197,10307
1.1879262,10308
1.1627257,10309
1.1448337,10310
0.96479464,10311
1.0160294,10312
1.0853397,10313
1.2934498,10314
1.3033177,10315
1.539916,10316
1.5460821,10317
1.6127263,10318
1.5835278,10319
0.93483335,10320
0.8839157,10321
0.8739786,10322
0.8711301,10323
1.054851,10324
0.9940228,10325
1.0648353,10326
1.1491781,10327
1.4611588,10328
0.96934986,10329
1.0014492,10330
1.0452536,10331
1.2304124,10332
1.2000643,10333
1.1972233,10334
1.4328456,10335
1.4661903,10336
1.4911432,10337
1.2162211,10338
0.8212327,10339
0.8653451,10340
0.9444886,10341
1.0310988,10342
0.9669915,10343
0.9883484,10344
0.99470055,10345
1.0214413,10346
0.96268964,10347
1.0222144,10348
0.99217945,10349
1.1997993,10350
1.2712052,10351
1.3062286,10352
1.4734995,10353
1.5280463,10354
1.5416548,10355
1.4833364,10356
0.8895852,10357
0.8216424,10358
0.88589823,10359
0.8895925,10360
1.0143687,10361
1.1347353,10362
1.1895726,10363
1.2005817,10364
1.412432,10365
0.9443351,10366
1.0385767,10367
1.0631545,10368
1.0729946,10369
1.1526718,10370
1.0812311,10371
1.2672662,10372
1.3220543,10373
1.2682717,10374
1.098288,10375
0.8365556,10376
0.8696502,10377
0.8832775,10378
1.0667555,10379
0.95188314,10380
1.0431935,10381
0.97577304,10382
0.9304302,10383
0.9563066,10384
0.9525597,10385
0.987788,10386
1.1485513,10387
1.33394,10388
1.3561933,10389
1.5839399,10390
1.6206905,10391
1.6710594,10392
1.5212522,10393
0.907071,10394
0.84005165,10395
0.77955455,10396
0.8423528,10397
0.9029788,10398
0.91812146,10399
1.0649015,10400
1.1393851,10401
1.30408,10402
1.2324132,10403
1.2694092,10404
1.2826369,10405
1.4009281,10406
1.2129865,10407
1.1885519,10408
1.2733746,10409
1.4207253,10410
1.614972,10411
1.1370293,10412
0.9007944,10413
0.92445123,10414
0.9551251,10415
1.0410203,10416
1.0432739,10417
1.0660579,10418
0.9536517,10419
1.0541245,10420
0.94973654,10421
1.0244987,10422
1.0628959,10423
1.3198928,10424
1.3081993,10425
1.3494023,10426
1.5280126,10427
1.6620611,10428
1.6699288,10429
1.5040905,10430
0.9040541,10431
0.93017906,10432
0.8753821,10433
0.86170906,10434
1.098157,10435
1.2794207,10436
1.2989229,10437
1.3348123,10438
1.4404739,10439
1.0448267,10440
0.9966685,10441
1.1257464,10442
1.1724138,10443
1.2625016,10444
1.1887888,10445
1.3747152,10446
1.4778608,10447
1.3423913,10448
1.0207464,10449
0.9293505,10450
0.9515512,10451
0.98494345,10452
1.0600116,10453
1.0534693,10454
1.0487623,10455
1.1243073,10456
1.133242,10457
0.9758355,10458
1.0037149,10459
1.0892844,10460
1.2092332,10461
1.331185,10462
1.3334002,10463
1.598307,10464
1.6569899,10465
1.6846727,10466
1.3334844,10467
0.86838114,10468
0.87371236,10469
0.82257897,10470
0.89639926,10471
0.9995265,10472
1.1700354,10473
1.1559286,10474
1.4232749,10475
1.282767,10476
0.98467207,10477
1.0998616,10478
1.0893779,10479
1.3070688,10480
1.145177,10481
1.2443995,10482
1.2765208,10483
1.2585087,10484
1.4151664,10485
0.95711213,10486
0.86008275,10487
0.9870375,10488
1.0048895,10489
0.9275894,10490
0.9898921,10491
1.0180284,10492
1.0617667,10493
1.1366946,10494
0.96614003,10495
1.0236905,10496
1.009121,10497
1.1378386,10498
1.1216222,10499
1.352942,10500
1.5235149,10501
1.7153696,10502
1.6609551,10503
1.370439,10504
0.8747335,10505
0.9001933,10506
0.86831945,10507
0.8474625,10508
1.0171208,10509
1.1016028,10510
1.0926683,10511
1.257458,10512
1.1018072,10513
0.9899285,10514
0.9635177,10515
1.1824837,10516
1.1316351,10517
1.3417033,10518
1.2467812,10519
1.2660363,10520
1.254508,10521
1.2931881,10522
0.8498566,10523
0.7910462,10524
0.8748587,10525
0.92965454,10526
0.9903808,10527
1.003616,10528
1.0721288,10529
0.96669406,10530
1.0453091,10531
0.9112135,10532
0.9221391,10533
1.0288348,10534
1.1475654,10535
1.2125343,10536
1.5286463,10537
1.6042722,10538
1.6499925,10539
1.8457801,10540
1.2769092,10541
0.82129705,10542
0.8594201,10543
0.72569025,10544
0.80682856,10545
0.9762655,10546
1.0976187,10547
1.0908608,10548
1.2360874,10549
1.1408958,10550
1.017617,10551
1.0679128,10552
1.2820985,10553
1.4275148,10554
1.4538115,10555
1.405613,10556
1.4727618,10557
1.602851,10558
1.4944893,10559
0.85508907,10560
0.79718053,10561
0.86887884,10562
0.8948984,10563
0.9383568,10564
1.0060111,10565
1.114375,10566
1.0992749,10567
1.1964588,10568
0.9359964,10569
0.9643171,10570
1.0258936,10571
1.1276067,10572
1.4045902,10573
1.549109,10574
1.5959699,10575
1.7389797,10576
1.7968026,10577
1.1957114,10578
0.86054534,10579
0.86380154,10580
0.84800017,10581
0.890662,10582
0.9492748,10583
1.0970402,10584
1.1562327,10585
1.2387037,10586
1.1665066,10587
1.0412959,10588
1.2136732,10589
1.3446589,10590
1.4428145,10591
1.3578101,10592
1.4699128,10593
1.5292137,10594
1.5114313,10595
1.3576025,10596
0.8241559,10597
0.8080417,10598
0.846039,10599
0.9179971,10600
0.9552338,10601
1.0406048,10602
1.1004872,10603
1.0010613,10604
0.9619378,10605
0.961929,10606
0.9461313,10607
1.0533748,10608
1.0783123,10609
1.2727435,10610
1.4176874,10611
1.454895,10612
1.2791244,10613
1.3754851,10614
1.057953,10615
0.85982585,10616
0.77618086,10617
0.8373534,10618
0.8571875,10619
0.8292075,10620
0.9166891,10621
0.8978467,10622
0.87829655,10623
0.9693045,10624
1.2431792,10625
1.1114109,10626
1.1823509,10627
0.97765255,10628
0.9492959,10629
0.91458094,10630
0.9559682,10631
0.8642424,10632
0.928383,10633
0.79193264,10634
0.88164663,10635
0.986708,10636
0.863942,10637
0.9859307,10638
1.1529535,10639
1.0807364,10640
1.1912524,10641
0.9774188,10642
0.9199038,10643
0.95145434,10644
1.0800686,10645
1.0214175,10646
1.3993725,10647
1.2755328,10648
1.3265029,10649
1.3258923,10650
1.7185088,10651
0.93500406,10652
0.9535093,10653
0.9186215,10654
0.84214234,10655
0.9933733,10656
1.0695126,10657
1.1422776,10658
1.0786526,10659
1.0860397,10660
1.083548,10661
1.0329751,10662
1.1495774,10663
1.3067584,10664
1.4201655,10665
1.351529,10666
1.5440843,10667
1.5554752,10668
1.6144878,10669
1.3471787,10670
0.76559997,10671
0.8791776,10672
0.829386,10673
0.842161,10674
0.9213008,10675
1.0653665,10676
1.0957828,10677
1.2558131,10678
1.1845872,10679
0.93228275,10680
0.96322566,10681
1.085521,10682
1.0660868,10683
1.4176009,10684
1.328009,10685
1.4333391,10686
1.4565667,10687
1.6448532,10688
0.8395446,10689
0.77004015,10690
0.8483716,10691
0.79985625,10692
1.0112858,10693
0.9539546,10694
0.947973,10695
1.0414183,10696
1.1192844,10697
1.3546282,10698
1.306001,10699
1.2900059,10700
1.5715526,10701
1.4846439,10702
0.95208424,10703
1.1347895,10704
1.3895906,10705
1.4712892,10706
1.1705363,10707
0.8740527,10708
0.8698225,10709
0.8354905,10710
0.9040155,10711
0.92431056,10712
0.91953516,10713
0.8148643,10714
0.8757024,10715
0.8050456,10716
0.8202471,10717
0.88642603,10718
0.8420758,10719
0.8644728,10720
0.9418054,10721
0.93097097,10722
0.91931105,10723
0.8734056,10724
1.0094478,10725
0.87290514,10726
0.775661,10727
0.9192609,10728
0.83381504,10729
0.88010305,10730
0.93453044,10731
0.9241027,10732
0.899051,10733
0.9128766,10734
0.90438986,10735
0.85894376,10736
0.86948305,10737
0.99705356,10738
0.99882144,10739
1.0824014,10740
1.057156,10741
1.1593459,10742
1.1222793,10743
1.0407908,10744
0.7708758,10745
0.73809934,10746
0.74292606,10747
0.8548057,10748
0.9253719,10749
0.9530402,10750
0.8885918,10751
0.90420395,10752
0.9367997,10753
0.91402906,10754
0.86765945,10755
0.9756087,10756
1.0432585,10757
1.1311634,10758
1.1590893,10759
1.2594013,10760
1.2255859,10761
1.288769,10762
0.8374612,10763
0.83222646,10764
0.75068843,10765
0.8072752,10766
0.9160112,10767
0.92764485,10768
0.87764394,10769
0.92456925,10770
0.98590404,10771
0.952802,10772
0.89344615,10773
0.8797886,10774
0.9529963,10775
0.91706324,10776
1.0120432,10777
1.1468711,10778
1.0815092,10779
1.150589,10780
1.1440789,10781
0.8027178,10782
0.7168231,10783
0.8164293,10784
0.87291914,10785
0.85346127,10786
0.9569084,10787
0.82123786,10788
0.84150016,10789
0.87112284,10790
0.9355267,10791
0.88232553,10792
0.9348285,10793
0.9766536,10794
1.07556,10795
1.1560853,10796
1.2749581,10797
1.2154533,10798
1.3229178,10799
0.854324,10800
0.81523407,10801
0.7974201,10802
0.8268832,10803
0.8796514,10804
0.85027236,10805
0.91914755,10806
0.9173868,10807
0.9652057,10808
0.864496,10809
0.8875652,10810
0.8982737,10811
1.0201176,10812
0.9710895,10813
0.98758554,10814
1.1214204,10815
1.0957983,10816
1.0846679,10817
1.0355811,10818
0.6880736,10819
0.7368068,10820
0.79236466,10821
0.84588057,10822
0.8625822,10823
0.93451476,10824
0.81304973,10825
0.87803245,10826
0.92296916,10827
0.90118366,10828
0.8782862,10829
0.9915653,10830
1.008831,10831
1.1175287,10832
1.2273936,10833
1.2931786,10834
1.2727563,10835
1.2241019,10836
0.83173263,10837
0.78949183,10838
0.74182487,10839
0.8053877,10840
0.90255296,10841
0.9526271,10842
0.955276,10843
0.97305655,10844
1.0133903,10845
0.9247865,10846
0.8798673,10847
0.96803284,10848
0.98151606,10849
0.9943054,10850
1.2199839,10851
1.34006,10852
1.37412,10853
1.4593016,10854
0.98383904,10855
0.7618678,10856
0.71667355,10857
0.7832393,10858
0.8109052,10859
0.9517925,10860
0.8795326,10861
0.93474835,10862
0.8166465,10863
0.9022464,10864
0.8957494,10865
0.93432456,10866
1.0816991,10867
0.9835515,10868
1.0670508,10869
1.2450697,10870
1.2523941,10871
1.2292591,10872
1.1462744,10873
0.78397655,10874
0.7912624,10875
0.80900437,10876
0.8512721,10877
0.8453039,10878
0.8537925,10879
0.8903935,10880
0.9779948,10881
0.93157476,10882
0.90073544,10883
0.90460396,10884
0.89362,10885
0.9508489,10886
0.9491117,10887
0.9675887,10888
1.037224,10889
1.0185443,10890
1.1327076,10891
0.88695765,10892
0.7723748,10893
0.76768583,10894
0.7785768,10895
0.81953424,10896
0.83133405,10897
0.89464587,10898
0.8128891,10899
0.8499818,10900
0.9106432,10901
0.9157039,10902
0.82630366,10903
1.0093572,10904
0.9566774,10905
0.98940164,10906
1.1029695,10907
1.1657119,10908
1.2563708,10909
1.1794599,10910
0.8409166,10911
0.79214096,10912
0.8273283,10913
0.89606935,10914
0.83922565,10915
0.8908724,10916
0.89721346,10917
0.91911626,10918
0.96922916,10919
0.9019703,10920
0.9159717,10921
0.9555761,10922
0.94641227,10923
0.9136377,10924
0.9943606,10925
1.0574309,10926
1.0148176,10927
1.1983178,10928
0.8216588,10929
0.80774796,10930
0.73417974,10931
0.76754785,10932
0.86697173,10933
0.8583629,10934
0.81734526,10935
0.8360071,10936
0.8428289,10937
0.9184195,10938
0.92534834,10939
0.8944807,10940
0.9619748,10941
1.0000798,10942
1.0261244,10943
1.2145776,10944
1.14352,10945
1.193622,10946
1.0969821,10947
0.8321583,10948
0.82573533,10949
0.8533007,10950
0.83937997,10951
0.89221865,10952
0.9419163,10953
0.87556434,10954
0.892909,10955
0.92684036,10956
0.9445228,10957
0.89637786,10958
0.90137327,10959
0.9779961,10960
0.8713291,10961
0.9131437,10962
1.0434562,10963
1.0378679,10964
1.1730691,10965
0.7584941,10966
0.73848414,10967
0.71273035,10968
0.7511281,10969
0.8406946,10970
0.86925393,10971
0.8068607,10972
0.8331869,10973
0.8303574,10974
0.8818692,10975
0.83910775,10976
0.8953612,10977
0.9814806,10978
0.9851116,10979
1.098762,10980
1.2310714,10981
1.2784365,10982
1.199037,10983
1.1492289,10984
0.8930213,10985
0.8369029,10986
0.7569116,10987
0.8163708,10988
0.87805414,10989
0.8382338,10990
0.9354008,10991
0.9962243,10992
1.1531454,10993
1.0068141,10994
0.9501033,10995
1.0408543,10996
1.0973395,10997
0.9050936,10998
0.94264495,10999
1.0643559,11000
1.0733094,11001
1.2712624,11002
0.803457,11003
0.73055977,11004
0.7077599,11005
0.8354619,11006
0.7978907,11007
0.8624549,11008
0.84631145,11009
0.7927215,11010
0.778556,11011
0.93388224,11012
0.87268126,11013
0.8326042,11014
1.0157977,11015
0.89170164,11016
1.0938293,11017
1.086734,11018
1.1795706,11019
1.1568571,11020
1.059243,11021
0.81667984,11022
0.8557425,11023
0.81629926,11024
0.8231477,11025
0.8511874,11026
0.9168957,11027
0.84496,11028
0.94439226,11029
0.92963225,11030
0.85697293,11031
0.90235364,11032
0.93008536,11033
0.9679957,11034
0.8752609,11035
0.95752186,11036
0.9251674,11037
0.9398048,11038
1.0559694,11039
0.7954225,11040
0.7053708,11041
0.71289,11042
0.7863433,11043
0.8259529,11044
0.84672153,11045
0.7553493,11046
0.81608117,11047
0.8552529,11048
0.9240056,11049
0.8945824,11050
0.9258762,11051
0.954177,11052
0.9455615,11053
1.1351004,11054
1.1439134,11055
1.1650739,11056
1.0945156,11057
1.0464748,11058
0.851891,11059
0.82418245,11060
0.8825776,11061
0.8465972,11062
0.83663285,11063
0.85114866,11064
0.81770337,11065
0.94003916,11066
0.9439199,11067
0.9023445,11068
0.8468954,11069
0.9605445,11070
0.9859162,11071
0.8135376,11072
0.93377465,11073
0.94707555,11074
0.93373996,11075
1.0959134,11076
0.7943495,11077
0.8477969,11078
0.7760207,11079
0.8162545,11080
0.8336746,11081
0.80859077,11082
0.8177061,11083
0.76470953,11084
0.82957953,11085
0.91254735,11086
0.8636932,11087
0.92947066,11088
0.9377527,11089
0.966473,11090
1.0008899,11091
1.1609231,11092
1.1804744,11093
1.15298,11094
0.9316665,11095
0.8483043,11096
0.81439406,11097
0.8054975,11098
0.8494734,11099
0.894066,11100
0.80222815,11101
0.8678493,11102
0.9074165,11103
0.9185608,11104
0.8973685,11105
0.83125204,11106
0.9935674,11107
0.91531885,11108
0.87179756,11109
0.94391245,11110
0.98128265,11111
0.9444418,11112
1.0881037,11113
0.7524065,11114
0.72804123,11115
0.723316,11116
0.83518964,11117
0.82454336,11118
0.8213467,11119
0.81989944,11120
0.78083336,11121
0.8432733,11122
0.8810331,11123
0.8838533,11124
0.90603197,11125
0.9748661,11126
0.9830546,11127
1.0063602,11128
1.1971167,11129
1.1772329,11130
1.3285428,11131
0.88168734,11132
0.8975864,11133
0.7426041,11134
0.75866187,11135
0.84021676,11136
0.856303,11137
0.8184486,11138
0.83177465,11139
0.93101746,11140
0.9413207,11141
0.8820253,11142
0.8936062,11143
0.98728496,11144
0.9371534,11145
0.9635488,11146
1.1209855,11147
1.1331301,11148
1.0775992,11149
1.1436348,11150
0.7198476,11151
0.77391875,11152
0.7384591,11153
0.8287707,11154
0.7736813,11155
0.8387828,11156
0.82775736,11157
0.752838,11158
0.8783933,11159
0.9494815,11160
0.8909981,11161
0.9104029,11162
0.9340567,11163
0.9866403,11164
0.9933932,11165
1.181691,11166
1.0939052,11167
1.2000605,11168
0.8499552,11169
0.8392112,11170
0.7977005,11171
0.79018945,11172
0.8597256,11173
0.9063594,11174
0.80632395,11175
0.9026292,11176
0.9569401,11177
0.93579584,11178
0.9002044,11179
0.88971615,11180
0.97910357,11181
0.90921015,11182
0.8698212,11183
0.97373354,11184
0.9294039,11185
0.85684156,11186
0.9629177,11187
0.74581045,11188
0.7394556,11189
0.73394716,11190
0.78887075,11191
0.8503276,11192
0.7861388,11193
0.77801096,11194
0.85495883,11195
0.8372772,11196
0.93921214,11197
0.8964744,11198
0.90895796,11199
0.94115084,11200
0.9454698,11201
1.0209464,11202
1.2714095,11203
1.0735432,11204
1.2818346,11205
0.8059102,11206
0.882899,11207
0.7882884,11208
0.7917268,11209
0.8970807,11210
0.8665668,11211
0.77444124,11212
0.8778014,11213
0.9376974,11214
0.92829597,11215
0.9278455,11216
0.9109929,11217
0.9816868,11218
0.86547786,11219
0.83617365,11220
0.999726,11221
0.9475494,11222
0.837329,11223
0.98982316,11224
0.82215154,11225
0.7176569,11226
0.6979159,11227
0.7999336,11228
0.85040957,11229
0.7756537,11230
0.8073201,11231
0.80186254,11232
0.8780224,11233
0.91696304,11234
0.8679947,11235
0.9842987,11236
0.97041094,11237
0.95063794,11238
1.0701978,11239
1.1093489,11240
1.1665568,11241
1.2272133,11242
0.8972277,11243
0.86423373,11244
0.81420976,11245
0.85476446,11246
0.89019865,11247
0.873467,11248
0.8358137,11249
0.8892102,11250
0.9323585,11251
0.90986824,11252
0.91132545,11253
0.9298046,11254
1.0085725,11255
0.91342413,11256
0.8958575,11257
0.9057689,11258
0.9314313,11259
0.9235518,11260
1.0502648,11261
0.69833446,11262
0.7491016,11263
0.76220155,11264
0.8230189,11265
0.81190425,11266
0.85939,11267
0.75802374,11268
0.7618169,11269
0.92757004,11270
0.88648945,11271
0.885037,11272
0.90757066,11273
0.97366786,11274
0.9449625,11275
1.1303053,11276
1.0708507,11277
1.1874146,11278
1.1957529,11279
0.8244009,11280
0.84250593,11281
0.8053364,11282
0.7755487,11283
0.9131527,11284
0.9307411,11285
0.7955479,11286
0.939818,11287
1.0902776,11288
1.057908,11289
1.0303549,11290
0.8830308,11291
1.0134591,11292
0.95880544,11293
0.90634024,11294
0.94458234,11295
1.0088229,11296
1.0981625,11297
1.0496244,11298
0.8433079,11299
0.83704144,11300
0.93115515,11301
0.8680211,11302
0.8846568,11303
0.8368463,11304
0.8112028,11305
0.83128107,11306
0.85803574,11307
0.877541,11308
0.8508705,11309
0.8962253,11310
0.8521403,11311
0.82156914,11312
0.9354789,11313
0.8147083,11314
0.9501949,11315
1.0708306,11316
1.0722626,11317
0.9995915,11318
0.90453565,11319
0.86365616,11320
0.94032204,11321
0.8777347,11322
0.90337795,11323
0.94278455,11324
0.98069775,11325
0.9021847,11326
0.8624389,11327
0.9102602,11328
0.95553184,11329
1.0398577,11330
0.9563256,11331
1.0273591,11332
0.9475067,11333
1.1364448,11334
1.2400974,11335
1.1036036,11336
1.2237531,11337
1.477427,11338
1.4935061,11339
1.5662643,11340
1.3751057,11341
1.3726236,11342
1.1772776,11343
0.9471349,11344
0.8840385,11345
0.8799892,11346
0.97990954,11347
0.9238819,11348
1.0280592,11349
1.1882002,11350
1.192975,11351
1.2416968,11352
1.4115865,11353
1.2392236,11354
1.216462,11355
1.147814,11356
1.5091933,11357
1.8483428,11358
2.0000098,11359
2.2258973,11360
2.232365,11361
1.6623144,11362
0.9245909,11363
0.91593176,11364
0.8891653,11365
0.9745152,11366
0.87805647,11367
0.90201914,11368
0.9366709,11369
0.9344203,11370
1.1123189,11371
1.2173818,11372
1.1325786,11373
1.3146911,11374
1.8106458,11375
2.0615838,11376
2.1195912,11377
2.2692037,11378
2.4106598,11379
2.174344,11380
0.8756178,11381
0.89633816,11382
0.89318603,11383
1.0237494,11384
0.9319798,11385
1.0013448,11386
1.2000774,11387
1.2320724,11388
1.1647838,11389
1.3785261,11390
1.264325,11391
1.1235318,11392
1.2711287,11393
1.5338873,11394
1.9229789,11395
2.0332294,11396
2.3477736,11397
2.5056412,11398
1.5538913,11399
0.9201727,11400
0.8961274,11401
0.9414224,11402
0.95763785,11403
0.9038411,11404
0.8770564,11405
0.9484701,11406
0.9641425,11407
1.2128571,11408
1.1649781,11409
1.1859715,11410
1.3008993,11411
1.8587391,11412
2.0177515,11413
2.1436696,11414
2.3875017,11415
2.3955784,11416
2.2326703,11417
0.94928366,11418
0.8754973,11419
0.9082723,11420
1.0232127,11421
0.90238714,11422
1.0920337,11423
1.1593828,11424
1.2676033,11425
1.1063803,11426
1.4344599,11427
1.2790408,11428
1.1225085,11429
1.235392,11430
1.5408119,11431
1.9699501,11432
2.0877483,11433
2.2720788,11434
2.5698483,11435
1.4844104,11436
0.8885159,11437
0.8888822,11438
0.9709261,11439
0.9616,11440
0.9622353,11441
1.0691209,11442
1.1357856,11443
1.2329409,11444
1.4975289,11445
1.1059693,11446
1.1903358,11447
1.3551018,11448
1.9074337,11449
2.021867,11450
2.020563,11451
2.409327,11452
2.4359095,11453
1.902818,11454
0.95060253,11455
0.8839935,11456
0.91897887,11457
0.9984386,11458
0.94774354,11459
1.1261582,11460
1.1515605,11461
1.2490292,11462
1.1503922,11463
1.319327,11464
1.1759678,11465
1.1410089,11466
1.2636846,11467
1.4880486,11468
1.145427,11469
1.2844137,11470
1.4850817,11471
1.9779124,11472
1.1677325,11473
0.92247534,11474
0.88993955,11475
0.9720414,11476
0.95335835,11477
0.8662556,11478
0.9334997,11479
0.9438028,11480
0.9197522,11481
1.2733703,11482
1.0961756,11483
1.2158318,11484
1.4563997,11485
1.841521,11486
2.1360998,11487
2.108166,11488
2.4065473,11489
2.434062,11490
1.9594309,11491
0.9388719,11492
0.8879822,11493
0.9613277,11494
0.99285084,11495
0.9824169,11496
1.1261363,11497
1.1733916,11498
1.2969625,11499
1.1973567,11500
1.3954822,11501
1.2636937,11502
1.1383965,11503
1.3298557,11504
1.6260735,11505
1.9373835,11506
2.1887658,11507
2.257849,11508
2.5494378,11509
1.3063872,11510
0.90566427,11511
0.8820197,11512
0.97437197,11513
0.96266145,11514
0.8518874,11515
0.9305612,11516
0.96511585,11517
0.9378832,11518
1.3134204,11519
1.0991668,11520
1.2416968,11521
1.4949893,11522
1.8714978,11523
2.0988917,11524
2.1307647,11525
2.394743,11526
2.2867339,11527
1.9458034,11528
0.90667284,11529
0.9384025,11530
0.96927285,11531
0.9937299,11532
0.991773,11533
1.0498015,11534
1.2065417,11535
1.2182457,11536
1.2564877,11537
1.3515548,11538
1.2290248,11539
1.1259644,11540
1.3111291,11541
1.3862255,11542
1.1062654,11543
1.2217445,11544
1.5542177,11545
1.7836994,11546
1.0687324,11547
0.950808,11548
0.8752363,11549
1.0224693,11550
0.9753082,11551
0.83985144,11552
0.94409174,11553
0.9638499,11554
0.96074116,11555
1.3646847,11556
1.1424843,11557
1.2792966,11558
1.4860948,11559
1.9395516,11560
2.0367227,11561
2.208118,11562
2.4371078,11563
2.301288,11564
1.5123895,11565
0.9156745,11566
0.9078686,11567
0.9123927,11568
0.9804663,11569
1.0459479,11570
1.0222604,11571
1.2219477,11572
1.1820793,11573
1.3701462,11574
1.2079859,11575
1.2500575,11576
1.1390761,11577
1.251495,11578
1.1278888,11579
0.89726037,11580
0.91197973,11581
0.97910833,11582
1.1008618,11583
1.1462377,11584
1.0275134,11585
1.1042787,11586
1.255306,11587
1.232811,11588
0.9166693,11589
0.899009,11590
0.9707643,11591
1.0802661,11592
1.3074613,11593
1.1161041,11594
1.1650403,11595
1.3252512,11596
1.3352234,11597
1.6580198,11598
1.6161522,11599
1.7103455,11600
1.5809331,11601
1.3223835,11602
0.9630131,11603
0.8581835,11604
1.0123909,11605
0.9049033,11606
1.002689,11607
1.0645266,11608
1.1872104,11609
1.1071987,11610
1.3472009,11611
1.204657,11612
1.1904652,11613
1.058445,11614
1.2049156,11615
1.1571366,11616
1.1051995,11617
1.2197804,11618
1.4553457,11619
1.7217197,11620
0.8632887,11621
0.9145563,11622
0.9295999,11623
0.9695034,11624
0.9040751,11625
0.87979275,11626
0.9569545,11627
0.9447553,11628
0.86420804,11629
1.2909738,11630
1.0937222,11631
1.2045624,11632
1.2813315,11633
1.2251198,11634
1.4920746,11635
1.3666812,11636
1.4706565,11637
1.4412891,11638
1.1165727,11639
0.9330357,11640
0.8837541,11641
0.99749124,11642
0.87992287,11643
1.0007622,11644
1.0459174,11645
1.1002885,11646
1.0743945,11647
1.4460248,11648
1.1875881,11649
1.2101215,11650
1.126091,11651
1.2011919,11652
1.3205837,11653
1.3575414,11654
1.4136081,11655
1.515207,11656
1.5272933,11657
0.8986894,11658
0.8931816,11659
0.93049496,11660
0.95510185,11661
0.8543674,11662
0.8988271,11663
0.88975227,11664
0.98288584,11665
0.90094453,11666
1.3045071,11667
1.0185335,11668
1.1208297,11669
1.2523091,11670
1.138696,11671
1.3002847,11672
1.2818708,11673
1.3064656,11674
1.2394903,11675
1.0410035,11676
0.89648145,11677
0.8651762,11678
0.9802451,11679
0.8859695,11680
0.99275213,11681
1.064875,11682
1.0774099,11683
1.0844033,11684
1.3376818,11685
1.1800655,11686
1.167847,11687
1.145428,11688
1.1279984,11689
1.2420402,11690
1.2607765,11691
1.3641689,11692
1.3885181,11693
1.4151212,11694
0.8670969,11695
0.86592823,11696
0.983087,11697
0.92478853,11698
0.8658717,11699
0.9011575,11700
0.88321406,11701
0.9123494,11702
0.8831953,11703
1.321416,11704
1.0088264,11705
1.0739743,11706
1.1982282,11707
1.0607117,11708
1.1560795,11709
1.1897253,11710
1.2041932,11711
1.138937,11712
1.0635012,11713
0.92552084,11714
0.89797074,11715
1.0393437,11716
0.87254024,11717
1.0632266,11718
1.0770575,11719
0.96315604,11720
1.0818975,11721
1.3094345,11722
1.1600132,11723
1.148547,11724
1.1211085,11725
1.0626659,11726
1.1337756,11727
1.1365917,11728
1.3164135,11729
1.2441525,11730
1.3254524,11731
0.90428406,11732
0.85929203,11733
0.9671409,11734
0.901244,11735
0.910024,11736
1.0407333,11737
0.9990186,11738
1.0579603,11739
1.1841345,11740
1.2733063,11741
1.0085726,11742
0.9939226,11743
1.0965005,11744
0.9787337,11745
1.0447679,11746
1.105926,11747
1.1080517,11748
1.0707998,11749
0.95296264,11750
0.91044354,11751
0.8396634,11752
0.9873149,11753
0.8749648,11754
1.0492612,11755
1.0439068,11756
0.9568747,11757
1.0359321,11758
1.2440189,11759
1.1586733,11760
1.0708872,11761
1.0816572,11762
1.015606,11763
1.0127735,11764
0.94150615,11765
1.1290879,11766
1.1356826,11767
1.237347,11768
0.84692067,11769
0.88071644,11770
0.9553218,11771
0.89978284,11772
0.91257614,11773
0.95181566,11774
0.86950153,11775
0.92217505,11776
1.0786412,11777
1.1251111,11778
0.98163193,11779
0.9389164,11780
1.0497609,11781
0.9739904,11782
1.0058495,11783
1.0098739,11784
1.0037565,11785
1.0355178,11786
0.9169716,11787
0.8845136,11788
0.92330396,11789
0.9643556,11790
0.8879408,11791
1.0043314,11792
0.9785407,11793
0.9594811,11794
0.9876957,11795
1.3085434,11796
1.1237842,11797
1.0583597,11798
1.0710497,11799
0.9576761,11800
1.0607204,11801
1.0012109,11802
1.1077232,11803
1.0915005,11804
1.101773,11805
0.8836154,11806
0.868359,11807
0.9527043,11808
0.85321885,11809
0.8632516,11810
0.9526792,11811
0.9036802,11812
0.9261733,11813
0.93942094,11814
0.99865735,11815
0.89278734,11816
0.92113686,11817
0.8874176,11818
0.9099665,11819
1.0085684,11820
0.9062201,11821
0.8733364,11822
0.8965219,11823
0.8979458,11824
0.8297567,11825
0.8935154,11826
0.92422235,11827
0.85339534,11828
0.9785316,11829
0.902835,11830
0.87923425,11831
0.86372364,11832
0.8869086,11833
0.9353514,11834
0.8705304,11835
0.8876492,11836
0.8657303,11837
0.89385015,11838
0.9800782,11839
0.7647811,11840
0.8828862,11841
0.94637704,11842
0.9225195,11843
0.8380397,11844
0.8129376,11845
0.8642565,11846
0.84322214,11847
0.90763444,11848
0.90842795,11849
0.97547734,11850
0.9497933,11851
0.8355969,11852
0.8747677,11853
0.9560443,11854
0.8656251,11855
0.97512305,11856
0.95675296,11857
0.98124593,11858
0.9994715,11859
0.9355534,11860
0.9686373,11861
0.88605034,11862
0.9419659,11863
0.95214194,11864
1.1069267,11865
0.9825921,11866
0.86435574,11867
0.9389196,11868
0.9392049,11869
0.93060416,11870
0.97888446,11871
0.92458236,11872
1.0002673,11873
0.9637747,11874
0.90919846,11875
0.94303393,11876
0.9953104,11877
0.99057996,11878
1.1155797,11879
0.92611504,11880
0.8993582,11881
0.915125,11882
0.94204617,11883
0.9962743,11884
0.91824645,11885
0.9614893,11886
0.9949314,11887
1.0537689,11888
0.9648049,11889
0.8455443,11890
0.89549285,11891
0.8779223,11892
0.9247091,11893
0.86401975,11894
0.8172573,11895
0.8688554,11896
0.8119704,11897
0.9316154,11898
0.8466582,11899
0.77380055,11900
0.94290835,11901
0.79317683,11902
0.93927944,11903
0.88813484,11904
0.8519515,11905
0.882942,11906
1.2002599,11907
1.0929673,11908
0.94693166,11909
0.93449,11910
0.92013395,11911
0.8738839,11912
0.87363297,11913
0.8973305,11914
0.94891095,11915
1.1123444,11916
0.9775513,11917
0.93475175,11918
0.914521,11919
0.9409383,11920
0.9476177,11921
1.0730503,11922
1.0608968,11923
1.0586891,11924
1.3592654,11925
1.1994504,11926
1.3439165,11927
1.2085476,11928
1.4227619,11929
1.6560814,11930
1.3997298,11931
1.4204433,11932
1.279496,11933
1.3832719,11934
1.1403148,11935
0.9787148,11936
1.0463891,11937
1.0977973,11938
1.1398555,11939
1.082856,11940
1.2499634,11941
1.1820444,11942
1.277067,11943
1.4039929,11944
1.2827778,11945
1.1946703,11946
1.3214101,11947
1.6796106,11948
2.1389718,11949
2.3380005,11950
2.5301206,11951
2.168989,11952
1.4793667,11953
0.9731261,11954
1.0141524,11955
1.0607765,11956
1.1217563,11957
1.3888098,11958
1.3798541,11959
1.5242124,11960
1.5331674,11961
1.5326289,11962
1.2500076,11963
1.4385781,11964
1.4552406,11965
2.3920355,11966
2.9253395,11967
2.8954473,11968
2.9366667,11969
2.85353,11970
2.2760568,11971
1.065026,11972
0.97983474,11973
1.0185276,11974
1.1611274,11975
1.194385,11976
1.2695746,11977
1.6888654,11978
1.6990974,11979
1.5598164,11980
1.3278426,11981
1.2639018,11982
1.2323675,11983
1.305,11984
1.8656499,11985
2.3533049,11986
2.537846,11987
2.8453996,11988
2.8014996,11989
1.3519788,11990
0.94897515,11991
0.98723775,11992
1.0434752,11993
1.1211953,11994
1.3070091,11995
1.5419904,11996
1.4281002,11997
1.3238428,11998
1.4362292,11999
1.2829548,12000
1.4134102,12001
1.532755,12002
2.4744506,12003
2.9825702,12004
2.9979808,12005
3.0621562,12006
3.0184743,12007
2.269923,12008
1.080006,12009
0.9465742,12010
1.0166273,12011
1.1206558,12012
1.1776043,12013
1.2794322,12014
1.5962645,12015
1.069195,12016
1.2980763,12017
1.2586927,12018
1.2601275,12019
1.2422094,12020
1.2881906,12021
1.9429559,12022
2.2979107,12023
2.610447,12024
2.8348205,12025
2.8528967,12026
1.1817039,12027
1.0249856,12028
0.9818653,12029
1.076397,12030
1.1090403,12031
1.2871934,12032
1.5665516,12033
1.1573855,12034
1.0694325,12035
1.4588184,12036
1.2479314,12037
1.4091586,12038
1.650026,12039
2.530394,12040
2.9969196,12041
2.984621,12042
3.0392506,12043
3.0417793,12044
2.073659,12045
1.0395789,12046
0.99410677,12047
1.02911,12048
1.1162403,12049
1.1687623,12050
1.3623208,12051
1.4264646,12052
0.99759334,12053
1.2832153,12054
1.2644632,12055
1.2775829,12056
1.2282245,12057
1.3945897,12058
1.9662029,12059
2.3446364,12060
2.6385708,12061
2.820384,12062
2.6023378,12063
1.1926794,12064
0.9800468,12065
1.028031,12066
1.0877515,12067
1.0856507,12068
1.2779043,12069
1.4910192,12070
1.1574795,12071
1.1137786,12072
1.4533777,12073
1.3187021,12074
1.3470334,12075
1.6458576,12076
2.6387577,12077
2.9988554,12078
2.987641,12079
3.0476713,12080
3.041491,12081
1.9282737,12082
1.0832665,12083
0.9598381,12084
1.0447072,12085
1.1109166,12086
1.1851933,12087
1.443334,12088
1.358204,12089
1.0526022,12090
1.3524106,12091
1.2298578,12092
1.3144479,12093
1.2079769,12094
1.428195,12095
1.9583565,12096
2.3418133,12097
2.7247674,12098
2.8746436,12099
2.5246277,12100
1.155412,12101
1.0106024,12102
1.0110173,12103
1.0808644,12104
1.1326464,12105
1.2601887,12106
1.5916493,12107
1.0838656,12108
1.0297377,12109
1.5006248,12110
1.2565087,12111
1.3605827,12112
1.8181767,12113
2.709071,12114
2.990307,12115
2.9982443,12116
3.0457547,12117
3.0174417,12118
1.7924912,12119
0.96260256,12120
0.95264006,12121
1.0428662,12122
1.1011547,12123
1.2492346,12124
1.4509811,12125
1.3366933,12126
1.0285144,12127
1.4239877,12128
1.2154866,12129
1.2601955,12130
1.2404172,12131
1.4326766,12132
2.1577783,12133
2.3605523,12134
2.720746,12135
2.8793445,12136
2.4565232,12137
1.1347795,12138
0.95668274,12139
1.0394825,12140
1.0303943,12141
1.1406152,12142
1.2945745,12143
1.4872434,12144
1.0801498,12145
1.1829647,12146
1.43198,12147
1.3143805,12148
1.2875241,12149
1.9365705,12150
2.7212508,12151
2.9899867,12152
3.015425,12153
3.0466716,12154
2.9884157,12155
1.5681417,12156
1.0004493,12157
0.9849371,12158
1.067409,12159
1.0276489,12160
1.303262,12161
1.4483275,12162
1.1877052,12163
1.0559554,12164
1.4635638,12165
1.2551177,12166
1.2272793,12167
1.2310632,12168
1.5531751,12169
2.1380754,12170
2.3687649,12171
2.7677763,12172
2.7970622,12173
2.268993,12174
1.0992303,12175
0.9996847,12176
1.0397391,12177
1.0778267,12178
1.1294391,12179
1.2517004,12180
1.5271543,12181
1.0333316,12182
1.3232223,12183
1.3844289,12184
1.30174,12185
1.2978357,12186
2.0251954,12187
2.8282654,12188
2.9979126,12189
3.0139115,12190
3.0545926,12191
2.9779806,12192
1.4475571,12193
0.93555224,12194
1.029474,12195
1.1066017,12196
1.1002572,12197
1.2442005,12198
1.5473049,12199
1.1908623,12200
1.0542456,12201
1.401946,12202
1.2649143,12203
1.2283605,12204
1.3178097,12205
1.5844877,12206
2.1170428,12207
2.4859667,12208
2.7375543,12209
2.7950187,12210
2.2340424,12211
1.0687681,12212
0.9607814,12213
0.9909445,12214
1.0942702,12215
1.2082326,12216
1.2658089,12217
1.5443844,12218
1.0933259,12219
1.2090944,12220
1.3633319,12221
1.3401929,12222
1.2657112,12223
2.0106468,12224
2.8880887,12225
2.9843316,12226
3.0085196,12227
3.0290844,12228
3.0209696,12229
1.3116511,12230
1.0135683,12231
0.9801128,12232
1.0675074,12233
1.0976903,12234
1.2840483,12235
1.5219243,12236
1.1560738,12237
1.0635844,12238
1.4211061,12239
1.3077207,12240
1.2281811,12241
1.305666,12242
1.5804979,12243
2.166674,12244
2.4304879,12245
2.7990308,12246
2.8351996,12247
2.0057487,12248
1.0691732,12249
1.0348945,12250
1.0331228,12251
1.1150734,12252
1.1864725,12253
1.3063612,12254
1.4193083,12255
1.0660434,12256
1.3948379,12257
1.258539,12258
1.341652,12259
1.3359001,12260
2.147066,12261
2.9158967,12262
2.9891179,12263
3.0129592,12264
3.0336058,12265
2.850381,12266
1.1864828,12267
0.97669935,12268
0.9949038,12269
1.0958531,12270
1.1466765,12271
1.2464062,12272
1.5262305,12273
1.1159719,12274
1.0847828,12275
1.3755735,12276
1.3096188,12277
1.1550822,12278
1.347329,12279
1.5988984,12280
2.262596,12281
2.491378,12282
2.7727385,12283
2.8545945,12284
1.8454535,12285
1.0360926,12286
0.9721718,12287
1.010178,12288
1.1114957,12289
1.2162702,12290
1.4026276,12291
1.3470299,12292
1.0594282,12293
1.307274,12294
1.2220479,12295
1.4102832,12296
1.3126758,12297
2.2577443,12298
2.9152038,12299
2.9866173,12300
3.053629,12301
3.039152,12302
2.742586,12303
1.2043947,12304
1.0262624,12305
0.9762615,12306
1.1067871,12307
1.1465782,12308
1.2968489,12309
1.6044813,12310
1.1250497,12311
1.1679294,12312
1.4667528,12313
1.2210263,12314
1.214426,12315
1.2898496,12316
1.7270782,12317
2.220393,12318
2.480784,12319
2.8013349,12320
2.8047478,12321
1.8128184,12322
1.0673344,12323
0.9977895,12324
1.0285895,12325
1.0950778,12326
1.1907766,12327
1.4170463,12328
1.3370885,12329
1.0629207,12330
1.4119526,12331
1.2253972,12332
1.4118327,12333
1.3737489,12334
2.2603455,12335
2.9862661,12336
2.9762316,12337
3.0383842,12338
3.0587518,12339
2.5937808,12340
1.176385,12341
0.9858152,12342
0.9931726,12343
1.0891199,12344
1.1154715,12345
1.2862442,12346
1.5011232,12347
1.102585,12348
1.0930581,12349
1.4297876,12350
1.2590386,12351
1.2072328,12352
1.3560725,12353
1.7354828,12354
2.2358973,12355
2.5907848,12356
2.780153,12357
2.7952538,12358
1.5183057,12359
1.0289179,12360
0.97672015,12361
1.0556493,12362
1.0906742,12363
1.2345649,12364
1.439625,12365
1.2196698,12366
1.0789815,12367
1.4420357,12368
1.2520245,12369
1.4524825,12370
1.4273177,12371
2.299572,12372
2.9992316,12373
2.9840412,12374
3.0380003,12375
3.0170653,12376
2.508719,12377
1.1725932,12378
0.9496459,12379
1.0507346,12380
1.114083,12381
1.134854,12382
1.2664653,12383
1.542827,12384
1.1286106,12385
1.2911087,12386
1.3497493,12387
1.2587891,12388
1.2591226,12389
1.355251,12390
1.7448816,12391
2.296551,12392
2.545398,12393
2.896892,12394
2.8031147,12395
1.4599605,12396
0.9909238,12397
0.98051,12398
1.0927831,12399
1.0967808,12400
1.2844702,12401
1.5175172,12402
1.1403148,12403
1.0295364,12404
1.4078814,12405
1.2751833,12406
1.4384128,12407
1.4613293,12408
2.4615793,12409
2.9748302,12410
2.9996417,12411
3.0424197,12412
3.0154133,12413
2.387922,12414
1.0289674,12415
0.98314965,12416
1.0122849,12417
1.0844505,12418
1.1642777,12419
1.2296995,12420
1.5781014,12421
1.087625,12422
1.2157613,12423
1.3212165,12424
1.2980168,12425
1.1731845,12426
1.3284651,12427
1.9645593,12428
2.35797,12429
2.5633106,12430
2.8339725,12431
2.855333,12432
1.2928413,12433
0.9760689,12434
1.0010996,12435
1.088312,12436
1.1063422,12437
1.2504401,12438
1.4969281,12439
1.1608,12440
1.049956,12441
1.4071814,12442
1.3172587,12443
1.4287202,12444
1.5723367,12445
2.502314,12446
2.9916892,12447
2.9854655,12448
3.0584624,12449
3.0098937,12450
2.089452,12451
1.0690262,12452
0.9829084,12453
0.9871915,12454
1.1011792,12455
1.1847941,12456
1.2832359,12457
1.5231044,12458
1.0404192,12459
1.4756607,12460
1.2534667,12461
1.2528485,12462
1.2050412,12463
1.3673308,12464
1.9820962,12465
2.344137,12466
2.61263,12467
2.8375413,12468
2.7123263,12469
1.1953777,12470
1.0258316,12471
0.97304386,12472
1.111037,12473
1.1113254,12474
1.2622215,12475
1.5238348,12476
1.0999688,12477
1.1514889,12478
1.4618711,12479
1.2448266,12480
1.3519033,12481
1.7049865,12482
2.5685081,12483
2.9965837,12484
2.991165,12485
3.0394528,12486
3.0312924,12487
2.0086486,12488
0.9905436,12489
1.0686709,12490
1.0320096,12491
1.1295557,12492
1.2100669,12493
1.3821146,12494
1.3744637,12495
1.0107659,12496
1.3038287,12497
1.2630075,12498
1.2868714,12499
1.2311032,12500
1.4117349,12501
2.0394466,12502
2.3168087,12503
2.700163,12504
2.8285832,12505
2.6928468,12506
1.1825378,12507
0.9578229,12508
1.004553,12509
1.0779208,12510
1.1428037,12511
1.2599823,12512
1.5862659,12513
1.1083721,12514
1.1117383,12515
1.4651517,12516
1.2891852,12517
1.335356,12518
1.7248043,12519
2.6693327,12520
2.9932609,12521
2.995046,12522
3.0422628,12523
3.0383773,12524
1.9062208,12525
1.0666407,12526
0.9846371,12527
1.0557321,12528
1.099059,12529
1.1812209,12530
1.4143381,12531
1.2974119,12532
1.0563843,12533
1.3755448,12534
1.237095,12535
1.3276026,12536
1.208654,12537
1.458635,12538
2.036073,12539
2.2882345,12540
2.7344358,12541
2.8886216,12542
2.4529953,12543
1.1568729,12544
0.9995102,12545
1.0287762,12546
1.0767955,12547
1.1274552,12548
1.2567488,12549
1.4819564,12550
1.0822177,12551
1.0838377,12552
1.4794852,12553
1.2678667,12554
1.3320822,12555
1.8967507,12556
2.7148335,12557
2.9670877,12558
3.0183275,12559
3.0420718,12560
3.0160348,12561
1.6610607,12562
0.9283714,12563
1.0288756,12564
1.1165179,12565
1.1221446,12566
1.2601845,12567
1.4737648,12568
1.2551786,12569
1.1086581,12570
1.3595356,12571
1.2447804,12572
1.2656292,12573
1.2778529,12574
1.4325397,12575
2.157871,12576
2.350313,12577
2.7285922,12578
2.838316,12579
2.3570797,12580
1.1163403,12581
0.9328326,12582
1.0262951,12583
1.0716742,12584
1.13277,12585
1.3261613,12586
1.5480505,12587
1.0523506,12588
1.1091405,12589
1.4197522,12590
1.2944319,12591
1.3037504,12592
1.967351,12593
2.7334957,12594
2.9951541,12595
3.0088875,12596
3.0628498,12597
3.0202756,12598
1.611131,12599
0.9581636,12600
0.9433965,12601
1.0583411,12602
1.0983194,12603
1.3044457,12604
1.5250424,12605
1.1635695,12606
1.0263484,12607
1.4716246,12608
1.2255479,12609
1.2436454,12610
1.2266815,12611
1.5354348,12612
2.096351,12613
2.385981,12614
2.7590234,12615
2.822858,12616
2.3061612,12617
1.0616174,12618
1.0210736,12619
0.9884006,12620
1.111104,12621
1.1492816,12622
1.254297,12623
1.49594,12624
1.0834785,12625
1.2491282,12626
1.3502994,12627
1.3506286,12628
1.2788594,12629
2.002157,12630
2.8691893,12631
2.9907494,12632
3.0065851,12633
3.0417414,12634
3.0112865,12635
1.391586,12636
0.9655105,12637
0.99722064,12638
1.1061964,12639
1.0581483,12640
1.2446312,12641
1.5647044,12642
1.1269199,12643
1.0311544,12644
1.3424629,12645
1.3006091,12646
1.1973236,12647
1.2997222,12648
1.5561466,12649
2.125686,12650
2.4447222,12651
2.7848053,12652
2.8322363,12653
2.059927,12654
1.0770285,12655
0.9516347,12656
1.0022967,12657
1.1202334,12658
1.1713413,12659
1.2561641,12660
1.4302422,12661
1.039837,12662
1.3413209,12663
1.3506335,12664
1.3831375,12665
1.3288858,12666
1.733309,12667
1.8520284,12668
1.5500214,12669
1.1858974,12670
1.2752585,12671
0.9721455,12672
1.2003167,12673
0.9303373,12674
0.9001313,12675
0.8859162,12676
0.8098514,12677
0.78450215,12678
0.83618593,12679
0.8752553,12680
0.7182813,12681
1.2592252,12682
1.1011726,12683
0.9396034,12684
0.90580475,12685
0.8636834,12686
0.88612753,12687
0.9215101,12688
0.8013151,12689
0.8700689,12690
0.89448315,12691
0.90057606,12692
0.81336737,12693
0.82610095,12694
0.7381312,12695
0.8654357,12696
0.85785294,12697
0.87492716,12698
0.89363194,12699
0.938244,12700
0.81004727,12701
0.8383761,12702
0.9274033,12703
1.0386986,12704
1.1312569,12705
1.0185475,12706
0.98742634,12707
0.9227494,12708
0.9882366,12709
1.143556,12710
1.0299863,12711
0.97748286,12712
1.0030758,12713
1.2051915,12714
1.0385587,12715
1.0703648,12716
1.1133206,12717
1.626272,12718
1.7398378,12719
1.5126123,12720
1.4415056,12721
1.3969707,12722
1.1775323,12723
1.0957289,12724
1.083449,12725
1.0171041,12726
1.0369784,12727
1.2821527,12728
1.1259215,12729
1.2498833,12730
1.2269216,12731
1.949585,12732
2.299241,12733
2.2511435,12734
2.2095635,12735
1.9282793,12736
1.7935405,12737
1.1868513,12738
1.4468056,12739
1.3104714,12740
2.0060818,12741
2.217417,12742
1.971872,12743
2.2085724,12744
2.2926865,12745
2.2949378,12746
1.2086612,12747
1.0038512,12748
0.99944025,12749
1.1023642,12750
1.3455876,12751
1.2517514,12752
1.4163253,12753
1.4485912,12754
2.288151,12755
2.7697904,12756
2.5785017,12757
2.6942801,12758
2.7630665,12759
2.8811357,12760
2.7196229,12761
2.499123,12762
2.4646702,12763
2.1500576,12764
1.5228753,12765
1.1455622,12766
1.1909728,12767
1.3602737,12768
2.0127661,12769
2.593482,12770
2.7585356,12771
2.9781597,12772
2.955376,12773
2.972053,12774
2.912241,12775
2.7677665,12776
2.7588954,12777
2.5989914,12778
2.3648765,12779
2.044113,12780
1.4967258,12781
1.2656238,12782
1.3023026,12783
1.3891131,12784
1.4602836,12785
1.5821718,12786
1.419769,12787
1.355946,12788
1.3569124,12789
1.394524,12790
1.413907,12791
1.2839078,12792
1.3147078,12793
1.3960922,12794
1.3042977,12795
1.2595257,12796
1.2877228,12797
1.3425671,12798
1.423534,12799
1.5036113,12800
1.0650227,12801
1.0820329,12802
0.99772257,12803
1.0187294,12804
0.9869214,12805
0.9648912,12806
0.949461,12807
1.0991708,12808
0.9357975,12809
0.99665874,12810
1.067785,12811
1.0734775,12812
1.2108867,12813
1.063606,12814
0.82622343,12815
0.74585664,12816
0.7910322,12817
0.7212979,12818
0.63823295,12819
0.71687305,12820
0.7299985,12821
0.6898054,12822
0.62724817,12823
0.6226191,12824
0.73791784,12825
0.7826104,12826
0.7518796,12827
0.6454111,12828
0.59659195,12829
0.57086307,12830
0.5629242,12831
0.49229857,12832
0.65087646,12833
0.5937847,12834
0.5690963,12835
0.56363094,12836
0.552551,12837
0.6228233,12838
0.62226576,12839
0.66982067,12840
0.6647637,12841
0.65340495,12842
0.5199984,12843
0.543442,12844
0.54147106,12845
0.5961434,12846
0.5493158,12847
0.50808215,12848
0.51481175,12849
0.6395178,12850
0.613844,12851
0.5749896,12852
0.55058,12853
0.5750642,12854
0.57569635,12855
0.6170046,12856
0.57906115,12857
0.61665124,12858
0.5296844,12859
0.5937847,12860
0.59813493,12861
0.5756217,12862
0.535299,12863
0.56236666,12864
0.67275757,12865
0.6259839,12866
0.5904198,12867
0.6071143,12868
0.55240184,12869
0.5549303,12870
0.5284202,12871
0.5906986,12872
0.6144761,12873
0.6852509,12874
0.545951,12875
0.5752684,12876
0.57723933,12877
0.59449136,12878
0.5438504,12879
0.65320075,12880
0.5660103,12881
0.57288903,12882
0.60248524,12883
0.60557127,12884
0.56446725,12885
0.5389426,12886
0.5685388,12887
0.625073,12888
0.6130076,12889
0.5305208,12890
0.56699574,12891
0.63390326,12892
0.5240699,12893
0.60311735,12894
0.59449136,12895
0.6629419,12896
0.61791545,12897
0.6130076,12898
0.5975774,12899
0.6104791,12900
0.48212954,12901
0.5675533,12902
0.61083245,12903
0.5781503,12904
0.55528367,12905
0.5068179,12906
0.63124514,12907
0.7120398,12908
0.5188087,12909
0.6493335,12910
0.5916841,12911
0.50499606,12912
0.62955296,12913
0.48640525,12914
0.5197196,12915
0.6146803,12916
0.563203,12917
0.5927385,12918
0.5716248,12919
0.587055,12920
0.59848833,12921
0.21139401,12922
