@RELATION 'Music feature'
%rows=1
%columns=12922
%sample_rate=22050
%window_size=512
%step_size=512

@ATTRIBUTE 'Distances in phase domain' NUMERIC
@ATTRIBUTE WindowNumber NUMERIC

@DATA
0.0,1
2.1429154E-5,2
2.5464225E-5,3
0.0013570221,4
0.008710708,5
0.015152057,6
0.019454375,7
0.025406733,8
0.02759689,9
0.037263695,10
0.047899213,11
0.056682166,12
0.06002047,13
0.05997975,14
0.06709991,15
0.07151611,16
0.09131557,17
0.09799108,18
0.10735415,19
0.114977956,20
0.12325689,21
0.12757184,22
0.14349523,23
0.14145423,24
0.15325832,25
0.16360007,26
0.19407894,27
0.21607998,28
0.22994168,29
0.30899337,30
0.39203367,31
0.4000495,32
0.34994376,33
0.34334674,34
0.38474566,35
0.40105873,36
0.410356,37
0.3905391,38
0.45920908,39
0.547396,40
0.4334773,41
0.36400968,42
0.21178438,43
0.22056434,44
0.18475986,45
0.15310028,46
0.14140627,47
0.11578581,48
0.1259765,49
0.12143057,50
0.12112065,51
0.10339176,52
0.23391521,53
0.25773168,54
0.27277917,55
0.24730502,56
0.20986898,57
0.17642297,58
0.15319458,59
0.12728532,60
0.11641894,61
0.09130326,62
0.083784156,63
0.07752085,64
0.071633115,65
0.083817706,66
0.20188601,67
0.26663604,68
0.26143944,69
0.23529328,70
0.20407313,71
0.18267483,72
0.15304075,73
0.12330852,74
0.1060202,75
0.27690032,76
0.33956236,77
0.3852704,78
0.3380525,79
0.3512718,80
0.37727714,81
0.3312983,82
0.33815786,83
0.31147793,84
0.2807388,85
0.2839332,86
0.27684343,87
0.24949682,88
0.22094266,89
0.2140101,90
0.20621501,91
0.19666673,92
0.17062828,93
0.2315111,94
0.21403356,95
0.17477603,96
0.15441008,97
0.13541165,98
0.124582656,99
0.12016638,100
0.10414472,101
0.09427972,102
0.08612937,103
0.09653616,104
0.08629122,105
0.07394963,106
0.061063502,107
0.057639558,108
0.055930384,109
0.045269422,110
0.042415325,111
0.0406044,112
0.15238467,113
0.074563645,114
0.052288648,115
0.034738272,116
0.029201638,117
0.027328169,118
0.026465109,119
0.024627848,120
0.02027938,121
0.028348276,122
0.047633953,123
0.024148181,124
0.015282469,125
0.014584998,126
0.0180974,127
0.017062524,128
0.012316839,129
0.013068287,130
0.12549557,131
0.11637021,132
0.1004657,133
0.06869029,134
0.038286883,135
0.024239736,136
0.016210815,137
0.015910003,138
0.01265695,139
0.014484608,140
0.041524947,141
0.03126924,142
0.009527834,143
0.009532486,144
0.0048657767,145
0.0027934224,146
0.0027573886,147
0.0025427735,148
0.021167586,149
0.14495808,150
0.06677959,151
0.04153131,152
0.02412845,153
0.014454851,154
0.015216721,155
0.011545401,156
0.011147046,157
0.006851485,158
0.027139537,159
0.04219468,160
0.016656037,161
0.007610169,162
0.008228197,163
0.012909492,164
0.012755592,165
0.008090619,166
0.007883958,167
0.12690622,168
0.12173334,169
0.094451025,170
0.062336016,171
0.034493644,172
0.022358513,173
0.014567207,174
0.015479939,175
0.010541455,176
0.015131887,177
0.043842543,178
0.03127079,179
0.009942702,180
0.006946627,181
0.0033105884,182
6.3790113E-4,183
5.364507E-4,184
3.9229626E-4,185
0.0555026,186
0.11235343,187
0.062156655,188
0.039035648,189
0.022512585,190
0.015775705,191
0.014744664,192
0.010721968,193
0.0104127815,194
0.0069047813,195
0.029069163,196
0.04037593,197
0.015187829,198
0.0074644373,199
0.0077561163,200
0.013379751,201
0.012507494,202
0.008322667,203
0.0074464236,204
0.14057958,205
0.11677283,206
0.096442275,207
0.058954976,208
0.03267968,209
0.022021262,210
0.014798566,211
0.013884289,212
0.01216812,213
0.015999133,214
0.04593887,215
0.022743713,216
0.010320888,217
0.0062338538,218
0.011599339,219
0.0106050195,220
0.00903061,221
0.008920696,222
0.0753657,223
0.106503636,224
0.062243473,225
0.037372544,226
0.021941537,227
0.015588856,228
0.0139611475,229
0.011346892,230
0.009381707,231
0.006458766,232
0.03424163,233
0.037922982,234
0.013037075,235
0.0077135875,236
0.008139748,237
0.014773361,238
0.010266972,239
0.009317392,240
0.0061761113,241
0.14668061,242
0.116582885,243
0.09105004,244
0.056636617,245
0.030455481,246
0.022035118,247
0.013871377,248
0.013682448,249
0.01332905,250
0.017833183,251
0.04485419,252
0.024124691,253
0.010037902,254
0.006651442,255
0.0021164196,256
6.542235E-4,257
4.5818175E-4,258
3.7901668E-4,259
0.08608851,260
0.093181685,261
0.059118006,262
0.033327155,263
0.02275887,264
0.014139553,265
0.013672993,266
0.012399295,267
0.009153521,268
0.006249386,269
0.034929287,270
0.039281063,271
0.0110461535,272
0.009155028,273
0.007055051,274
0.016121589,275
0.00880523,276
0.010007231,277
0.005886162,278
0.16434036,279
0.11625337,280
0.08786973,281
0.05515961,282
0.02930362,283
0.020294234,284
0.015202986,285
0.011686092,286
0.013478577,287
0.021700082,288
0.044451054,289
0.01822746,290
0.009230316,291
0.0064605847,292
0.0019024009,293
6.341558E-4,294
4.4639801E-4,295
3.8822737E-4,296
0.0036817978,297
0.015126403,298
0.010254969,299
0.010010639,300
0.0060832826,301
0.002992042,302
4.0864592E-4,303
4.8242512E-4,304
3.8236444E-4,305
0.001987372,306
0.012379137,307
0.013748674,308
0.008296043,309
0.0085427575,310
0.007826483,311
0.015077294,312
0.009486327,313
0.009243851,314
0.0060012774,315
0.0019315081,316
3.2415177E-4,317
3.592396E-4,318
2.9049243E-4,319
0.0027843679,320
0.0140165575,321
0.01214558,322
0.008728706,323
0.0074414667,324
0.011004327,325
0.01230005,326
0.010710039,327
0.0074744383,328
0.0064646304,329
9.946569E-4,330
3.5080378E-4,331
2.953612E-4,332
2.991503E-4,333
0.0041556405,334
0.01623433,335
0.009250205,336
0.010275456,337
0.00597557,338
0.002321079,339
4.1493023E-4,340
4.6947875E-4,341
3.9137583E-4,342
0.0021749174,343
0.013335808,344
0.013004549,345
0.008556925,346
0.008117468,347
0.008471613,348
0.014565136,349
0.009751586,350
0.0086562475,351
0.005914454,352
0.0016493922,353
3.5589954E-4,354
3.3467961E-4,355
2.971949E-4,356
0.0038209234,357
0.015412752,358
0.009823265,359
0.010260018,360
0.005914194,361
0.013153549,362
0.010402549,363
0.011755976,364
0.0064705466,365
0.0075722537,366
0.011434697,367
0.01010692,368
0.01051474,369
0.006272039,370
0.12244529,371
0.0874296,372
0.052482925,373
0.02862907,374
0.018964857,375
0.015287094,376
0.012525246,377
0.011689482,378
0.0074930466,379
0.01038653,380
0.04383888,381
0.029277127,382
0.008821821,383
0.0078660585,384
0.011810011,385
0.011825815,386
0.010888125,387
0.0070865904,388
0.04931934,389
0.14390641,390
0.10628217,391
0.079686165,392
0.04750642,393
0.026525693,394
0.01849617,395
0.013442772,396
0.013867529,397
0.011546852,398
0.029264094,399
0.04404171,400
0.01693214,401
0.007336348,402
0.006272507,403
8.179656E-4,404
6.460271E-4,405
3.6699168E-4,406
4.4532647E-4,407
0.12749858,408
0.07811989,409
0.04805572,410
0.027407728,411
0.017535951,412
0.015106129,413
0.012522572,414
0.012252769,415
0.0070718783,416
0.011779637,417
0.044835266,418
0.027411176,419
0.010224672,420
0.006351606,421
0.013483179,422
0.010409357,423
0.011578454,424
0.006529785,425
0.074880965,426
0.13390459,427
0.10549015,428
0.07586067,429
0.043792885,430
0.025357377,431
0.01911435,432
0.012025887,433
0.014019047,434
0.011342444,435
0.03447173,436
0.03892038,437
0.012633756,438
0.007276303,439
0.0057237986,440
8.137857E-4,441
5.9627224E-4,442
3.5631683E-4,443
4.5271468E-4,444
0.13735123,445
0.07751673,446
0.050204672,447
0.026294792,448
0.015950818,449
0.01617902,450
0.011755563,451
0.01169321,452
0.0076742163,453
0.015351964,454
0.04525256,455
0.022815488,456
0.009830059,457
0.0067835078,458
0.013076963,459
0.011050756,460
0.010796787,461
0.006942316,462
0.08778437,463
0.1267022,464
0.106572345,465
0.07175459,466
0.0417618,467
0.02445859,468
0.01781813,469
0.012708919,470
0.01349852,471
0.010868426,472
0.03662913,473
0.040179376,474
0.012400872,475
0.008514398,476
0.00433134,477
8.150395E-4,478
5.5231276E-4,479
3.54923E-4,480
0.0010610048,481
0.13934223,482
0.07730475,483
0.043909073,484
0.025233718,485
0.01635115,486
0.016319698,487
0.011330553,488
0.010943982,489
0.00753857,490
0.016192814,491
0.046384763,492
0.020372288,493
0.009707278,494
0.0066844346,495
0.013590047,496
0.011402626,497
0.010106302,498
0.0071709347,499
0.100712605,500
0.12427905,501
0.10290583,502
0.070734605,503
0.04102461,504
0.024189698,505
0.016476037,506
0.013957283,507
0.012190997,508
0.011918464,509
0.039717585,510
0.034520138,511
0.009386511,512
0.008952293,513
0.006457513,514
0.013324572,515
0.010688866,516
0.0074059004,517
0.007243078,518
0.15246534,519
0.07027408,520
0.047041293,521
0.024572726,522
0.016325727,523
0.015244123,524
0.012100238,525
0.010433121,526
0.0067318287,527
0.021867838,528
0.044523574,529
0.017359296,530
0.008653801,531
0.0071411137,532
0.013388617,533
0.01279755,534
0.008205945,535
0.008410187,536
0.10800798,537
0.11971186,538
0.100497775,539
0.067054294,540
0.037396736,541
0.023984006,542
0.015404414,543
0.014523537,544
0.012560151,545
0.012339082,546
0.0397291,547
0.036213335,548
0.010488242,549
0.008396526,550
0.0035771374,551
6.641437E-4,552
5.164529E-4,553
3.669553E-4,554
0.0071690883,555
0.14670548,556
0.06725355,557
0.04260287,558
0.024724048,559
0.015135666,560
0.015430612,561
0.011723118,562
0.011160613,563
0.0063159303,564
0.023066241,565
0.044897906,566
0.01781669,567
0.007105658,568
0.008391906,569
0.012338887,570
0.01338491,571
0.0077599417,572
0.008318403,573
0.12642966,574
0.123416945,575
0.09416312,576
0.06573195,577
0.036075212,578
0.022913106,579
0.014265222,580
0.0151409255,581
0.011283074,582
0.014959278,583
0.041985016,584
0.029742792,585
0.008744883,586
0.008000645,587
0.0033323998,588
6.310813E-4,589
5.035313E-4,590
3.7936546E-4,591
0.03469267,592
0.13153887,593
0.065356374,594
0.041510116,595
0.023604231,596
0.014938156,597
0.015196673,598
0.011027662,599
0.01094176,600
0.00670071,601
0.028602026,602
0.04167652,603
0.0155556975,604
0.007563025,605
0.007927942,606
0.013212064,607
0.012534416,608
0.008148257,609
0.0078049535,610
0.12984437,611
0.122895874,612
0.094597764,613
0.061758045,614
0.03479874,615
0.022418372,616
0.014688007,617
0.015137221,618
0.010875229,619
0.01563365,620
0.04458152,621
0.03103704,622
0.010549714,623
0.006384081,624
0.0031973105,625
6.190931E-4,626
4.9840385E-4,627
3.8199528E-4,628
0.061849304,629
0.109069064,630
0.061245557,631
0.03790948,632
0.022009818,633
0.015906239,634
0.014452322,635
0.010788712,636
0.010075682,637
0.006848632,638
0.030045066,639
0.040356122,640
0.015010476,641
0.007408952,642
0.008167155,643
0.014015926,644
0.011616956,645
0.008435997,646
0.007188482,647
0.1453863,648
0.11748488,649
0.09527428,650
0.057555616,651
0.032500617,652
0.021382364,653
0.014555896,654
0.013602313,655
0.012757684,656
0.015945744,657
0.04660822,658
0.021592883,659
0.010152786,660
0.0064494936,661
0.012021485,662
0.010229723,663
0.009058782,664
0.008932941,665
0.08211257,666
0.10368279,667
0.06433701,668
0.034225434,669
0.021553138,670
0.015366766,671
0.013906886,672
0.011768206,673
0.0092485035,674
0.008588692,675
0.12816565,676
0.08814049,677
0.042674962,678
0.019107183,679
0.01016572,680
0.011935766,681
0.009356991,682
0.008680814,683
0.006967263,684
0.15242405,685
0.11996509,686
0.08695547,687
0.057732966,688
0.029882753,689
0.02186573,690
0.014687778,691
0.014763951,692
0.00982606,693
0.07899756,694
0.103816524,695
0.062516004,696
0.02878977,697
0.013198021,698
0.0048040524,699
0.0026828216,700
4.2624612E-4,701
3.5494516E-4,702
0.09015452,703
0.09331111,704
0.058897614,705
0.031255927,706
0.020651551,707
0.015691152,708
0.013406194,709
0.012255788,710
0.009547478,711
0.01787673,712
0.124288276,713
0.08282001,714
0.03989191,715
0.017305573,716
0.010567308,717
0.011628264,718
0.009249239,719
0.009035547,720
0.0060617276,721
0.16910937,722
0.11141396,723
0.08657293,724
0.053861633,725
0.029014194,726
0.02046619,727
0.015063209,728
0.013377522,729
0.010673469,730
0.092664085,731
0.09841759,732
0.05834362,733
0.025413388,734
0.012023916,735
0.0046918592,736
0.0022833948,737
4.041169E-4,738
3.5337874E-4,739
0.10323995,740
0.091446504,741
0.058179464,742
0.03068957,743
0.01770339,744
0.017332107,745
0.012056842,746
0.012036969,747
0.009511494,748
0.029542405,749
0.1240295,750
0.081130765,751
0.03699836,752
0.016456189,753
0.009810935,754
0.011677614,755
0.01021509,756
0.0076457774,757
0.0071038757,758
0.17301805,759
0.11503989,760
0.082396135,761
0.05118778,762
0.027423214,763
0.020234419,764
0.015738884,765
0.013263624,766
0.010087077,767
0.09948003,768
0.09775934,769
0.055959105,770
0.024675654,771
0.01140404,772
0.0044037243,773
0.0020538976,774
3.9580092E-4,775
3.2814403E-4,776
0.11321881,777
0.08487376,778
0.054204144,779
0.029381238,780
0.017025502,781
0.01716908,782
0.011964163,783
0.011791603,784
0.008329818,785
0.040507045,786
0.11982332,787
0.0740601,788
0.035440892,789
0.016194522,790
0.009462292,791
0.011722571,792
0.010298955,793
0.0068225693,794
0.027308697,795
0.1667345,796
0.10702497,797
0.08503441,798
0.049117133,799
0.025925064,800
0.019036315,801
0.014922572,802
0.014778443,803
0.0088133,804
0.11020138,805
0.092032656,806
0.047744945,807
0.022552729,808
0.011479276,809
0.011092918,810
0.009000558,811
0.0070593148,812
0.006181834,813
0.12238304,814
0.08073992,815
0.055433143,816
0.027087877,817
0.017442634,818
0.016151799,819
0.012726804,820
0.011861667,821
0.007363454,822
0.054287434,823
0.11548079,824
0.072025985,825
0.032952778,826
0.01492655,827
0.009454447,828
0.012809583,829
0.008576543,830
0.006902242,831
0.058579672,832
0.13716015,833
0.10789735,834
0.07848192,835
0.045632973,836
0.027229493,837
0.018649362,838
0.013965724,839
0.01416038,840
0.00909954,841
0.11729031,842
0.092949405,843
0.04795509,844
0.020840077,845
0.009901464,846
0.0040414473,847
0.0016338023,848
3.7679853E-4,849
3.4814878E-4,850
0.13286158,851
0.07487093,852
0.05006354,853
0.026947815,854
0.015244047,855
0.016500993,856
0.012197388,857
0.012250712,858
0.0073134196,859
0.06533013,860
0.10633746,861
0.06573826,862
0.031479437,863
0.01364987,864
0.0102589745,865
0.012527744,866
0.0077924835,867
0.006761604,868
0.080306455,869
0.13732259,870
0.10680448,871
0.077994816,872
0.043285623,873
0.025368381,874
0.01830226,875
0.015850905,876
0.011828018,877
0.0094466265,878
0.12773858,879
0.08351796,880
0.042360857,881
0.019245708,882
0.009177801,883
0.0038694693,884
0.0014482095,885
3.766153E-4,886
4.215517E-4,887
0.14203048,888
0.07749741,889
0.047412854,890
0.026694397,891
0.014695409,892
0.016729364,893
0.0112931,894
0.011534759,895
0.007894996,896
0.07579149,897
0.10549706,898
0.062596455,899
0.029946987,900
0.013115884,901
0.011991087,902
0.01038187,903
0.00793818,904
0.0065310975,905
0.09382965,906
0.12769292,907
0.104194015,908
0.072608225,909
0.043001536,910
0.024161331,911
0.017363992,912
0.017428117,913
0.011627889,914
0.015584112,915
0.12035711,916
0.08560037,917
0.041659825,918
0.01820747,919
0.008569532,920
0.0038449087,921
0.0012085706,922
3.754097E-4,923
4.0080884E-4,924
0.1489976,925
0.07369686,926
0.042953085,927
0.025771819,928
0.015288765,929
0.016252268,930
0.011362969,931
0.010739019,932
0.0073907045,933
0.08480426,934
0.10200452,935
0.058107585,936
0.02697207,937
0.012590905,938
0.012716145,939
0.009574865,940
0.007797108,941
0.0068254583,942
0.108777635,943
0.12457927,944
0.10135857,945
0.06962652,946
0.03877252,947
0.024095342,948
0.0166971,949
0.015238418,950
0.012300038,951
0.028332645,952
0.12330538,953
0.07567975,954
0.03777383,955
0.017096259,956
0.009874223,957
0.010530751,958
0.008292605,959
0.0070267036,960
0.006350017,961
0.14916319,962
0.07259678,963
0.042382278,964
0.025772251,965
0.014298648,966
0.015553753,967
0.012145222,968
0.010629424,969
0.0066980477,970
0.09807836,971
0.099585004,972
0.054909606,973
0.024283592,974
0.011984012,975
0.012616,976
0.009618356,977
0.0075224275,978
0.0068593463,979
0.119103126,980
0.12002764,981
0.099073485,982
0.06737099,983
0.035995122,984
0.025095932,985
0.016621679,986
0.014972131,987
0.010879873,988
0.039161455,989
0.11355234,990
0.07776486,991
0.035968952,992
0.016132483,993
0.006702991,994
0.0033808032,995
7.3878304E-4,996
3.6894367E-4,997
0.017082607,998
0.14472917,999
0.069113515,1000
0.039349686,1001
0.024358949,1002
0.013852925,1003
0.015868878,1004
0.01142287,1005
0.011346503,1006
0.006471053,1007
0.10271513,1008
0.09828302,1009
0.048983883,1010
0.022544246,1011
0.011940107,1012
0.012006014,1013
0.009441509,1014
0.007834378,1015
0.00680997,1016
0.13214487,1017
0.12055672,1018
0.09428331,1019
0.06264257,1020
0.03575748,1021
0.02266162,1022
0.016124899,1023
0.015463297,1024
0.009625381,1025
0.05107653,1026
0.11639655,1027
0.06997464,1028
0.033559743,1029
0.014969794,1030
0.005931337,1031
0.0032203658,1032
5.978661E-4,1033
3.6651612E-4,1034
0.045875955,1035
0.12193554,1036
0.06608195,1037
0.039444238,1038
0.023234507,1039
0.015178066,1040
0.0149573535,1041
0.010852661,1042
0.010713292,1043
0.00703224,1044
0.1170411,1045
0.09267904,1046
0.047157746,1047
0.021342903,1048
0.011077383,1049
0.012137199,1050
0.009015057,1051
0.007804859,1052
0.00790365,1053
0.13687503,1054
0.12011653,1055
0.09642553,1056
0.058440097,1057
0.032847743,1058
0.023513284,1059
0.01525381,1060
0.016032275,1061
0.009146774,1062
0.06383704,1063
0.10931875,1064
0.07042487,1065
0.032185912,1066
0.014150964,1067
0.0054520797,1068
0.0030663393,1069
4.7037477E-4,1070
3.4488286E-4,1071
0.06596715,1072
0.106841534,1073
0.06442893,1074
0.036237128,1075
0.022305364,1076
0.01533951,1077
0.014146098,1078
0.011049075,1079
0.009829121,1080
0.006759995,1081
0.12422384,1082
0.08890293,1083
0.044597812,1084
0.020086385,1085
0.010298905,1086
0.012250145,1087
0.009241308,1088
0.007892737,1089
0.007691187,1090
0.14935015,1091
0.11657807,1092
0.09426642,1093
0.059186075,1094
0.03122222,1095
0.021085104,1096
0.015101634,1097
0.015178183,1098
0.009664707,1099
0.07240515,1100
0.107684635,1101
0.060573123,1102
0.030124327,1103
0.01307783,1104
0.008562218,1105
0.0108155105,1106
0.0086577125,1107
0.006901784,1108
0.08293944,1109
0.09734366,1110
0.06425938,1111
0.032925405,1112
0.021480167,1113
0.015309791,1114
0.013919646,1115
0.01227545,1116
0.009203498,1117
0.010856888,1118
0.12663996,1119
0.08528978,1120
0.042309985,1121
0.018712979,1122
0.01021468,1123
0.011716299,1124
0.0090547595,1125
0.009275145,1126
0.0062866444,1127
0.15601705,1128
0.11617958,1129
0.08578025,1130
0.055802874,1131
0.02988096,1132
0.021785283,1133
0.014741968,1134
0.014380733,1135
0.010189055,1136
0.08343888,1137
0.10457583,1138
0.062370624,1139
0.027575893,1140
0.012781092,1141
0.0047368053,1142
0.0025027376,1143
4.191078E-4,1144
3.5500404E-4,1145
0.09417527,1146
0.09331697,1147
0.057109773,1148
0.031700656,1149
0.01962658,1150
0.016280642,1151
0.012912519,1152
0.012127134,1153
0.009722661,1154
0.022051273,1155
0.12244581,1156
0.08057604,1157
0.03875782,1158
0.017296407,1159
0.010323289,1160
0.0117435,1161
0.009271249,1162
0.0087431455,1163
0.007371486,1164
0.17256077,1165
0.1145593,1166
0.08852024,1167
0.05345988,1168
0.02850685,1169
0.01975112,1170
0.015430558,1171
0.013138346,1172
0.010560299,1173
0.09585107,1174
0.09668623,1175
0.055863287,1176
0.024874747,1177
0.01181614,1178
0.0046596513,1179
0.0022361712,1180
4.1441896E-4,1181
3.5105884E-4,1182
0.10842221,1183
0.09099936,1184
0.05707971,1185
0.031295598,1186
0.022521852,1187
0.025837686,1188
0.026953345,1189
0.030003773,1190
0.035063516,1191
0.06388018,1192
0.13104655,1193
0.10095101,1194
0.06821653,1195
0.066489525,1196
0.07441501,1197
0.082177445,1198
0.09376475,1199
0.10808962,1200
0.11741226,1201
0.20601122,1202
0.16606845,1203
0.16414635,1204
0.14797628,1205
0.1430759,1206
0.13017417,1207
0.15168935,1208
0.17714103,1209
0.20089401,1210
0.30344567,1211
0.36399418,1212
0.39118266,1213
0.35648516,1214
0.33753186,1215
0.36373734,1216
0.42742962,1217
0.41325378,1218
0.39867043,1219
0.41209435,1220
0.4061791,1221
0.32723352,1222
0.28988978,1223
0.1980739,1224
0.16746585,1225
0.18802784,1226
0.16096203,1227
0.14285326,1228
0.13821669,1229
0.17138842,1230
0.13364376,1231
0.13057074,1232
0.10979139,1233
0.18188979,1234
0.26323536,1235
0.27187747,1236
0.24596274,1237
0.22391464,1238
0.22486256,1239
0.1786486,1240
0.15628755,1241
0.12158481,1242
0.08463518,1243
0.06974027,1244
0.06023698,1245
0.063946754,1246
0.05761104,1247
0.19876547,1248
0.27013612,1249
0.2508259,1250
0.24096808,1251
0.20743926,1252
0.19088082,1253
0.16199552,1254
0.12883626,1255
0.113488115,1256
0.23968144,1257
0.30464247,1258
0.37102088,1259
0.34361258,1260
0.3638887,1261
0.36019677,1262
0.3248543,1263
0.36356425,1264
0.29483598,1265
0.39901105,1266
0.44842723,1267
0.3693285,1268
0.29263076,1269
0.21990764,1270
0.21921481,1271
0.2167852,1272
0.19832642,1273
0.17612028,1274
0.22293544,1275
0.22631253,1276
0.19310907,1277
0.16565487,1278
0.1404304,1279
0.13219933,1280
0.13387011,1281
0.106894836,1282
0.09729856,1283
0.08919831,1284
0.38377082,1285
0.35019088,1286
0.20159791,1287
0.11645957,1288
0.08831625,1289
0.07854613,1290
0.06087055,1291
0.0503952,1292
0.045656785,1293
0.1429744,1294
0.10183233,1295
0.059523944,1296
0.04289531,1297
0.03261723,1298
0.031697128,1299
0.031445496,1300
0.028000085,1301
0.021976845,1302
0.21666831,1303
0.36515334,1304
0.25034374,1305
0.12700976,1306
0.07636626,1307
0.068214215,1308
0.052299693,1309
0.035704814,1310
0.027466033,1311
0.09538541,1312
0.14313616,1313
0.11116079,1314
0.08281075,1315
0.045542434,1316
0.027440358,1317
0.028246572,1318
0.018559404,1319
0.017220706,1320
0.029987361,1321
0.3876143,1322
0.32962263,1323
0.16618781,1324
0.09144623,1325
0.06854144,1326
0.06183529,1327
0.038423117,1328
0.027810426,1329
0.021500323,1330
0.15465422,1331
0.09912655,1332
0.05400344,1333
0.030335987,1334
0.021395456,1335
0.024556123,1336
0.021302171,1337
0.016843768,1338
0.012087869,1339
0.25555614,1340
0.36214724,1341
0.24742861,1342
0.11334763,1343
0.07501629,1344
0.06776871,1345
0.04971404,1346
0.034104906,1347
0.02566972,1348
0.10660418,1349
0.14792657,1350
0.11196899,1351
0.07768312,1352
0.04316209,1353
0.028570343,1354
0.028768802,1355
0.021390067,1356
0.017083101,1357
0.056779046,1358
0.40287006,1359
0.33279744,1360
0.1538814,1361
0.08670613,1362
0.065266,1363
0.060649976,1364
0.039390672,1365
0.028964447,1366
0.020386728,1367
0.15953308,1368
0.09191213,1369
0.053389657,1370
0.029033352,1371
0.022488423,1372
0.026162278,1373
0.022859046,1374
0.015869372,1375
0.010883873,1376
0.28255573,1377
0.35661724,1378
0.23697063,1379
0.11224515,1380
0.074121706,1381
0.06657724,1382
0.048175614,1383
0.033679325,1384
0.025712723,1385
0.11581034,1386
0.14876309,1387
0.10552004,1388
0.071891814,1389
0.04224252,1390
0.028410377,1391
0.029630555,1392
0.021385571,1393
0.016768971,1394
0.09277246,1395
0.38389456,1396
0.3162542,1397
0.14600858,1398
0.08769867,1399
0.067445084,1400
0.061741244,1401
0.039443437,1402
0.028383674,1403
0.023770373,1404
0.16799036,1405
0.093072586,1406
0.054159787,1407
0.029492492,1408
0.022284241,1409
0.02830692,1410
0.024259884,1411
0.016780375,1412
0.011006239,1413
0.3185293,1414
0.35606128,1415
0.2044688,1416
0.11108025,1417
0.07573198,1418
0.068201214,1419
0.047181297,1420
0.03244819,1421
0.025663516,1422
0.1320303,1423
0.14738038,1424
0.103055775,1425
0.07326144,1426
0.04086861,1427
0.05663823,1428
0.049162187,1429
0.032489613,1430
0.020242143,1431
0.12444039,1432
0.39417958,1433
0.27854234,1434
0.13672459,1435
0.08555016,1436
0.0661,1437
0.057630368,1438
0.03650715,1439
0.027562415,1440
0.03835835,1441
0.15566619,1442
0.08503723,1443
0.050082304,1444
0.029860957,1445
0.022545733,1446
0.030657098,1447
0.02515817,1448
0.019668678,1449
0.0133276805,1450
0.33412296,1451
0.3553006,1452
0.1942017,1453
0.09548982,1454
0.073881276,1455
0.06757528,1456
0.048070457,1457
0.03195502,1458
0.024028327,1459
0.1416661,1460
0.1486548,1461
0.10431017,1462
0.06902922,1463
0.039379466,1464
0.031535838,1465
0.028315151,1466
0.022686323,1467
0.016571276,1468
0.16167648,1469
0.39471582,1470
0.27006727,1471
0.13869342,1472
0.08559485,1473
0.07461622,1474
0.06832059,1475
0.05403635,1476
0.03901496,1477
0.07619394,1478
0.13951716,1479
0.091059715,1480
0.05190837,1481
0.03035289,1482
0.02688781,1483
0.039435316,1484
0.0337653,1485
0.02437691,1486
0.01737644,1487
0.37033343,1488
0.3577814,1489
0.18984842,1490
0.0950124,1491
0.07329459,1492
0.075158104,1493
0.052068103,1494
0.038946416,1495
0.030922202,1496
0.14999004,1497
0.1436293,1498
0.10527926,1499
0.06546979,1500
0.039590433,1501
0.07384346,1502
0.06075663,1503
0.039219584,1504
0.025107361,1505
0.19639246,1506
0.3816237,1507
0.26833993,1508
0.13028333,1509
0.07915985,1510
0.068028994,1511
0.059547793,1512
0.03881228,1513
0.029769234,1514
0.08851082,1515
0.12829867,1516
0.08115894,1517
0.04614881,1518
0.02933284,1519
0.025439838,1520
0.03799376,1521
0.031060414,1522
0.019396277,1523
0.025545567,1524
0.38911963,1525
0.35415795,1526
0.17863375,1527
0.09512775,1528
0.07253097,1529
0.076280616,1530
0.049643,1531
0.035376526,1532
0.02685021,1533
0.15936112,1534
0.15221456,1535
0.097966425,1536
0.06318453,1537
0.08467058,1538
0.4090024,1539
0.27888447,1540
0.15672047,1541
0.08806763,1542
0.11464062,1543
0.18469149,1544
0.10949803,1545
0.05202712,1546
0.029830597,1547
0.15507714,1548
0.12678128,1549
0.075875476,1550
0.045150198,1551
0.11049154,1552
0.123288944,1553
0.07934069,1554
0.044010177,1555
0.0294693,1556
0.025570272,1557
0.04574911,1558
0.03205836,1559
0.02097887,1560
0.044818882,1561
0.4265951,1562
0.3588779,1563
0.17060702,1564
0.098844476,1565
0.0759697,1566
0.0708906,1567
0.049053285,1568
0.037621614,1569
0.02747944,1570
0.17175351,1571
0.15142632,1572
0.09410671,1573
0.0627603,1574
0.04093692,1575
0.072822645,1576
0.059366327,1577
0.032854598,1578
0.025410583,1579
0.27477962,1580
0.39354768,1581
0.27101597,1582
0.12894636,1583
0.089658335,1584
0.075409755,1585
0.060162697,1586
0.042067792,1587
0.028495267,1588
0.113875106,1589
0.12888007,1590
0.07386011,1591
0.04509775,1592
0.03003863,1593
0.031735893,1594
0.054488454,1595
0.034595266,1596
0.025933277,1597
0.08434423,1598
0.4095991,1599
0.33299062,1600
0.17312789,1601
0.09742541,1602
0.073297895,1603
0.07164363,1604
0.054390073,1605
0.043344617,1606
0.030646518,1607
0.18862748,1608
0.14527906,1609
0.09733612,1610
0.06166153,1611
0.039375894,1612
0.05865621,1613
0.056812096,1614
0.033564813,1615
0.030964768,1616
0.29060623,1617
0.41391975,1618
0.24743775,1619
0.12631585,1620
0.08833061,1621
0.08477449,1622
0.06446115,1623
0.047714658,1624
0.03646214,1625
0.1289108,1626
0.13531587,1627
0.07854235,1628
0.046209294,1629
0.03052473,1630
0.04349591,1631
0.06444457,1632
0.040980298,1633
0.031536724,1634
0.120203756,1635
0.43273145,1636
0.34995317,1637
0.15900514,1638
0.09514781,1639
0.07183186,1640
0.07429404,1641
0.05144531,1642
0.03758845,1643
0.03860663,1644
0.18342127,1645
0.13772696,1646
0.091672905,1647
0.057166584,1648
0.03716942,1649
0.057506777,1650
0.047698174,1651
0.029426815,1652
0.021171708,1653
0.32451457,1654
0.43094057,1655
0.22803226,1656
0.11589353,1657
0.07987736,1658
0.073874734,1659
0.059168674,1660
0.03878419,1661
0.028446598,1662
0.13422823,1663
0.12402198,1664
0.064837456,1665
0.040509194,1666
0.028373156,1667
0.03565169,1668
0.055024233,1669
0.032459293,1670
0.021085603,1671
0.15066363,1672
0.4344691,1673
0.32475582,1674
0.14728092,1675
0.09175132,1676
0.07495887,1677
0.06645533,1678
0.04547312,1679
0.032368727,1680
0.06974699,1681
0.17141044,1682
0.12454416,1683
0.09015618,1684
0.051496424,1685
0.03452798,1686
0.057667185,1687
0.04290462,1688
0.027649399,1689
0.019885443,1690
0.36851746,1691
0.40463537,1692
0.21905668,1693
0.11049399,1694
0.08171659,1695
0.07062589,1696
0.051753208,1697
0.03756682,1698
0.029285787,1699
0.14536361,1700
0.12052071,1701
0.06189375,1702
0.039531082,1703
0.028845888,1704
0.036585424,1705
0.053440314,1706
0.030935382,1707
0.021060785,1708
0.18315358,1709
0.42262638,1710
0.27506658,1711
0.131809,1712
0.084134676,1713
0.07686398,1714
0.06355733,1715
0.043875076,1716
0.03357028,1717
0.08700865,1718
0.16812463,1719
0.118296035,1720
0.084441185,1721
0.050805666,1722
0.047604237,1723
0.07247347,1724
0.045848083,1725
0.029310536,1726
0.021897934,1727
0.40528014,1728
0.36247677,1729
0.18292812,1730
0.10136729,1731
0.08064869,1732
0.07519763,1733
0.05084825,1734
0.03916378,1735
0.025077652,1736
0.14833713,1737
0.12531923,1738
0.06187823,1739
0.038686804,1740
0.028746594,1741
0.03649114,1742
0.041785005,1743
0.027964618,1744
0.021419272,1745
0.22641115,1746
0.4159392,1747
0.2691413,1748
0.13332467,1749
0.0874528,1750
0.093004785,1751
0.08464448,1752
0.07002683,1753
0.045026097,1754
0.10738791,1755
0.1615874,1756
0.11656714,1757
0.08377199,1758
0.051724352,1759
0.042149417,1760
0.06032483,1761
0.048654336,1762
0.03568634,1763
0.04941685,1764
0.40853652,1765
0.35298717,1766
0.18961158,1767
0.1033009,1768
0.082163304,1769
0.06827315,1770
0.0495002,1771
0.036023263,1772
0.02677968,1773
0.15596013,1774
0.12305329,1775
0.059373923,1776
0.035526074,1777
0.029651113,1778
0.046454463,1779
0.047653705,1780
0.037316278,1781
0.025734035,1782
0.26732975,1783
0.39410767,1784
0.25650504,1785
0.12180712,1786
0.078696415,1787
0.078586996,1788
0.060219135,1789
0.040867932,1790
0.032461535,1791
0.1123209,1792
0.16081016,1793
0.1126313,1794
0.0830004,1795
0.043895792,1796
0.05989871,1797
0.0755662,1798
0.04863463,1799
0.028076092,1800
0.07724651,1801
0.40841272,1802
0.35516512,1803
0.16655755,1804
0.091154486,1805
0.070870414,1806
0.07357147,1807
0.04733557,1808
0.035712954,1809
0.026950087,1810
0.16552034,1811
0.11133957,1812
0.058983497,1813
0.03472131,1814
0.026629856,1815
0.045129072,1816
0.04278614,1817
0.025519904,1818
0.016831348,1819
0.28484896,1820
0.38474056,1821
0.23888217,1822
0.11914743,1823
0.07747406,1824
0.07820557,1825
0.056050494,1826
0.040819723,1827
0.033928376,1828
0.1243655,1829
0.1598266,1830
0.10506003,1831
0.07583336,1832
0.044314865,1833
0.35022032,1834
0.33270246,1835
0.18404551,1836
0.10584173,1837
0.08364101,1838
0.1956188,1839
0.17363672,1840
0.07012428,1841
0.038213253,1842
0.11202942,1843
0.14483654,1844
0.090087466,1845
0.05436481,1846
0.04272136,1847
0.17057502,1848
0.09863556,1849
0.05927902,1850
0.030871397,1851
0.0232874,1852
0.044656232,1853
0.037651766,1854
0.023986468,1855
0.013812698,1856
0.31198105,1857
0.35909605,1858
0.22895226,1859
0.124920115,1860
0.07814372,1861
0.074795514,1862
0.057703637,1863
0.039217558,1864
0.031913005,1865
0.13937303,1866
0.15299632,1867
0.11005747,1868
0.07416708,1869
0.04759914,1870
0.057194695,1871
0.06776445,1872
0.037670873,1873
0.027666029,1874
0.14682616,1875
0.40917328,1876
0.29905924,1877
0.15494326,1878
0.1034715,1879
0.081935614,1880
0.06943219,1881
0.049598094,1882
0.037659038,1883
0.05951185,1884
0.14897345,1885
0.09282729,1886
0.056908887,1887
0.033648245,1888
0.030508477,1889
0.05891427,1890
0.04936444,1891
0.035781994,1892
0.026341429,1893
0.3674163,1894
0.39655662,1895
0.21452028,1896
0.111108966,1897
0.08459789,1898
0.08356726,1899
0.06363157,1900
0.04582081,1901
0.03379942,1902
0.14696606,1903
0.14798428,1904
0.1113702,1905
0.06757572,1906
0.042192295,1907
0.04330316,1908
0.05998197,1909
0.033955853,1910
0.026149215,1911
0.16100527,1912
0.4224747,1913
0.2966221,1914
0.14765881,1915
0.099981844,1916
0.07638674,1917
0.06679533,1918
0.04940543,1919
0.037733905,1920
0.08070941,1921
0.13423213,1922
0.08455666,1923
0.049905453,1924
0.030179458,1925
0.028716752,1926
0.058051523,1927
0.040371224,1928
0.025154732,1929
0.017987344,1930
0.39307177,1931
0.37476078,1932
0.181548,1933
0.10551981,1934
0.07756577,1935
0.07075318,1936
0.049971774,1937
0.03669204,1938
0.027623856,1939
0.1562233,1940
0.14208326,1941
0.106105916,1942
0.067288674,1943
0.038191933,1944
0.03746994,1945
0.047966473,1946
0.028377894,1947
0.019275453,1948
0.20616518,1949
0.37539285,1950
0.25320035,1951
0.13030602,1952
0.09268049,1953
0.06934973,1954
0.060051408,1955
0.04625931,1956
0.03163104,1957
0.09348238,1958
0.12202317,1959
0.0780756,1960
0.046687976,1961
0.03212112,1962
0.026202874,1963
0.054072425,1964
0.03862376,1965
0.02212203,1966
0.034651592,1967
0.4023814,1968
0.37315086,1969
0.15613164,1970
0.09385953,1971
0.07708469,1972
0.069031715,1973
0.052109007,1974
0.036545828,1975
0.02712817,1976
0.16671728,1977
0.12577714,1978
0.10539716,1979
0.06355481,1980
0.037429035,1981
0.041719835,1982
0.043114297,1983
0.024938133,1984
0.017996538,1985
0.24271224,1986
0.38143936,1987
0.26988465,1988
0.1226959,1989
0.084504366,1990
0.0774241,1991
0.058563747,1992
0.044838417,1993
0.030939369,1994
0.10892187,1995
0.12097128,1996
0.075741045,1997
0.042710662,1998
0.029815981,1999
0.02699381,2000
0.05290897,2001
0.035551537,2002
0.023985557,2003
0.060974505,2004
0.4212178,2005
0.3035814,2006
0.15092812,2007
0.09172089,2008
0.07680628,2009
0.07148935,2010
0.04775629,2011
0.03755019,2012
0.026257202,2013
0.18215822,2014
0.1311889,2015
0.09942978,2016
0.06236721,2017
0.044036534,2018
0.060175065,2019
0.048808955,2020
0.030973392,2021
0.022722822,2022
0.29048526,2023
0.3609971,2024
0.24031454,2025
0.12249775,2026
0.08301212,2027
0.07498505,2028
0.060342155,2029
0.047968514,2030
0.036418814,2031
0.113719255,2032
0.119210295,2033
0.07108742,2034
0.04259919,2035
0.027344577,2036
0.039451525,2037
0.067650855,2038
0.05837736,2039
0.038032852,2040
0.103189535,2041
0.43005794,2042
0.31470174,2043
0.15747863,2044
0.09012133,2045
0.0795114,2046
0.072225995,2047
0.05244633,2048
0.037404243,2049
0.028348032,2050
0.19468836,2051
0.1477571,2052
0.10173097,2053
0.06338046,2054
0.036009137,2055
0.042022176,2056
0.031700443,2057
0.022569392,2058
0.019902626,2059
0.3247744,2060
0.36442357,2061
0.21170455,2062
0.11579752,2063
0.082392275,2064
0.08408613,2065
0.06299152,2066
0.04595377,2067
0.030845605,2068
0.13035196,2069
0.12567413,2070
0.06970793,2071
0.03956656,2072
0.02656968,2073
0.029278424,2074
0.043500748,2075
0.028250929,2076
0.021624528,2077
0.12616414,2078
0.39169607,2079
0.31145304,2080
0.15914623,2081
0.08803893,2082
0.07100726,2083
0.06387669,2084
0.04292094,2085
0.03175222,2086
0.043676086,2087
0.17221142,2088
0.12825312,2089
0.09574595,2090
0.05353879,2091
0.04915953,2092
0.06971578,2093
0.049591474,2094
0.032208107,2095
0.021049725,2096
0.34936953,2097
0.37275138,2098
0.19684502,2099
0.106671475,2100
0.07536183,2101
0.07212481,2102
0.05380083,2103
0.037693758,2104
0.028443953,2105
0.13611662,2106
0.10307255,2107
0.067269064,2108
0.03838935,2109
0.025749084,2110
0.03218937,2111
0.04961765,2112
0.029992128,2113
0.017561277,2114
0.15973271,2115
0.42811581,2116
0.2778423,2117
0.13986926,2118
0.087763146,2119
0.07464024,2120
0.06602704,2121
0.043780506,2122
0.03256511,2123
0.07738489,2124
0.16114214,2125
0.12330693,2126
0.08796941,2127
0.05214064,2128
0.22251712,2129
0.3023966,2130
0.18028475,2131
0.09589005,2132
0.072336175,2133
0.15915132,2134
0.1905184,2135
0.08870877,2136
0.04244604,2137
0.070540644,2138
0.16496421,2139
0.10142272,2140
0.061740898,2141
0.037340347,2142
0.14242102,2143
0.099615395,2144
0.06338275,2145
0.035501245,2146
0.024808208,2147
0.038069658,2148
0.04771767,2149
0.030335981,2150
0.0192604,2151
0.203119,2152
0.43675816,2153
0.29259223,2154
0.13888273,2155
0.09334778,2156
0.07925922,2157
0.06504256,2158
0.04803127,2159
0.038678903,2160
0.09266033,2161
0.16635558,2162
0.12417272,2163
0.08548339,2164
0.049796015,2165
0.05098352,2166
0.07302686,2167
0.045521628,2168
0.030682504,2169
0.03288721,2170
0.37730882,2171
0.3716526,2172
0.19239584,2173
0.10734051,2174
0.08064282,2175
0.07356242,2176
0.05699295,2177
0.044988394,2178
0.02905898,2179
0.15655534,2180
0.10008643,2181
0.05947922,2182
0.036466297,2183
0.02561108,2184
0.045902263,2185
0.05720396,2186
0.035611767,2187
0.023217259,2188
0.2562003,2189
0.38609073,2190
0.27112958,2191
0.13365307,2192
0.09247708,2193
0.0796106,2194
0.061245535,2195
0.042760763,2196
0.03308054,2197
0.10791234,2198
0.14738533,2199
0.11422397,2200
0.079280786,2201
0.046491012,2202
0.035607897,2203
0.050548006,2204
0.032212526,2205
0.02130679,2206
0.04685745,2207
0.3794439,2208
0.3375819,2209
0.17555925,2210
0.1010837,2211
0.07873074,2212
0.06829705,2213
0.045816187,2214
0.035884254,2215
0.026682192,2216
0.16280997,2217
0.100736246,2218
0.057692677,2219
0.03410008,2220
0.026227314,2221
0.044238433,2222
0.050132696,2223
0.028653031,2224
0.020349655,2225
0.2748678,2226
0.38341004,2227
0.22622989,2228
0.118241265,2229
0.08432539,2230
0.07512651,2231
0.055104543,2232
0.04116893,2233
0.030824881,2234
0.116768025,2235
0.14810064,2236
0.10705618,2237
0.076598346,2238
0.04246256,2239
0.03545012,2240
0.04655647,2241
0.030014884,2242
0.021137208,2243
0.08078577,2244
0.40346387,2245
0.34776604,2246
0.16051565,2247
0.09912048,2248
0.070960194,2249
0.06331416,2250
0.047406875,2251
0.032993887,2252
0.02547979,2253
0.16357961,2254
0.09418052,2255
0.050582316,2256
0.03299726,2257
0.024863383,2258
0.045634806,2259
0.043415617,2260
0.024333399,2261
0.018280648,2262
0.3116438,2263
0.39020097,2264
0.22005732,2265
0.11631584,2266
0.08119619,2267
0.07216526,2268
0.04947599,2269
0.040500678,2270
0.029732585,2271
0.1303408,2272
0.14554368,2273
0.09982106,2274
0.07458125,2275
0.04294546,2276
0.03595014,2277
0.046891496,2278
0.028237296,2279
0.020811645,2280
0.11345804,2281
0.3878098,2282
0.29466328,2283
0.15655558,2284
0.09740269,2285
0.07164563,2286
0.06473098,2287
0.047523458,2288
0.033739205,2289
0.040592156,2290
0.1599686,2291
0.09494962,2292
0.053083554,2293
0.032476556,2294
0.024655841,2295
0.05137294,2296
0.046442684,2297
0.032379527,2298
0.020308003,2299
0.3444143,2300
0.37088415,2301
0.2100534,2302
0.10767335,2303
0.08111153,2304
0.07636659,2305
0.057106078,2306
0.04301104,2307
0.031548716,2308
0.14084537,2309
0.15276521,2310
0.11355812,2311
0.07160866,2312
0.041813325,2313
0.05764884,2314
0.061779782,2315
0.037320342,2316
0.029655721,2317
0.15552448,2318
0.4056614,2319
0.27642235,2320
0.14318517,2321
0.08812795,2322
0.077948704,2323
0.069025524,2324
0.045221362,2325
0.03565439,2326
0.06748353,2327
0.1400157,2328
0.08712665,2329
0.051195078,2330
0.030548021,2331
0.023846086,2332
0.03928086,2333
0.029884588,2334
0.022033205,2335
0.016439032,2336
0.38065127,2337
0.36925432,2338
0.19563119,2339
0.102296054,2340
0.08213273,2341
0.08143392,2342
0.059500016,2343
0.043305434,2344
0.029655974,2345
0.15169111,2346
0.139121,2347
0.09892683,2348
0.06714539,2349
0.039047517,2350
0.033459064,2351
0.037700802,2352
0.026072035,2353
0.019929823,2354
0.1796254,2355
0.40646535,2356
0.27037597,2357
0.13048886,2358
0.085855655,2359
0.0712363,2360
0.05797337,2361
0.039100107,2362
0.027139336,2363
0.08185797,2364
0.11527845,2365
0.07921077,2366
0.05218332,2367
0.03152698,2368
0.033351775,2369
0.052965105,2370
0.050882563,2371
0.044705696,2372
0.04606475,2373
0.42413947,2374
0.36732247,2375
0.19442697,2376
0.11897293,2377
0.10571096,2378
0.10929055,2379
0.10960471,2380
0.10691063,2381
0.11968603,2382
0.19971307,2383
0.17416665,2384
0.15790641,2385
0.15979406,2386
0.13738763,2387
0.16676813,2388
0.14698842,2389
0.1756118,2390
0.20364611,2391
0.3620251,2392
0.43926367,2393
0.39014158,2394
0.35775483,2395
0.35595992,2396
0.37315342,2397
0.3945651,2398
0.40989566,2399
0.41062963,2400
0.37086618,2401
0.4388943,2402
0.3413575,2403
0.3700191,2404
0.18777281,2405
0.17746028,2406
0.20003204,2407
0.16116443,2408
0.14442587,2409
0.14337894,2410
0.4062606,2411
0.34184772,2412
0.20772608,2413
0.13726828,2414
0.1756284,2415
0.2521398,2416
0.2642945,2417
0.24849182,2418
0.22731365,2419
0.22119331,2420
0.19387616,2421
0.16355067,2422
0.13602373,2423
0.1457618,2424
0.347146,2425
0.20741327,2426
0.1427611,2427
0.09980708,2428
0.17725454,2429
0.29974118,2430
0.25113967,2431
0.24042325,2432
0.2108555,2433
0.25264767,2434
0.21267103,2435
0.15606408,2436
0.12208934,2437
0.21814416,2438
0.36963087,2439
0.38583726,2440
0.38657132,2441
0.354199,2442
0.36305648,2443
0.3269136,2444
0.35005626,2445
0.30676168,2446
0.35045025,2447
0.4823753,2448
0.41763592,2449
0.3142672,2450
0.2567255,2451
0.21564136,2452
0.23109567,2453
0.20713834,2454
0.19105388,2455
0.18898423,2456
0.34368724,2457
0.3470834,2458
0.24704935,2459
0.20419495,2460
0.20099305,2461
0.17812826,2462
0.15711585,2463
0.13311106,2464
0.11206766,2465
0.32042387,2466
0.41283056,2467
0.26926297,2468
0.15801676,2469
0.10533399,2470
0.10470685,2471
0.07903917,2472
0.064920835,2473
0.055061545,2474
0.20856753,2475
0.2374067,2476
0.21128406,2477
0.17036453,2478
0.13295205,2479
0.12485384,2480
0.11729867,2481
0.092211686,2482
0.07191359,2483
0.12934227,2484
0.42570958,2485
0.35467663,2486
0.16353944,2487
0.10683996,2488
0.08497943,2489
0.07700088,2490
0.05188777,2491
0.042997,2492
0.04353638,2493
0.35467732,2494
0.2706003,2495
0.20922942,2496
0.16387255,2497
0.13184994,2498
0.11524336,2499
0.102208644,2500
0.08119926,2501
0.06115409,2502
0.32350567,2503
0.37613395,2504
0.23032677,2505
0.12980966,2506
0.08523495,2507
0.0775183,2508
0.06197647,2509
0.040464938,2510
0.03639106,2511
0.23883379,2512
0.28591368,2513
0.20960182,2514
0.16805014,2515
0.1283347,2516
0.11915729,2517
0.10237157,2518
0.085700005,2519
0.06708131,2520
0.17140952,2521
0.44891047,2522
0.32894978,2523
0.16039783,2524
0.10322905,2525
0.07961805,2526
0.07291904,2527
0.050757468,2528
0.039584957,2529
0.06196377,2530
0.31659675,2531
0.27450347,2532
0.20688538,2533
0.1540823,2534
0.12585433,2535
0.123430505,2536
0.09273236,2537
0.07901806,2538
0.05232916,2539
0.34815332,2540
0.4311764,2541
0.22193953,2542
0.11768975,2543
0.08505167,2544
0.0757852,2545
0.057463706,2546
0.0419261,2547
0.029881394,2548
0.26986757,2549
0.26994246,2550
0.19491287,2551
0.15498257,2552
0.13364653,2553
0.11095485,2554
0.094823256,2555
0.08581598,2556
0.064007424,2557
0.2015617,2558
0.45246992,2559
0.3097995,2560
0.15043382,2561
0.09526791,2562
0.0806488,2563
0.06863934,2564
0.0555997,2565
0.042418927,2566
0.09783105,2567
0.3431929,2568
0.25154436,2569
0.19915958,2570
0.15690017,2571
0.12576596,2572
0.12014604,2573
0.10329776,2574
0.079830274,2575
0.060519356,2576
0.36681828,2577
0.40496033,2578
0.19633444,2579
0.11319122,2580
0.08930771,2581
0.08787643,2582
0.0685522,2583
0.054562934,2584
0.040461928,2585
0.26846159,2586
0.27164167,2587
0.19507845,2588
0.15543485,2589
0.13018705,2590
0.115181886,2591
0.1077835,2592
0.09226276,2593
0.06664908,2594
0.23921314,2595
0.40449637,2596
0.28057578,2597
0.14290874,2598
0.09567332,2599
0.08354857,2600
0.075764716,2601
0.05771435,2602
0.04623003,2603
0.13827935,2604
0.32899013,2605
0.2531923,2606
0.19808358,2607
0.14684832,2608
0.1298738,2609
0.11622757,2610
0.0909781,2611
0.07501522,2612
0.0698282,2613
0.4050972,2614
0.37120098,2615
0.18204142,2616
0.10166717,2617
0.08137783,2618
0.07374592,2619
0.052645452,2620
0.03916311,2621
0.029386146,2622
0.2844587,2623
0.27456036,2624
0.19714527,2625
0.14724818,2626
0.12890214,2627
0.10662811,2628
0.09496887,2629
0.08098293,2630
0.06114025,2631
0.27131376,2632
0.38553825,2633
0.26516098,2634
0.12841949,2635
0.08551605,2636
0.08571191,2637
0.06662857,2638
0.04945119,2639
0.034591395,2640
0.16112566,2641
0.32250708,2642
0.2610512,2643
0.19392356,2644
0.14798735,2645
0.12371715,2646
0.10852741,2647
0.094182186,2648
0.0713016,2649
0.098609984,2650
0.43200195,2651
0.35312742,2652
0.17307688,2653
0.102417625,2654
0.08227968,2655
0.07991697,2656
0.055196878,2657
0.040392783,2658
0.026279535,2659
0.29199755,2660
0.25789705,2661
0.21345825,2662
0.15468061,2663
0.1373872,2664
0.09971515,2665
0.0918573,2666
0.07743139,2667
0.060521536,2668
0.29875684,2669
0.39550203,2670
0.24485561,2671
0.124266185,2672
0.08602912,2673
0.08053359,2674
0.065959394,2675
0.047541596,2676
0.03491448,2677
0.18361884,2678
0.3130513,2679
0.21385537,2680
0.1850872,2681
0.13689388,2682
0.13515875,2683
0.11989856,2684
0.095072664,2685
0.06780864,2686
0.12171744,2687
0.40307128,2688
0.3178183,2689
0.16210286,2690
0.09381117,2691
0.076992154,2692
0.0779579,2693
0.051537123,2694
0.03948029,2695
0.032234095,2696
0.29908288,2697
0.25266254,2698
0.20981282,2699
0.1425907,2700
0.12861307,2701
0.10217827,2702
0.094309404,2703
0.07891421,2704
0.060466252,2705
0.32006606,2706
0.40538368,2707
0.22620107,2708
0.12074294,2709
0.08386236,2710
0.088741094,2711
0.065976605,2712
0.050817378,2713
0.0445584,2714
0.20897506,2715
0.3401595,2716
0.2419509,2717
0.17970045,2718
0.13973247,2719
0.3845621,2720
0.3269147,2721
0.19341792,2722
0.122242175,2723
0.10788866,2724
0.2229143,2725
0.16403686,2726
0.08788713,2727
0.054999772,2728
0.13727613,2729
0.14603896,2730
0.09652169,2731
0.06521903,2732
0.06499799,2733
0.30125812,2734
0.26371825,2735
0.20010844,2736
0.13857996,2737
0.121671565,2738
0.117488995,2739
0.0986687,2740
0.08103256,2741
0.052161057,2742
0.36639118,2743
0.43410116,2744
0.21985304,2745
0.12548542,2746
0.095641404,2747
0.08441358,2748
0.07215181,2749
0.05058244,2750
0.038605675,2751
0.22414286,2752
0.3080386,2753
0.23131976,2754
0.17305905,2755
0.14105493,2756
0.14146332,2757
0.121219784,2758
0.09601501,2759
0.06916412,2760
0.19842294,2761
0.42623174,2762
0.31100473,2763
0.16730484,2764
0.10779005,2765
0.07733431,2766
0.07304604,2767
0.050015647,2768
0.037169565,2769
0.08521548,2770
0.3115525,2771
0.23874317,2772
0.19127078,2773
0.13819364,2774
0.12341209,2775
0.116518416,2776
0.09234436,2777
0.07553664,2778
0.051363066,2779
0.40268654,2780
0.38831657,2781
0.20421833,2782
0.12090902,2783
0.09381099,2784
0.08494264,2785
0.06844959,2786
0.050903633,2787
0.042296734,2788
0.27327067,2789
0.2959557,2790
0.21641366,2791
0.1683593,2792
0.13861787,2793
0.12157935,2794
0.11437736,2795
0.08497398,2796
0.07158517,2797
0.22822213,2798
0.46400386,2799
0.30067414,2800
0.15196288,2801
0.099904135,2802
0.08485672,2803
0.06883238,2804
0.046598025,2805
0.03526293,2806
0.12105408,2807
0.3067496,2808
0.2423534,2809
0.18230207,2810
0.14043376,2811
0.12541777,2812
0.10356176,2813
0.09253854,2814
0.069456644,2815
0.06848154,2816
0.39703742,2817
0.40381658,2818
0.18932673,2819
0.11798431,2820
0.08530655,2821
0.08699382,2822
0.06545029,2823
0.052983638,2824
0.04692192,2825
0.29260552,2826
0.29403853,2827
0.21208277,2828
0.16691479,2829
0.13795923,2830
0.12429543,2831
0.10709073,2832
0.09174191,2833
0.07115979,2834
0.2594394,2835
0.395869,2836
0.28653222,2837
0.13503902,2838
0.10178412,2839
0.08319367,2840
0.06804367,2841
0.04973287,2842
0.036683805,2843
0.14674066,2844
0.29988024,2845
0.22272204,2846
0.16104217,2847
0.14032388,2848
0.1224813,2849
0.10747235,2850
0.09472211,2851
0.07462194,2852
0.08270219,2853
0.43848372,2854
0.3592028,2855
0.16778155,2856
0.104889505,2857
0.08858036,2858
0.09638152,2859
0.07568007,2860
0.06378215,2861
0.054208204,2862
0.29924706,2863
0.29672846,2864
0.21887593,2865
0.1557471,2866
0.13913724,2867
0.13321261,2868
0.11242186,2869
0.091531254,2870
0.06784256,2871
0.30044848,2872
0.40299544,2873
0.27469474,2874
0.13984366,2875
0.09896132,2876
0.0870049,2877
0.07321624,2878
0.06296105,2879
0.046064507,2880
0.1839457,2881
0.28273177,2882
0.22390087,2883
0.17748815,2884
0.14169581,2885
0.11895198,2886
0.10589829,2887
0.096403055,2888
0.07208639,2889
0.11648232,2890
0.41903186,2891
0.3317828,2892
0.15814002,2893
0.096011095,2894
0.09349504,2895
0.091356754,2896
0.07623609,2897
0.06928947,2898
0.06036148,2899
0.3349131,2900
0.27037165,2901
0.19414625,2902
0.16633222,2903
0.14012977,2904
0.13284367,2905
0.10417212,2906
0.08446237,2907
0.07038829,2908
0.3197723,2909
0.4076288,2910
0.24309483,2911
0.14443158,2912
0.10820118,2913
0.09333338,2914
0.067403406,2915
0.041997325,2916
0.034548532,2917
0.17756817,2918
0.27170157,2919
0.20659067,2920
0.16479267,2921
0.13649197,2922
0.12337356,2923
0.10187855,2924
0.08787925,2925
0.065508045,2926
0.15441036,2927
0.39913395,2928
0.30263782,2929
0.1640779,2930
0.10647693,2931
0.10444333,2932
0.13066937,2933
0.113730304,2934
0.1006752,2935
0.099095084,2936
0.36062834,2937
0.28137565,2938
0.20806666,2939
0.15544817,2940
0.13295546,2941
0.124530435,2942
0.09225478,2943
0.082167454,2944
0.062226396,2945
0.35726506,2946
0.4289205,2947
0.24502157,2948
0.16959041,2949
0.13394265,2950
0.09219576,2951
0.067388676,2952
0.041324127,2953
0.033959538,2954
0.19162115,2955
0.27483904,2956
0.22758068,2957
0.146929,2958
0.13616194,2959
0.12666291,2960
0.109262235,2961
0.0900755,2962
0.07064922,2963
0.186492,2964
0.42162177,2965
0.31582215,2966
0.1578835,2967
0.09794709,2968
0.124712735,2969
0.1873083,2970
0.16299164,2971
0.14151937,2972
0.16595134,2973
0.33368146,2974
0.26905563,2975
0.20897551,2976
0.15752831,2977
0.13181369,2978
0.14576995,2979
0.10578156,2980
0.08782614,2981
0.060998276,2982
0.41132712,2983
0.46185616,2984
0.26782608,2985
0.17837371,2986
0.15859088,2987
0.11132954,2988
0.08421526,2989
0.057092685,2990
0.04376956,2991
0.2144108,2992
0.29902342,2993
0.18657757,2994
0.16198069,2995
0.13729358,2996
0.11991153,2997
0.12056487,2998
0.100790344,2999
0.07371408,3000
0.21505831,3001
0.40960497,3002
0.292904,3003
0.14707536,3004
0.092549495,3005
0.1787161,3006
0.28039587,3007
0.21152337,3008
0.18064828,3009
0.22017674,3010
0.30560833,3011
0.27445385,3012
0.19166504,3013
0.15721798,3014
0.28987774,3015
0.36683628,3016
0.23485361,3017
0.13993295,3018
0.09515589,3019
0.25645116,3020
0.35850975,3021
0.27624184,3022
0.20149451,3023
0.19711654,3024
0.18294777,3025
0.11562089,3026
0.07291333,3027
0.048652835,3028
0.23026456,3029
0.24530938,3030
0.2214496,3031
0.15143761,3032
0.13478166,3033
0.12848309,3034
0.132797,3035
0.10783919,3036
0.077034876,3037
0.2480346,3038
0.3746738,3039
0.24288163,3040
0.13122952,3041
0.098330915,3042
0.16334407,3043
0.17226891,3044
0.17954083,3045
0.13719729,3046
0.20573927,3047
0.32115883,3048
0.24145238,3049
0.19807644,3050
0.15172738,3051
0.11859742,3052
0.10323538,3053
0.0835429,3054
0.057035178,3055
0.071138814,3056
0.4154045,3057
0.39658758,3058
0.21774796,3059
0.14299688,3060
0.11564456,3061
0.08335055,3062
0.06373488,3063
0.049815547,3064
0.03552602,3065
0.2866568,3066
0.23531765,3067
0.20223871,3068
0.15217432,3069
0.13320605,3070
0.11270562,3071
0.11799121,3072
0.08898737,3073
0.067998976,3074
0.2656129,3075
0.39703828,3076
0.2769285,3077
0.13891497,3078
0.099909335,3079
0.10612909,3080
0.084849626,3081
0.08257049,3082
0.058183033,3083
0.18985055,3084
0.30444866,3085
0.2535931,3086
0.18169081,3087
0.14573243,3088
0.12011744,3089
0.10374063,3090
0.07849572,3091
0.06687293,3092
0.11380273,3093
0.41691744,3094
0.3566946,3095
0.1856076,3096
0.10454147,3097
0.08457551,3098
0.07558516,3099
0.05410697,3100
0.03860171,3101
0.027156828,3102
0.27633354,3103
0.24607126,3104
0.20085557,3105
0.13498566,3106
0.13424295,3107
0.107929684,3108
0.09458879,3109
0.0814497,3110
0.054999705,3111
0.31373173,3112
0.40386227,3113
0.23041159,3114
0.123076424,3115
0.0905835,3116
0.08727505,3117
0.07020424,3118
0.056411013,3119
0.044127353,3120
0.20194635,3121
0.33350545,3122
0.23065186,3123
0.188397,3124
0.13920905,3125
0.116866305,3126
0.0925724,3127
0.08015834,3128
0.06258329,3129
0.13569333,3130
0.43104562,3131
0.30994493,3132
0.15727311,3133
0.10634372,3134
0.081145495,3135
0.07409375,3136
0.056751963,3137
0.045035385,3138
0.036965895,3139
0.30312672,3140
0.23261222,3141
0.19262649,3142
0.15405796,3143
0.13659184,3144
0.10356868,3145
0.099297546,3146
0.07666329,3147
0.06068243,3148
0.33947673,3149
0.37958544,3150
0.21803838,3151
0.12687002,3152
0.08742912,3153
0.088822946,3154
0.077633314,3155
0.058051575,3156
0.04694642,3157
0.24585514,3158
0.28965458,3159
0.2528321,3160
0.18158032,3161
0.13638043,3162
0.10972913,3163
0.09951467,3164
0.07495517,3165
0.068868905,3166
0.16920547,3167
0.41933894,3168
0.28156006,3169
0.1509398,3170
0.098463565,3171
0.087775536,3172
0.077641,3173
0.059741784,3174
0.049021184,3175
0.06320891,3176
0.28205335,3177
0.23671289,3178
0.19104303,3179
0.13003142,3180
0.1251015,3181
0.10539977,3182
0.09084436,3183
0.079054095,3184
0.051164057,3185
0.359333,3186
0.34489578,3187
0.19889997,3188
0.11348503,3189
0.09299335,3190
0.09325261,3191
0.075665675,3192
0.05227645,3193
0.045920704,3194
0.23921204,3195
0.31152445,3196
0.24190241,3197
0.18097948,3198
0.13435571,3199
0.11507702,3200
0.10579224,3201
0.078279816,3202
0.06495979,3203
0.20225728,3204
0.4065815,3205
0.2564197,3206
0.14851737,3207
0.09166737,3208
0.080537856,3209
0.067259096,3210
0.045287684,3211
0.03497971,3212
0.090152755,3213
0.25872785,3214
0.23783314,3215
0.19461724,3216
0.13633308,3217
0.11427468,3218
0.09881382,3219
0.09294771,3220
0.071969725,3221
0.052076917,3222
0.4077788,3223
0.33846402,3224
0.20209758,3225
0.115248784,3226
0.0930569,3227
0.09642575,3228
0.075207874,3229
0.051464114,3230
0.044278678,3231
0.2723548,3232
0.32434505,3233
0.21906678,3234
0.16535139,3235
0.1320492,3236
0.122596845,3237
0.09965156,3238
0.08548684,3239
0.06525735,3240
0.23333073,3241
0.3860192,3242
0.2697303,3243
0.14240131,3244
0.09483121,3245
0.09026667,3246
0.07159382,3247
0.05706654,3248
0.040790476,3249
0.1387058,3250
0.28734118,3251
0.2513464,3252
0.18965936,3253
0.14487526,3254
0.11465235,3255
0.10595254,3256
0.09531913,3257
0.07226557,3258
0.07308252,3259
0.40011096,3260
0.35880232,3261
0.20021737,3262
0.11778237,3263
0.09701182,3264
0.098817155,3265
0.06944625,3266
0.053437762,3267
0.04445703,3268
0.25779992,3269
0.2723115,3270
0.22045466,3271
0.16176191,3272
0.13922928,3273
0.15035078,3274
0.1141935,3275
0.09313168,3276
0.07576042,3277
0.2740609,3278
0.42773405,3279
0.2721824,3280
0.13970587,3281
0.09376164,3282
0.08634852,3283
0.066023484,3284
0.052048735,3285
0.039428927,3286
0.15406367,3287
0.26927158,3288
0.2166888,3289
0.17581502,3290
0.13686046,3291
0.11592566,3292
0.10889096,3293
0.09689602,3294
0.07115204,3295
0.09501669,3296
0.41081232,3297
0.29853415,3298
0.18707488,3299
0.11039507,3300
0.09783597,3301
0.09500977,3302
0.07009545,3303
0.05291858,3304
0.04265571,3305
0.3189789,3306
0.27483264,3307
0.2246058,3308
0.15341519,3309
0.20103836,3310
0.35612994,3311
0.22506207,3312
0.13832882,3313
0.10161263,3314
0.14602172,3315
0.21700117,3316
0.13651629,3317
0.06855504,3318
0.055241145,3319
0.18025205,3320
0.14598614,3321
0.102633126,3322
0.07286694,3323
0.19045763,3324
0.2756313,3325
0.2219445,3326
0.19890198,3327
0.14847699,3328
0.12029522,3329
0.10561669,3330
0.09056943,3331
0.06865453,3332
0.1289117,3333
0.399969,3334
0.33105302,3335
0.18874234,3336
0.13283378,3337
0.10145087,3338
0.09390817,3339
0.07822425,3340
0.062245015,3341
0.0458315,3342
0.35312453,3343
0.28340816,3344
0.21313049,3345
0.16634478,3346
0.15809141,3347
0.12467481,3348
0.113060735,3349
0.084367014,3350
0.08215848,3351
0.33699384,3352
0.40546337,3353
0.25485894,3354
0.13640475,3355
0.10146766,3356
0.08584099,3357
0.05751608,3358
0.047343906,3359
0.03430859,3360
0.19496636,3361
0.26979196,3362
0.2191797,3363
0.1892513,3364
0.1542464,3365
0.11892331,3366
0.111922756,3367
0.08957127,3368
0.070886545,3369
0.15463041,3370
0.41496074,3371
0.323692,3372
0.17574999,3373
0.13271874,3374
0.104836866,3375
0.097688146,3376
0.08141309,3377
0.06936431,3378
0.07166903,3379
0.3529766,3380
0.26624414,3381
0.2230123,3382
0.15972108,3383
0.14096074,3384
0.11903144,3385
0.104986824,3386
0.084038034,3387
0.08423477,3388
0.33139905,3389
0.40092266,3390
0.22815423,3391
0.13864243,3392
0.107769586,3393
0.08851693,3394
0.067123,3395
0.05558243,3396
0.03621164,3397
0.23450129,3398
0.24851957,3399
0.21002871,3400
0.17469057,3401
0.14493297,3402
0.11588628,3403
0.11784375,3404
0.09535572,3405
0.07262489,3406
0.19117261,3407
0.40149462,3408
0.31685293,3409
0.15912265,3410
0.11766642,3411
0.10626275,3412
0.10511438,3413
0.092376865,3414
0.06967251,3415
0.11076992,3416
0.354835,3417
0.26131186,3418
0.2130764,3419
0.15319037,3420
0.13593268,3421
0.113942645,3422
0.082963035,3423
0.0823992,3424
0.06559698,3425
0.38211253,3426
0.4104194,3427
0.20414102,3428
0.13811159,3429
0.10526523,3430
0.09474331,3431
0.06595078,3432
0.054293387,3433
0.039341602,3434
0.2386691,3435
0.24770875,3436
0.21412867,3437
0.15814802,3438
0.14257528,3439
0.11919033,3440
0.113017276,3441
0.08940222,3442
0.059814412,3443
0.21850471,3444
0.3863782,3445
0.28829283,3446
0.1467439,3447
0.1200872,3448
0.118437275,3449
0.114874765,3450
0.10532108,3451
0.07931689,3452
0.15382743,3453
0.29109508,3454
0.27167356,3455
0.20563622,3456
0.16449495,3457
0.13599694,3458
0.11858728,3459
0.08696274,3460
0.067597225,3461
0.07595601,3462
0.38977423,3463
0.35992578,3464
0.19763412,3465
0.1561977,3466
0.12107044,3467
0.10175903,3468
0.07706216,3469
0.06473269,3470
0.050490107,3471
0.24732463,3472
0.22900926,3473
0.21001258,3474
0.14748019,3475
0.14874849,3476
0.124226876,3477
0.10549093,3478
0.095444284,3479
0.066484906,3480
0.27157158,3481
0.38416487,3482
0.27037004,3483
0.14879058,3484
0.12545335,3485
0.13885881,3486
0.15264563,3487
0.12499845,3488
0.10190566,3489
0.1915143,3490
0.31300092,3491
0.27709845,3492
0.21639392,3493
0.16472578,3494
0.14203998,3495
0.111243226,3496
0.086371966,3497
0.07101838,3498
0.0928655,3499
0.41285673,3500
0.34310955,3501
0.21229975,3502
0.16770574,3503
0.14409877,3504
0.10708178,3505
0.07829855,3506
0.061676577,3507
0.04179289,3508
0.30031422,3509
0.26368797,3510
0.220453,3511
0.15299499,3512
0.16013204,3513
0.12211047,3514
0.11681049,3515
0.09705297,3516
0.07167303,3517
0.30007806,3518
0.3643664,3519
0.26447016,3520
0.15010954,3521
0.13847819,3522
0.19277383,3523
0.23011532,3524
0.17020547,3525
0.1519805,3526
0.25088567,3527
0.31785205,3528
0.25854957,3529
0.20962001,3530
0.16554826,3531
0.13267826,3532
0.092486106,3533
0.09162343,3534
0.07814722,3535
0.125807,3536
0.41280982,3537
0.3944877,3538
0.25835955,3539
0.21649465,3540
0.16283578,3541
0.11848587,3542
0.0872574,3543
0.0706614,3544
0.04461467,3545
0.3023575,3546
0.28070197,3547
0.23405722,3548
0.15430085,3549
0.18035172,3550
0.13783734,3551
0.17050204,3552
0.1466258,3553
0.13210082,3554
0.3731396,3555
0.36999854,3556
0.250453,3557
0.17012413,3558
0.17327335,3559
0.3149663,3560
0.2823137,3561
0.31933102,3562
0.27506992,3563
0.343961,3564
0.3756209,3565
0.28808644,3566
0.25487494,3567
0.21894838,3568
0.2065242,3569
0.18587579,3570
0.18661007,3571
0.22135712,3572
0.33284387,3573
0.5901006,3574
0.50794786,3575
0.44402087,3576
0.43435258,3577
0.3964314,3578
0.4339637,3579
0.4101551,3580
0.44134447,3581
0.40435392,3582
0.5096533,3583
0.4375522,3584
0.3778683,3585
0.25192767,3586
0.20269336,3587
0.2611263,3588
0.24452706,3589
0.2135647,3590
0.1880594,3591
0.41072062,3592
0.40073043,3593
0.28978494,3594
0.20081168,3595
0.21595569,3596
0.34216583,3597
0.36126167,3598
0.33326855,3599
0.28813142,3600
0.29561216,3601
0.35540432,3602
0.29366472,3603
0.2560733,3604
0.20821667,3605
0.34983978,3606
0.2579743,3607
0.20004268,3608
0.18509583,3609
0.2127888,3610
0.31435034,3611
0.30127054,3612
0.30039167,3613
0.26297057,3614
0.27341694,3615
0.2572181,3616
0.21314481,3617
0.19607514,3618
0.20761661,3619
0.3310019,3620
0.42770633,3621
0.40580502,3622
0.37438768,3623
0.36058345,3624
0.41915876,3625
0.38433522,3626
0.3302245,3627
0.31663665,3628
0.30101916,3629
0.26923624,3630
0.29088196,3631
0.22455534,3632
0.22467583,3633
0.21272075,3634
0.20026742,3635
0.19660008,3636
0.17839357,3637
0.19136755,3638
0.17088442,3639
0.15674001,3640
0.14214288,3641
0.13448408,3642
0.1327891,3643
0.11744589,3644
0.1012366,3645
0.10199594,3646
0.093687385,3647
0.09007303,3648
0.08338737,3649
0.07741244,3650
0.06920092,3651
0.06476553,3652
0.058670983,3653
0.05178421,3654
0.04920606,3655
0.04789266,3656
0.047081877,3657
0.043367337,3658
0.039947398,3659
0.041522108,3660
0.03491941,3661
0.031847894,3662
0.03302468,3663
0.03297372,3664
0.030565657,3665
0.030235616,3666
0.03109323,3667
0.029433884,3668
0.028329846,3669
0.027945854,3670
0.035578612,3671
0.03020622,3672
0.027558422,3673
0.030081186,3674
0.02963347,3675
0.02711739,3676
0.024751369,3677
0.024801949,3678
0.024800189,3679
0.030648952,3680
0.033626746,3681
0.029412268,3682
0.028578661,3683
0.02861888,3684
0.032895647,3685
0.033331748,3686
0.028599987,3687
0.028094204,3688
0.026941458,3689
0.02420779,3690
0.023693718,3691
0.024440756,3692
0.026648283,3693
0.03401501,3694
0.032398906,3695
0.02879447,3696
0.027741343,3697
0.022573454,3698
0.025425559,3699
0.028618459,3700
0.023950044,3701
0.023238212,3702
0.028664324,3703
0.027518854,3704
0.0237056,3705
0.026570972,3706
0.029736457,3707
0.040261574,3708
0.030657087,3709
0.03069376,3710
0.029123895,3711
0.026584204,3712
0.026757745,3713
0.026710147,3714
0.02500011,3715
0.024369491,3716
0.027470555,3717
0.028667632,3718
0.026274284,3719
0.025374634,3720
0.036234487,3721
0.03650555,3722
0.027958173,3723
0.02845961,3724
0.028040674,3725
0.022228576,3726
0.023893172,3727
0.025185127,3728
0.022045128,3729
0.026641006,3730
0.03513017,3731
0.031114792,3732
0.02862962,3733
0.02848182,3734
0.026264228,3735
0.02350899,3736
0.024038956,3737
0.022715956,3738
0.02495157,3739
0.031984262,3740
0.030969221,3741
0.026877465,3742
0.026771342,3743
0.03326863,3744
0.041041385,3745
0.041552894,3746
0.03738613,3747
0.033404324,3748
0.02611769,3749
0.02543643,3750
0.025750484,3751
0.022744417,3752
0.024064353,3753
0.029281398,3754
0.030007845,3755
0.027096637,3756
0.02594259,3757
0.034613233,3758
0.035964314,3759
0.03205251,3760
0.02955583,3761
0.031189738,3762
0.032489963,3763
0.030794417,3764
0.026602464,3765
0.026836004,3766
0.02665445,3767
0.030278029,3768
0.028640468,3769
0.028460868,3770
0.024283601,3771
0.026877295,3772
0.028053736,3773
0.02755157,3774
0.025889562,3775
0.027213369,3776
0.0351928,3777
0.031637967,3778
0.029867418,3779
0.030395137,3780
0.034054305,3781
0.034799404,3782
0.030978194,3783
0.029648557,3784
0.028117126,3785
0.033974983,3786
0.039532956,3787
0.030548945,3788
0.027819794,3789
0.033660274,3790
0.03532035,3791
0.030604202,3792
0.030362213,3793
0.024837717,3794
0.038474016,3795
0.038313515,3796
0.03553539,3797
0.03402274,3798
0.033353306,3799
0.029199481,3800
0.028489824,3801
0.03173407,3802
0.030569239,3803
0.030411305,3804
0.03521574,3805
0.04040726,3806
0.030540846,3807
0.033038907,3808
0.042427015,3809
0.04434954,3810
0.044834353,3811
0.037325017,3812
0.028073573,3813
0.03534976,3814
0.031242752,3815
0.027139029,3816
0.02901416,3817
0.037536234,3818
0.046248246,3819
0.04417032,3820
0.039199032,3821
0.03607238,3822
0.043495987,3823
0.042554684,3824
0.041146353,3825
0.034766167,3826
0.034259316,3827
0.03813851,3828
0.034080848,3829
0.029922966,3830
0.02671306,3831
0.043481383,3832
0.045777526,3833
0.040829014,3834
0.041007288,3835
0.040971737,3836
0.056272462,3837
0.051649805,3838
0.04506788,3839
0.038919345,3840
0.040452458,3841
0.041370258,3842
0.035853524,3843
0.034045987,3844
0.031954594,3845
0.035216622,3846
0.034750797,3847
0.035173677,3848
0.030064438,3849
0.03348796,3850
0.037992064,3851
0.032978896,3852
0.030787148,3853
0.029100345,3854
0.038135547,3855
0.040828887,3856
0.040191557,3857
0.037192352,3858
0.036951184,3859
0.031207634,3860
0.031152848,3861
0.026256545,3862
0.025631232,3863
0.03180864,3864
0.037324123,3865
0.03505105,3866
0.032063145,3867
0.02947858,3868
0.04168039,3869
0.03763036,3870
0.037657462,3871
0.03266912,3872
0.031405937,3873
0.035680868,3874
0.034035925,3875
0.03227274,3876
0.029569337,3877
0.035752844,3878
0.039419815,3879
0.038722638,3880
0.03453477,3881
0.03476645,3882
0.035198484,3883
0.035217136,3884
0.035035804,3885
0.02931832,3886
0.031283192,3887
0.03946452,3888
0.035430517,3889
0.03281389,3890
0.030024996,3891
0.047806147,3892
0.047525123,3893
0.0381102,3894
0.029969083,3895
0.029567288,3896
0.03335829,3897
0.02973092,3898
0.029561266,3899
0.029956002,3900
0.033859137,3901
0.03684072,3902
0.036482353,3903
0.03449239,3904
0.030364776,3905
0.04866399,3906
0.043557625,3907
0.0391786,3908
0.038706534,3909
0.035344746,3910
0.03909124,3911
0.040386394,3912
0.034601804,3913
0.02751703,3914
0.028643465,3915
0.0319734,3916
0.02880661,3917
0.027630875,3918
0.02739916,3919
0.03380025,3920
0.03327507,3921
0.030683178,3922
0.0276578,3923
0.032592375,3924
0.04030256,3925
0.04044638,3926
0.036377247,3927
0.033871096,3928
0.03157413,3929
0.035482787,3930
0.0310286,3931
0.028924223,3932
0.029763889,3933
0.037487134,3934
0.038807373,3935
0.03409205,3936
0.035480537,3937
0.039291672,3938
0.038686547,3939
0.039712794,3940
0.034337386,3941
0.032481518,3942
0.049367182,3943
0.03730587,3944
0.03553939,3945
0.03353422,3946
0.038299672,3947
0.04113309,3948
0.040812768,3949
0.03794927,3950
0.033134323,3951
0.045498393,3952
0.03974258,3953
0.042461675,3954
0.03677963,3955
0.0387572,3956
0.047671344,3957
0.042568948,3958
0.042955864,3959
0.035756942,3960
0.03523473,3961
0.03796147,3962
0.037174415,3963
0.031422958,3964
0.029760586,3965
0.04285832,3966
0.049694322,3967
0.047804326,3968
0.042910665,3969
0.03270281,3970
0.034958534,3971
0.03262593,3972
0.031093162,3973
0.028184272,3974
0.038281996,3975
0.042954586,3976
0.037856836,3977
0.03247774,3978
0.03082015,3979
0.04231895,3980
0.045762546,3981
0.034446713,3982
0.033492904,3983
0.03615254,3984
0.03711298,3985
0.032808535,3986
0.030662913,3987
0.026613263,3988
0.042397823,3989
0.036967583,3990
0.03594628,3991
0.034127954,3992
0.034516405,3993
0.038507435,3994
0.03670367,3995
0.033031803,3996
0.026281994,3997
0.029361673,3998
0.031188397,3999
0.030035704,4000
0.031588666,4001
0.027906304,4002
0.043378804,4003
0.0408287,4004
0.036041483,4005
0.036663685,4006
0.037217367,4007
0.034415185,4008
0.0317732,4009
0.029676365,4010
0.03011917,4011
0.03142236,4012
0.033830598,4013
0.033620995,4014
0.025289195,4015
0.029042615,4016
0.044834472,4017
0.037820727,4018
0.030885106,4019
0.0334008,4020
0.0352042,4021
0.034712855,4022
0.037971966,4023
0.028116072,4024
0.02546515,4025
0.04642531,4026
0.035158448,4027
0.032951698,4028
0.03494067,4029
0.033186417,4030
0.030032806,4031
0.034823935,4032
0.03046484,4033
0.026186058,4034
0.033376835,4035
0.030507164,4036
0.027451968,4037
0.030466545,4038
0.031521175,4039
0.047964383,4040
0.04217786,4041
0.043215454,4042
0.038533673,4043
0.03506181,4044
0.033494424,4045
0.029174495,4046
0.027971867,4047
0.026735382,4048
0.032096535,4049
0.035462823,4050
0.034038436,4051
0.027445177,4052
0.031937446,4053
0.043402437,4054
0.037555117,4055
0.033375707,4056
0.033046313,4057
0.03540618,4058
0.03164545,4059
0.031864077,4060
0.02762016,4061
0.027325304,4062
0.03090205,4063
0.029228117,4064
0.026048843,4065
0.026712343,4066
0.0298102,4067
0.035001095,4068
0.03520192,4069
0.03280941,4070
0.027555842,4071
0.043380048,4072
0.044204075,4073
0.034487825,4074
0.034845043,4075
0.04016489,4076
0.0358294,4077
0.034861688,4078
0.03360117,4079
0.028717004,4080
0.035761826,4081
0.03419538,4082
0.03607935,4083
0.0358542,4084
0.03355297,4085
0.04383362,4086
0.040200703,4087
0.04183043,4088
0.036301363,4089
0.042177517,4090
0.03820933,4091
0.037294805,4092
0.036635865,4093
0.037421793,4094
0.03961547,4095
0.03611088,4096
0.038357083,4097
0.036157742,4098
0.032565568,4099
0.044779196,4100
0.036108736,4101
0.038169406,4102
0.035365254,4103
0.051541124,4104
0.074408,4105
0.07364384,4106
0.05314597,4107
0.03476353,4108
0.037248004,4109
0.03524937,4110
0.029964961,4111
0.029014256,4112
0.031757973,4113
0.04612194,4114
0.054011963,4115
0.04200336,4116
0.03824193,4117
0.05356204,4118
0.065203056,4119
0.06210876,4120
0.0452896,4121
0.033514634,4122
0.031278677,4123
0.032121904,4124
0.031256758,4125
0.027357554,4126
0.03750735,4127
0.05375323,4128
0.047194954,4129
0.038942676,4130
0.033807226,4131
0.04929919,4132
0.049265206,4133
0.046727497,4134
0.031683076,4135
0.031520527,4136
0.046098474,4137
0.038402937,4138
0.035347767,4139
0.03333658,4140
0.032140084,4141
0.039163284,4142
0.037462205,4143
0.030494092,4144
0.026893301,4145
0.033160705,4146
0.03096899,4147
0.027320374,4148
0.027021497,4149
0.03712984,4150
0.04860459,4151
0.046175532,4152
0.043336138,4153
0.03486602,4154
0.033347055,4155
0.033404805,4156
0.03355378,4157
0.032146886,4158
0.029355526,4159
0.034399714,4160
0.03558072,4161
0.031171689,4162
0.027042212,4163
0.03722789,4164
0.042490486,4165
0.037674524,4166
0.029613748,4167
0.033524826,4168
0.032626092,4169
0.034474097,4170
0.031825315,4171
0.026399828,4172
0.031323753,4173
0.041110083,4174
0.03670695,4175
0.03855987,4176
0.034542628,4177
0.0332429,4178
0.03489467,4179
0.03048671,4180
0.026378866,4181
0.027843082,4182
0.03144774,4183
0.030624058,4184
0.027644318,4185
0.025891582,4186
0.038779125,4187
0.04456246,4188
0.043640677,4189
0.041503266,4190
0.03824747,4191
0.037585784,4192
0.03199951,4193
0.02935341,4194
0.027533593,4195
0.027911859,4196
0.033296395,4197
0.030837137,4198
0.026026752,4199
0.026892528,4200
0.04381062,4201
0.04546826,4202
0.03851656,4203
0.03692565,4204
0.037365198,4205
0.034376286,4206
0.03099114,4207
0.03169039,4208
0.026991682,4209
0.027586916,4210
0.02911951,4211
0.027139705,4212
0.025569,4213
0.024438296,4214
0.03137196,4215
0.035901766,4216
0.034956545,4217
0.029287295,4218
0.0315313,4219
0.037652742,4220
0.041509423,4221
0.041988783,4222
0.035872705,4223
0.034973696,4224
0.042423602,4225
0.040017568,4226
0.03321291,4227
0.029506851,4228
0.049373705,4229
0.042455103,4230
0.040301736,4231
0.035083164,4232
0.03745573,4233
0.045699697,4234
0.045371428,4235
0.03539276,4236
0.032423884,4237
0.041087434,4238
0.04032007,4239
0.04197196,4240
0.036846537,4241
0.03354375,4242
0.04551541,4243
0.04496178,4244
0.043008912,4245
0.03448603,4246
0.043067932,4247
0.04659261,4248
0.04104754,4249
0.037590917,4250
0.04132725,4251
0.041994143,4252
0.039999086,4253
0.036465913,4254
0.032811042,4255
0.03059317,4256
0.033443175,4257
0.035732403,4258
0.03225422,4259
0.02840656,4260
0.044602834,4261
0.046702594,4262
0.039301157,4263
0.03706266,4264
0.037727807,4265
0.032302912,4266
0.030553631,4267
0.027731057,4268
0.025320195,4269
0.027377732,4270
0.031564806,4271
0.031191064,4272
0.027070442,4273
0.025630912,4274
0.04483691,4275
0.035953663,4276
0.039081894,4277
0.034963414,4278
0.035414904,4279
0.033610754,4280
0.031218844,4281
0.028627561,4282
0.026243262,4283
0.036191758,4284
0.04261878,4285
0.040858824,4286
0.03257071,4287
0.036512826,4288
0.03588549,4289
0.03461533,4290
0.032420266,4291
0.027677374,4292
0.025643134,4293
0.02990043,4294
0.02670488,4295
0.028606126,4296
0.026372135,4297
0.04474418,4298
0.045753505,4299
0.042427283,4300
0.037225056,4301
0.03134128,4302
0.03568498,4303
0.027709508,4304
0.02684035,4305
0.0322212,4306
0.028745616,4307
0.02921538,4308
0.03288764,4309
0.027863009,4310
0.024610393,4311
0.051622923,4312
0.041535392,4313
0.038128477,4314
0.040385507,4315
0.033436235,4316
0.029454386,4317
0.03264345,4318
0.02839421,4319
0.02464718,4320
0.04500533,4321
0.04029284,4322
0.042678792,4323
0.042471863,4324
0.037915602,4325
0.03825732,4326
0.03508025,4327
0.031861085,4328
0.029003039,4329
0.028272254,4330
0.03098299,4331
0.027888414,4332
0.02754344,4333
0.028299697,4334
0.04609041,4335
0.041061632,4336
0.046177715,4337
0.03813664,4338
0.033501826,4339
0.035781365,4340
0.0281616,4341
0.025554674,4342
0.029761277,4343
0.029788919,4344
0.03422657,4345
0.035636127,4346
0.028904315,4347
0.027145023,4348
0.050837282,4349
0.04705446,4350
0.038339302,4351
0.045870967,4352
0.037819315,4353
0.03482812,4354
0.03212701,4355
0.030517992,4356
0.026090242,4357
0.031700723,4358
0.03140381,4359
0.029393213,4360
0.026808545,4361
0.027800998,4362
0.038188905,4363
0.039379127,4364
0.034845278,4365
0.029738197,4366
0.040829584,4367
0.057204723,4368
0.049818337,4369
0.043007355,4370
0.042843934,4371
0.04344387,4372
0.03949651,4373
0.03504954,4374
0.030031554,4375
0.0363288,4376
0.05470071,4377
0.053481672,4378
0.05270424,4379
0.04223703,4380
0.044521213,4381
0.045480397,4382
0.04198871,4383
0.0384982,4384
0.036399815,4385
0.05461795,4386
0.053184804,4387
0.04635264,4388
0.044497013,4389
0.04260549,4390
0.043313578,4391
0.04280308,4392
0.038575735,4393
0.030864382,4394
0.05570332,4395
0.056955487,4396
0.048056122,4397
0.053220913,4398
0.04279613,4399
0.052668415,4400
0.051702518,4401
0.04042128,4402
0.03181873,4403
0.031942606,4404
0.03230639,4405
0.03146362,4406
0.026580764,4407
0.029501516,4408
0.058903877,4409
0.05602297,4410
0.04831539,4411
0.05079765,4412
0.04395473,4413
0.043405782,4414
0.04008812,4415
0.03340492,4416
0.031485718,4417
0.029367488,4418
0.031918418,4419
0.031204304,4420
0.026061371,4421
0.036985215,4422
0.064631104,4423
0.060193215,4424
0.046393342,4425
0.049002435,4426
0.04550501,4427
0.03932251,4428
0.039607994,4429
0.03205926,4430
0.02791325,4431
0.056289703,4432
0.05241413,4433
0.052578185,4434
0.0462466,4435
0.044089936,4436
0.0405811,4437
0.039361447,4438
0.03537014,4439
0.03414876,4440
0.031178832,4441
0.030331561,4442
0.0280484,4443
0.027361775,4444
0.03437958,4445
0.06571706,4446
0.057384487,4447
0.049977276,4448
0.048123553,4449
0.04544492,4450
0.036606118,4451
0.034361266,4452
0.031604666,4453
0.02870301,4454
0.032379575,4455
0.03153008,4456
0.029919155,4457
0.027141621,4458
0.038420875,4459
0.06076686,4460
0.05635596,4461
0.0472897,4462
0.047581345,4463
0.043155976,4464
0.03495016,4465
0.03194657,4466
0.026177244,4467
0.02705886,4468
0.05862352,4469
0.0502027,4470
0.04738179,4471
0.04689729,4472
0.04463107,4473
0.042195726,4474
0.035956517,4475
0.03238137,4476
0.033313364,4477
0.03405766,4478
0.033082187,4479
0.028237173,4480
0.026155984,4481
0.03947949,4482
0.066800416,4483
0.06317037,4484
0.055504207,4485
0.051126074,4486
0.04883886,4487
0.042536836,4488
0.034600113,4489
0.030013556,4490
0.02763427,4491
0.03259321,4492
0.031184988,4493
0.03088034,4494
0.027123665,4495
0.04680723,4496
0.06872056,4497
0.06455167,4498
0.05820267,4499
0.053157553,4500
0.051688574,4501
0.040022407,4502
0.03946984,4503
0.034508683,4504
0.03164096,4505
0.041362997,4506
0.043559123,4507
0.03954021,4508
0.034290988,4509
0.042896334,4510
0.047515765,4511
0.045697093,4512
0.039287645,4513
0.031758886,4514
0.081688404,4515
0.07316606,4516
0.07127228,4517
0.06366089,4518
0.053307023,4519
0.051660243,4520
0.046657972,4521
0.04480219,4522
0.034078192,4523
0.07430778,4524
0.079867795,4525
0.07691302,4526
0.06796482,4527
0.06315529,4528
0.062406275,4529
0.052951694,4530
0.05111679,4531
0.04131166,4532
0.06376433,4533
0.08367076,4534
0.07695117,4535
0.06218409,4536
0.06896139,4537
0.059959184,4538
0.05141052,4539
0.04707976,4540
0.04193227,4541
0.050209243,4542
0.090378284,4543
0.0878673,4544
0.0736966,4545
0.06703448,4546
0.061931312,4547
0.057599094,4548
0.048063185,4549
0.041315034,4550
0.04213549,4551
0.051765036,4552
0.052571308,4553
0.0484882,4554
0.04469253,4555
0.06760303,4556
0.08881666,4557
0.08116437,4558
0.07278456,4559
0.06576901,4560
0.06340254,4561
0.057630915,4562
0.05645626,4563
0.04824664,4564
0.04831088,4565
0.04616186,4566
0.039246555,4567
0.03611646,4568
0.030447798,4569
0.06767906,4570
0.09734823,4571
0.084678754,4572
0.08193501,4573
0.081121765,4574
0.06387393,4575
0.049262267,4576
0.042056028,4577
0.038061675,4578
0.05481432,4579
0.084900975,4580
0.08087697,4581
0.0717487,4582
0.07036034,4583
0.068922095,4584
0.05719943,4585
0.05429017,4586
0.046579566,4587
0.04459996,4588
0.059180003,4589
0.05900145,4590
0.0573954,4591
0.051702004,4592
0.07764503,4593
0.089275464,4594
0.08559878,4595
0.07175575,4596
0.0635268,4597
0.07187693,4598
0.06817697,4599
0.06287842,4600
0.058590278,4601
0.054935627,4602
0.052803688,4603
0.045921843,4604
0.039613258,4605
0.03154555,4606
0.08696216,4607
0.10245111,4608
0.098494634,4609
0.08329997,4610
0.080609486,4611
0.06717015,4612
0.052603744,4613
0.049037132,4614
0.03751412,4615
0.0651577,4616
0.11258529,4617
0.097313985,4618
0.08447073,4619
0.08883775,4620
0.07691543,4621
0.06963475,4622
0.06159112,4623
0.04822643,4624
0.05120936,4625
0.06981512,4626
0.07292446,4627
0.072688706,4628
0.06482344,4629
0.09350157,4630
0.10597392,4631
0.09714968,4632
0.08508618,4633
0.081034854,4634
0.08761793,4635
0.08380038,4636
0.07850966,4637
0.06902501,4638
0.06551199,4639
0.06927419,4640
0.059436224,4641
0.05323421,4642
0.038453534,4643
0.11868454,4644
0.12566797,4645
0.12733886,4646
0.10582827,4647
0.09772784,4648
0.08924837,4649
0.06714053,4650
0.059414666,4651
0.046552233,4652
0.055599857,4653
0.08817489,4654
0.081761725,4655
0.07398036,4656
0.07513186,4657
0.08342701,4658
0.07996553,4659
0.07224024,4660
0.059897397,4661
0.08398391,4662
0.16577448,4663
0.1408935,4664
0.13097619,4665
0.12038897,4666
0.10272389,4667
0.082387514,4668
0.06831951,4669
0.054581616,4670
0.05489991,4671
0.16422835,4672
0.15547164,4673
0.15135144,4674
0.13830075,4675
0.12366847,4676
0.105481125,4677
0.091051795,4678
0.07149989,4679
0.060869437,4680
0.17450078,4681
0.17275123,4682
0.16664349,4683
0.1465099,4684
0.13109276,4685
0.11105895,4686
0.08633246,4687
0.0828937,4688
0.071116656,4689
0.14916246,4690
0.19211961,4691
0.18116632,4692
0.15634902,4693
0.13350032,4694
0.13795334,4695
0.10710925,4696
0.08907024,4697
0.072501026,4698
0.078916356,4699
0.11119388,4700
0.10524832,4701
0.09360748,4702
0.098718174,4703
0.18290086,4704
0.20277268,4705
0.17659086,4706
0.1517497,4707
0.14810465,4708
0.14604509,4709
0.12757303,4710
0.115508415,4711
0.10283966,4712
0.09342982,4713
0.08246825,4714
0.06887849,4715
0.061019693,4716
0.04996348,4717
0.21749328,4718
0.2382068,4719
0.20085314,4720
0.18841162,4721
0.16270363,4722
0.13464814,4723
0.09538648,4724
0.08100811,4725
0.059855167,4726
0.1582538,4727
0.20324254,4728
0.1945899,4729
0.17198958,4730
0.16880107,4731
0.17007901,4732
0.1741203,4733
0.15306993,4734
0.14027801,4735
0.1341157,4736
0.15796545,4737
0.14151056,4738
0.13630548,4739
0.1395079,4740
0.21118465,4741
0.23285078,4742
0.22029868,4743
0.20030068,4744
0.20630185,4745
0.19813924,4746
0.20147878,4747
0.19349182,4748
0.18323697,4749
0.1998313,4750
0.19315143,4751
0.22187509,4752
0.26332593,4753
0.26924682,4754
0.38017467,4755
0.33396214,4756
0.3759783,4757
0.3616015,4758
0.33239275,4759
0.39663163,4760
0.42324635,4761
0.4301506,4762
0.39114287,4763
0.4486016,4764
0.43954882,4765
0.40649086,4766
0.36119497,4767
0.24915251,4768
0.24554786,4769
0.23157209,4770
0.21442892,4771
0.18557133,4772
0.1766285,4773
0.19495167,4774
0.19449872,4775
0.16940433,4776
0.16475593,4777
0.27652252,4778
0.27265826,4779
0.28422296,4780
0.26154768,4781
0.2429286,4782
0.22525288,4783
0.22359833,4784
0.18571226,4785
0.17279148,4786
0.16794714,4787
0.16268598,4788
0.17387024,4789
0.16243406,4790
0.17621946,4791
0.23445831,4792
0.27550182,4793
0.26743373,4794
0.25929686,4795
0.22408034,4796
0.22728835,4797
0.20650391,4798
0.18695933,4799
0.17113252,4800
0.31738126,4801
0.38849866,4802
0.39135858,4803
0.3696234,4804
0.36243543,4805
0.4148795,4806
0.37312207,4807
0.34508562,4808
0.32339978,4809
0.27113742,4810
0.28165087,4811
0.28370142,4812
0.2649471,4813
0.22921914,4814
0.22088212,4815
0.20532033,4816
0.19803393,4817
0.17347486,4818
0.20225517,4819
0.19966552,4820
0.18111521,4821
0.15402164,4822
0.16008553,4823
0.14701182,4824
0.14041041,4825
0.13074385,4826
0.11714854,4827
0.10635468,4828
0.123847224,4829
0.120706595,4830
0.11173614,4831
0.09568011,4832
0.08742863,4833
0.0832711,4834
0.06973998,4835
0.057880916,4836
0.054770086,4837
0.109319195,4838
0.096222155,4839
0.08746886,4840
0.07875758,4841
0.07403579,4842
0.06496283,4843
0.058268853,4844
0.049428478,4845
0.041040093,4846
0.053429943,4847
0.05988672,4848
0.05091664,4849
0.041350957,4850
0.042562474,4851
0.10657854,4852
0.097772844,4853
0.08189209,4854
0.06953377,4855
0.06248205,4856
0.04610052,4857
0.03722723,4858
0.028443575,4859
0.024649465,4860
0.05743441,4861
0.05885875,4862
0.045849934,4863
0.03840027,4864
0.0576945,4865
0.10184509,4866
0.09245043,4867
0.07898472,4868
0.07277576,4869
0.057083398,4870
0.04243478,4871
0.033737615,4872
0.027502643,4873
0.024625562,4874
0.09554245,4875
0.084924504,4876
0.068348564,4877
0.06514851,4878
0.06735697,4879
0.056001075,4880
0.04906841,4881
0.04116495,4882
0.035317507,4883
0.05264438,4884
0.050221715,4885
0.041160252,4886
0.034540277,4887
0.04391216,4888
0.09638069,4889
0.085032925,4890
0.07044333,4891
0.06187302,4892
0.061992314,4893
0.04286733,4894
0.032943122,4895
0.028879203,4896
0.024994684,4897
0.05582678,4898
0.06085182,4899
0.050248716,4900
0.038413417,4901
0.055444974,4902
0.09025766,4903
0.079677,4904
0.0691584,4905
0.06478052,4906
0.055153094,4907
0.04248647,4908
0.03573626,4909
0.03191917,4910
0.035589498,4911
0.10082204,4912
0.089829296,4913
0.077088565,4914
0.06433712,4915
0.065345235,4916
0.06926862,4917
0.05635893,4918
0.04129443,4919
0.035404358,4920
0.05696507,4921
0.0556696,4922
0.049883146,4923
0.040125698,4924
0.05659344,4925
0.1007294,4926
0.09370069,4927
0.080732726,4928
0.06915035,4929
0.05923328,4930
0.046056855,4931
0.036730167,4932
0.032083705,4933
0.0267068,4934
0.07510559,4935
0.07648469,4936
0.06428194,4937
0.047266748,4938
0.07651346,4939
0.10525146,4940
0.092189126,4941
0.086942,4942
0.07437558,4943
0.07203577,4944
0.061877705,4945
0.06278589,4946
0.05134306,4947
0.046487655,4948
0.0566409,4949
0.06149016,4950
0.044551235,4951
0.037877362,4952
0.049343526,4953
0.054013394,4954
0.04744861,4955
0.041964285,4956
0.036319315,4957
0.114807025,4958
0.10103792,4959
0.08955088,4960
0.073979266,4961
0.06422033,4962
0.05854149,4963
0.053245742,4964
0.043774758,4965
0.0372781,4966
0.08070272,4967
0.10674572,4968
0.0837199,4969
0.06627405,4970
0.06521063,4971
0.0762161,4972
0.07286423,4973
0.06201824,4974
0.04859725,4975
0.079281874,4976
0.100268796,4977
0.09492195,4978
0.07006771,4979
0.06633035,4980
0.060852684,4981
0.0570212,4982
0.04521504,4983
0.034118984,4984
0.049696505,4985
0.11237676,4986
0.09619235,4987
0.08230363,4988
0.07005381,4989
0.07204737,4990
0.057434216,4991
0.04762595,4992
0.035282042,4993
0.034685854,4994
0.06615476,4995
0.052734233,4996
0.0510045,4997
0.0399109,4998
0.071642846,4999
0.11229588,5000
0.091787875,5001
0.07863111,5002
0.06942475,5003
0.057970338,5004
0.044237595,5005
0.039010696,5006
0.028296497,5007
0.031607967,5008
0.05764289,5009
0.051472656,5010
0.051737763,5011
0.036570366,5012
0.08322224,5013
0.10523153,5014
0.08877239,5015
0.07669584,5016
0.0656938,5017
0.059866928,5018
0.044276614,5019
0.03667417,5020
0.024557674,5021
0.050202332,5022
0.10389739,5023
0.087128624,5024
0.07688173,5025
0.060840826,5026
0.062320847,5027
0.058696065,5028
0.04902297,5029
0.039424833,5030
0.035466164,5031
0.054800477,5032
0.052250214,5033
0.04983911,5034
0.040074375,5035
0.07185691,5036
0.10023248,5037
0.08718455,5038
0.06842,5039
0.062330335,5040
0.053139385,5041
0.041508585,5042
0.033137873,5043
0.027176155,5044
0.03275758,5045
0.060170308,5046
0.06302282,5047
0.061234508,5048
0.04209845,5049
0.082690686,5050
0.10023379,5051
0.08026812,5052
0.077261925,5053
0.060674876,5054
0.055264935,5055
0.047306508,5056
0.039695676,5057
0.03252985,5058
0.05953416,5059
0.09874135,5060
0.093063325,5061
0.082435876,5062
0.064314574,5063
0.070111655,5064
0.060982224,5065
0.05328833,5066
0.039913036,5067
0.042791497,5068
0.062258366,5069
0.05601838,5070
0.046812,5071
0.037530325,5072
0.08368788,5073
0.10636825,5074
0.08900983,5075
0.07658166,5076
0.070267394,5077
0.053814888,5078
0.040423144,5079
0.03607095,5080
0.028861716,5081
0.04148335,5082
0.07041192,5083
0.07045966,5084
0.05891486,5085
0.049642213,5086
0.093752034,5087
0.12073335,5088
0.09514541,5089
0.08307425,5090
0.090187095,5091
0.07701867,5092
0.067935996,5093
0.06147047,5094
0.050616004,5095
0.049515232,5096
0.05430726,5097
0.04597012,5098
0.04313292,5099
0.03516275,5100
0.053369507,5101
0.053965654,5102
0.04416949,5103
0.038652547,5104
0.060978405,5105
0.11662077,5106
0.108014405,5107
0.08648358,5108
0.071653694,5109
0.06865455,5110
0.059753753,5111
0.051059928,5112
0.044599053,5113
0.049892727,5114
0.11537183,5115
0.11780645,5116
0.07462189,5117
0.06877525,5118
0.074747354,5119
0.07148063,5120
0.06682596,5121
0.05353001,5122
0.054045796,5123
0.095722236,5124
0.12090007,5125
0.09715595,5126
0.07617576,5127
0.066241466,5128
0.061498336,5129
0.055486057,5130
0.040958147,5131
0.03732395,5132
0.08570673,5133
0.115633376,5134
0.09122467,5135
0.07838067,5136
0.0692081,5137
0.066567115,5138
0.056341592,5139
0.044083744,5140
0.03601597,5141
0.042332828,5142
0.052935056,5143
0.050712023,5144
0.048469193,5145
0.041032474,5146
0.10261215,5147
0.12368633,5148
0.08376677,5149
0.075513236,5150
0.06560342,5151
0.054065283,5152
0.040176243,5153
0.029661778,5154
0.024157267,5155
0.03655328,5156
0.052419294,5157
0.052717537,5158
0.043655895,5159
0.039455827,5160
0.12061748,5161
0.11402362,5162
0.09494341,5163
0.07721995,5164
0.0690616,5165
0.046320118,5166
0.03806802,5167
0.027701689,5168
0.021584773,5169
0.07419084,5170
0.10164562,5171
0.08079589,5172
0.070214346,5173
0.060809642,5174
0.07257657,5175
0.059105087,5176
0.045964673,5177
0.037636723,5178
0.046736788,5179
0.04808894,5180
0.04897873,5181
0.04236826,5182
0.040306684,5183
0.10318816,5184
0.10684296,5185
0.0936141,5186
0.078607105,5187
0.070069484,5188
0.050647907,5189
0.03650567,5190
0.032629665,5191
0.030134492,5192
0.03962382,5193
0.06046874,5194
0.059612762,5195
0.04836522,5196
0.04606763,5197
0.10831867,5198
0.105618924,5199
0.07736559,5200
0.072799295,5201
0.06560839,5202
0.047795024,5203
0.04810073,5204
0.03768502,5205
0.027974118,5206
0.08598559,5207
0.119392216,5208
0.08655353,5209
0.07510585,5210
0.06854231,5211
0.06665429,5212
0.062211815,5213
0.04726096,5214
0.040542014,5215
0.044811055,5216
0.049075883,5217
0.054426774,5218
0.04130766,5219
0.041560035,5220
0.123973906,5221
0.10826607,5222
0.09967786,5223
0.0862503,5224
0.07012016,5225
0.050672166,5226
0.040178325,5227
0.03273255,5228
0.026623325,5229
0.04530254,5230
0.07003614,5231
0.059082452,5232
0.057276446,5233
0.057325132,5234
0.13418944,5235
0.13765825,5236
0.10228324,5237
0.08929602,5238
0.081967734,5239
0.070543855,5240
0.06317226,5241
0.053692296,5242
0.050510496,5243
0.052714914,5244
0.04924456,5245
0.05115934,5246
0.044299982,5247
0.04421304,5248
0.06641221,5249
0.054886036,5250
0.04661102,5251
0.038561754,5252
0.09193204,5253
0.13559122,5254
0.100001514,5255
0.08359824,5256
0.06853061,5257
0.100031994,5258
0.08940117,5259
0.08530782,5260
0.07274546,5261
0.0878774,5262
0.1316664,5263
0.10984581,5264
0.07599636,5265
0.06519646,5266
0.07536267,5267
0.083377905,5268
0.06738024,5269
0.056432344,5270
0.06311987,5271
0.16352357,5272
0.15332356,5273
0.11957137,5274
0.10523651,5275
0.08380776,5276
0.075465605,5277
0.0579666,5278
0.040511236,5279
0.031158451,5280
0.11405892,5281
0.119165726,5282
0.09115822,5283
0.072168976,5284
0.07197449,5285
0.0744235,5286
0.06250868,5287
0.054007925,5288
0.039370794,5289
0.049656462,5290
0.054830622,5291
0.048391808,5292
0.03828563,5293
0.05290702,5294
0.17544912,5295
0.183742,5296
0.15460505,5297
0.12784386,5298
0.0999392,5299
0.070189,5300
0.052129023,5301
0.03726141,5302
0.031745393,5303
0.044885177,5304
0.046286415,5305
0.0407841,5306
0.042608887,5307
0.06308937,5308
0.21729456,5309
0.20503421,5310
0.1593796,5311
0.15337358,5312
0.1037864,5313
0.08479565,5314
0.06340208,5315
0.03991046,5316
0.03309824,5317
0.09744964,5318
0.09264608,5319
0.07929242,5320
0.06062758,5321
0.06674625,5322
0.08325989,5323
0.07456807,5324
0.063054815,5325
0.05068628,5326
0.051031567,5327
0.047410052,5328
0.046229273,5329
0.03917136,5330
0.061691735,5331
0.19383213,5332
0.2030181,5333
0.20050171,5334
0.16407247,5335
0.12802635,5336
0.08155267,5337
0.056464154,5338
0.045370117,5339
0.036487736,5340
0.053507805,5341
0.055835266,5342
0.049020763,5343
0.046468835,5344
0.090406954,5345
0.2693532,5346
0.27142552,5347
0.18306422,5348
0.19709116,5349
0.122787304,5350
0.081303336,5351
0.057343584,5352
0.038898274,5353
0.040899497,5354
0.103351004,5355
0.10020363,5356
0.07917539,5357
0.060690325,5358
0.06317939,5359
0.08752669,5360
0.08027527,5361
0.06675264,5362
0.05492253,5363
0.05484938,5364
0.05014759,5365
0.041952543,5366
0.030580752,5367
0.08588811,5368
0.24849337,5369
0.2694835,5370
0.25878498,5371
0.21751347,5372
0.15999344,5373
0.08783286,5374
0.064958766,5375
0.050374262,5376
0.04126444,5377
0.05480625,5378
0.053254955,5379
0.04112355,5380
0.039812256,5381
0.11955086,5382
0.35037348,5383
0.3124826,5384
0.28749213,5385
0.22140656,5386
0.15123105,5387
0.090351194,5388
0.065709636,5389
0.05217856,5390
0.03883815,5391
0.042073105,5392
0.036594946,5393
0.029158385,5394
0.027194941,5395
0.05303629,5396
0.113181,5397
0.09875714,5398
0.09050991,5399
0.06637345,5400
0.11711033,5401
0.11930904,5402
0.0882596,5403
0.07376446,5404
0.11571321,5405
0.20555352,5406
0.2126178,5407
0.17969494,5408
0.14394823,5409
0.12142141,5410
0.15677288,5411
0.10252391,5412
0.083435394,5413
0.068630785,5414
0.0713217,5415
0.058381744,5416
0.049901947,5417
0.04444184,5418
0.09815976,5419
0.2079495,5420
0.16645947,5421
0.13116181,5422
0.11961935,5423
0.08097378,5424
0.06666142,5425
0.054044448,5426
0.041450407,5427
0.06195399,5428
0.11727716,5429
0.09858346,5430
0.070069164,5431
0.060147934,5432
0.06679084,5433
0.07957085,5434
0.06018838,5435
0.04915677,5436
0.04579415,5437
0.05720653,5438
0.04688268,5439
0.03768217,5440
0.033828467,5441
0.07330198,5442
0.1326138,5443
0.112280264,5444
0.09610738,5445
0.08109099,5446
0.062929906,5447
0.049217567,5448
0.039772004,5449
0.030112388,5450
0.031573042,5451
0.051715266,5452
0.048026107,5453
0.034138594,5454
0.029324114,5455
0.08220381,5456
0.13390677,5457
0.11590748,5458
0.08935198,5459
0.07097115,5460
0.054281916,5461
0.03934018,5462
0.036334094,5463
0.028257865,5464
0.04709426,5465
0.092808366,5466
0.07938542,5467
0.06421472,5468
0.055200834,5469
0.061099194,5470
0.05945859,5471
0.051115215,5472
0.042093612,5473
0.033432063,5474
0.052343167,5475
0.04490078,5476
0.03653421,5477
0.035824783,5478
0.06421236,5479
0.11100286,5480
0.09251302,5481
0.075580604,5482
0.062120434,5483
0.056331355,5484
0.041270886,5485
0.031411335,5486
0.031851258,5487
0.029042184,5488
0.055062063,5489
0.05575251,5490
0.037423998,5491
0.029154032,5492
0.07919467,5493
0.093676575,5494
0.07275252,5495
0.062005833,5496
0.058944862,5497
0.045476712,5498
0.039043978,5499
0.027878692,5500
0.023398453,5501
0.052888487,5502
0.09976165,5503
0.073335834,5504
0.07019397,5505
0.060889285,5506
0.056052987,5507
0.05097268,5508
0.0436402,5509
0.03543964,5510
0.031292498,5511
0.04625743,5512
0.040185086,5513
0.04172069,5514
0.040283896,5515
0.07662204,5516
0.116148874,5517
0.08603677,5518
0.076954335,5519
0.071407676,5520
0.050513994,5521
0.03384229,5522
0.027836056,5523
0.028267933,5524
0.038555842,5525
0.061807964,5526
0.05444264,5527
0.048687294,5528
0.04431587,5529
0.09981752,5530
0.11618901,5531
0.08748865,5532
0.0808681,5533
0.07561135,5534
0.062031988,5535
0.059705082,5536
0.050844442,5537
0.04582185,5538
0.046448335,5539
0.050551444,5540
0.050287228,5541
0.038109154,5542
0.042272445,5543
0.05505721,5544
0.053419176,5545
0.04047005,5546
0.03586538,5547
0.06186262,5548
0.12832092,5549
0.104784876,5550
0.0896602,5551
0.0750023,5552
0.060371876,5553
0.068677895,5554
0.058249928,5555
0.04154614,5556
0.044935334,5557
0.110821046,5558
0.110878125,5559
0.07521429,5560
0.06498802,5561
0.06878037,5562
0.0830965,5563
0.06828604,5564
0.056779645,5565
0.05000302,5566
0.10530052,5567
0.11677667,5568
0.081631124,5569
0.07410486,5570
0.06479797,5571
0.06081334,5572
0.04805112,5573
0.039148748,5574
0.03537945,5575
0.080243394,5576
0.122507386,5577
0.08826552,5578
0.08328573,5579
0.06637705,5580
0.06572758,5581
0.061205275,5582
0.045996305,5583
0.036946125,5584
0.03922933,5585
0.052292544,5586
0.05241747,5587
0.046892677,5588
0.048132468,5589
0.10527536,5590
0.12526834,5591
0.09669745,5592
0.07158366,5593
0.06535806,5594
0.055812184,5595
0.047244187,5596
0.043597452,5597
0.03124923,5598
0.03989423,5599
0.051975712,5600
0.05392893,5601
0.047998566,5602
0.042944733,5603
0.11180842,5604
0.1210731,5605
0.090522274,5606
0.07462545,5607
0.06860495,5608
0.058823247,5609
0.058318157,5610
0.04733317,5611
0.029703042,5612
0.07693029,5613
0.10618937,5614
0.08608242,5615
0.07058923,5616
0.06288733,5617
0.06821728,5618
0.06011728,5619
0.048559062,5620
0.03852019,5621
0.043435585,5622
0.053547416,5623
0.05195522,5624
0.047339406,5625
0.043438353,5626
0.08967791,5627
0.09912138,5628
0.07897414,5629
0.06405095,5630
0.051157147,5631
0.044759896,5632
0.0345637,5633
0.027997416,5634
0.02174264,5635
0.04421829,5636
0.055317312,5637
0.058225296,5638
0.048715964,5639
0.046665985,5640
0.096306995,5641
0.092458,5642
0.070308805,5643
0.057313446,5644
0.049913883,5645
0.03894815,5646
0.030225482,5647
0.021699237,5648
0.019322405,5649
0.09950348,5650
0.11619203,5651
0.09822837,5652
0.07658201,5653
0.07297262,5654
0.05850331,5655
0.04877028,5656
0.04073957,5657
0.030862601,5658
0.048506893,5659
0.06752177,5660
0.06154815,5661
0.055116482,5662
0.048106164,5663
0.108285114,5664
0.1044896,5665
0.07372098,5666
0.067747146,5667
0.061398108,5668
0.040665396,5669
0.032223143,5670
0.024223201,5671
0.023506833,5672
0.055287156,5673
0.0836011,5674
0.07319246,5675
0.06473534,5676
0.06891753,5677
0.12639926,5678
0.12076189,5679
0.089888446,5680
0.07798738,5681
0.077474855,5682
0.0801487,5683
0.07410869,5684
0.06660167,5685
0.055679694,5686
0.08396257,5687
0.09681104,5688
0.077532716,5689
0.07407674,5690
0.06735416,5691
0.06552895,5692
0.052641015,5693
0.04224983,5694
0.038912535,5695
0.10529823,5696
0.16793595,5697
0.12532632,5698
0.09500252,5699
0.09344342,5700
0.07860761,5701
0.06981276,5702
0.05930405,5703
0.04707883,5704
0.07500868,5705
0.13168703,5706
0.10325824,5707
0.08388203,5708
0.075327754,5709
0.10080232,5710
0.110142104,5711
0.0918126,5712
0.071530946,5713
0.083899476,5714
0.13499661,5715
0.1265512,5716
0.08882993,5717
0.08473889,5718
0.073188655,5719
0.06925468,5720
0.057319418,5721
0.048620358,5722
0.04247909,5723
0.12946427,5724
0.14896205,5725
0.11251773,5726
0.09947664,5727
0.09221985,5728
0.068315886,5729
0.06146097,5730
0.05072635,5731
0.042736474,5732
0.07780931,5733
0.0916972,5734
0.08180834,5735
0.07568205,5736
0.07963838,5737
0.1319569,5738
0.124905504,5739
0.10217192,5740
0.07972594,5741
0.0694156,5742
0.06355359,5743
0.055822607,5744
0.04855798,5745
0.04644556,5746
0.08596367,5747
0.09152024,5748
0.08065206,5749
0.06351636,5750
0.084114335,5751
0.12842613,5752
0.13610752,5753
0.1078287,5754
0.086721,5755
0.06898435,5756
0.05202688,5757
0.045752093,5758
0.03806037,5759
0.037453577,5760
0.11144805,5761
0.121015355,5762
0.09555273,5763
0.08836936,5764
0.082716234,5765
0.0769441,5766
0.0647129,5767
0.052247476,5768
0.03799162,5769
0.07554352,5770
0.07772182,5771
0.06746494,5772
0.07099165,5773
0.075253315,5774
0.12418429,5775
0.11735955,5776
0.09180119,5777
0.07808066,5778
0.075001046,5779
0.07241466,5780
0.0665897,5781
0.055394903,5782
0.05310907,5783
0.06813196,5784
0.066335954,5785
0.058095008,5786
0.048402645,5787
0.07520616,5788
0.12296426,5789
0.10808818,5790
0.09822499,5791
0.09586999,5792
0.07641861,5793
0.05648088,5794
0.046104297,5795
0.035176855,5796
0.043641366,5797
0.122718774,5798
0.116046056,5799
0.09504261,5800
0.09368343,5801
0.08200633,5802
0.07076853,5803
0.061633352,5804
0.05254011,5805
0.040414684,5806
0.08037236,5807
0.08214898,5808
0.07698513,5809
0.06925316,5810
0.08770055,5811
0.15329035,5812
0.13838944,5813
0.10298644,5814
0.09085278,5815
0.08482435,5816
0.08143939,5817
0.077176295,5818
0.06500543,5819
0.064669244,5820
0.07012614,5821
0.07168544,5822
0.065200575,5823
0.053280767,5824
0.09524745,5825
0.17144188,5826
0.14855178,5827
0.13357875,5828
0.12343663,5829
0.091737114,5830
0.075625576,5831
0.066133395,5832
0.052941576,5833
0.059114706,5834
0.08642649,5835
0.087500095,5836
0.0809645,5837
0.08140554,5838
0.076870345,5839
0.08360284,5840
0.06636405,5841
0.056898955,5842
0.05512419,5843
0.1413962,5844
0.1552119,5845
0.11494794,5846
0.10511786,5847
0.10861673,5848
0.13206804,5849
0.13256398,5850
0.102519445,5851
0.09076245,5852
0.12403285,5853
0.15785949,5854
0.12667389,5855
0.101715036,5856
0.09740702,5857
0.09931662,5858
0.07962991,5859
0.07085789,5860
0.05815785,5861
0.12061569,5862
0.22320265,5863
0.18951656,5864
0.1580196,5865
0.14333028,5866
0.106486216,5867
0.0900063,5868
0.068472445,5869
0.05673693,5870
0.08071427,5871
0.14456359,5872
0.11979313,5873
0.11666706,5874
0.11174946,5875
0.10597888,5876
0.11106532,5877
0.09891968,5878
0.084013104,5879
0.08100984,5880
0.13233125,5881
0.12907192,5882
0.12531495,5883
0.12396077,5884
0.15606034,5885
0.22251466,5886
0.21012953,5887
0.18360674,5888
0.18670963,5889
0.19247133,5890
0.19161361,5891
0.18918878,5892
0.17782062,5893
0.17793263,5894
0.17459546,5895
0.19182077,5896
0.22802395,5897
0.22971424,5898
0.310367,5899
0.33239603,5900
0.35266763,5901
0.3487148,5902
0.33845845,5903
0.3513309,5904
0.38847446,5905
0.39571255,5906
0.38842323,5907
0.39332527,5908
0.34282148,5909
0.2866673,5910
0.2644531,5911
0.1347235,5912
0.11334265,5913
0.13886537,5914
0.15080501,5915
0.14087722,5916
0.1412205,5917
0.15262163,5918
0.16462214,5919
0.15713732,5920
0.14968345,5921
0.23906158,5922
0.27646032,5923
0.2236625,5924
0.23720323,5925
0.1888237,5926
0.13846454,5927
0.13429908,5928
0.13719505,5929
0.11630712,5930
0.12489902,5931
0.13165541,5932
0.13882586,5933
0.13799614,5934
0.121163614,5935
0.26520377,5936
0.34971246,5937
0.3362958,5938
0.32985723,5939
0.23286064,5940
0.14899561,5941
0.15148766,5942
0.14962532,5943
0.12618579,5944
0.16509941,5945
0.15409163,5946
0.121640064,5947
0.117164925,5948
0.12241814,5949
0.135011,5950
0.1816519,5951
0.1627769,5952
0.15201382,5953
0.15189594,5954
0.14791276,5955
0.15929058,5956
0.1313691,5957
0.13127977,5958
0.23261222,5959
0.21190056,5960
0.17684935,5961
0.16525023,5962
0.13861862,5963
0.13046113,5964
0.14121525,5965
0.14201011,5966
0.13991356,5967
0.1442211,5968
0.15344009,5969
0.16150427,5970
0.1609904,5971
0.13973913,5972
0.22355035,5973
0.16418526,5974
0.1592727,5975
0.15354188,5976
0.13745262,5977
0.09602753,5978
0.13364539,5979
0.16383101,5980
0.1336372,5981
0.29594615,5982
0.36928782,5983
0.42586023,5984
0.3584487,5985
0.34757608,5986
0.3433851,5987
0.290817,5988
0.33953348,5989
0.28537026,5990
0.4008124,5991
0.4136149,5992
0.40241295,5993
0.36717364,5994
0.30646628,5995
0.21653168,5996
0.22169489,5997
0.19819695,5998
0.17897092,5999
0.23618452,6000
0.402669,6001
0.31649724,6002
0.30889553,6003
0.29729596,6004
0.21886699,6005
0.18009904,6006
0.15505418,6007
0.12370172,6008
0.1197301,6009
0.3772997,6010
0.37373188,6011
0.28908122,6012
0.28029653,6013
0.19577228,6014
0.107850336,6015
0.09027671,6016
0.08062602,6017
0.0653823,6018
0.2602708,6019
0.3071278,6020
0.28248882,6021
0.24750616,6022
0.2089374,6023
0.12749307,6024
0.10512238,6025
0.09377931,6026
0.07404023,6027
0.23724665,6028
0.32796788,6029
0.24256538,6030
0.14244512,6031
0.094827354,6032
0.22271462,6033
0.22283235,6034
0.22362317,6035
0.2615063,6036
0.28632495,6037
0.29859313,6038
0.25112087,6039
0.1873691,6040
0.1589502,6041
0.12970804,6042
0.115123264,6043
0.10124497,6044
0.07936798,6045
0.0812125,6046
0.35472286,6047
0.3312159,6048
0.30950785,6049
0.28240216,6050
0.19641511,6051
0.08758682,6052
0.060203176,6053
0.04837398,6054
0.03975155,6055
0.30016252,6056
0.2938785,6057
0.26327702,6058
0.21196805,6059
0.20577942,6060
0.11336886,6061
0.09609527,6062
0.090515114,6063
0.07445406,6064
0.27469635,6065
0.3282527,6066
0.25263736,6067
0.12543441,6068
0.088708304,6069
0.21562375,6070
0.2248193,6071
0.22388354,6072
0.24164054,6073
0.27571627,6074
0.33133855,6075
0.23306598,6076
0.1960663,6077
0.13727498,6078
0.13059883,6079
0.10748161,6080
0.09755427,6081
0.07021895,6082
0.10441105,6083
0.41724673,6084
0.34521464,6085
0.27031645,6086
0.26370376,6087
0.14997582,6088
0.08095937,6089
0.059414487,6090
0.045708038,6091
0.034124147,6092
0.3099856,6093
0.3165697,6094
0.28191423,6095
0.24123155,6096
0.21293473,6097
0.10640495,6098
0.10429131,6099
0.086115524,6100
0.070587285,6101
0.3093471,6102
0.32791737,6103
0.2339131,6104
0.1240616,6105
0.090553224,6106
0.27583727,6107
0.26232976,6108
0.24639353,6109
0.26759213,6110
0.29209143,6111
0.3037161,6112
0.22768053,6113
0.18834768,6114
0.13778166,6115
0.13211077,6116
0.10410238,6117
0.10359232,6118
0.07142427,6119
0.13618489,6120
0.39223754,6121
0.3535561,6122
0.29368743,6123
0.28674394,6124
0.1597483,6125
0.08700569,6126
0.07109671,6127
0.055505354,6128
0.04497018,6129
0.3042037,6130
0.22104128,6131
0.20175102,6132
0.1402225,6133
0.13969265,6134
0.10153531,6135
0.09423505,6136
0.0836022,6137
0.072317846,6138
0.31204504,6139
0.35087067,6140
0.30663094,6141
0.25980565,6142
0.23519574,6143
0.09410961,6144
0.07502578,6145
0.055856854,6146
0.04868399,6147
0.21549575,6148
0.36824024,6149
0.29644787,6150
0.29667574,6151
0.24221125,6152
0.1554569,6153
0.12767091,6154
0.1188197,6155
0.08307011,6156
0.16219954,6157
0.38338402,6158
0.3353747,6159
0.29201013,6160
0.28402168,6161
0.14679576,6162
0.09841922,6163
0.0750958,6164
0.060905382,6165
0.067481324,6166
0.358155,6167
0.2958768,6168
0.25684106,6169
0.24237512,6170
0.18681733,6171
0.12402097,6172
0.10827388,6173
0.095960975,6174
0.071696766,6175
0.3541209,6176
0.34570885,6177
0.21095106,6178
0.11559118,6179
0.118081145,6180
0.28476915,6181
0.25243536,6182
0.26491332,6183
0.29024035,6184
0.29970765,6185
0.29087514,6186
0.24235825,6187
0.19319049,6188
0.14014593,6189
0.12688404,6190
0.10470691,6191
0.095812134,6192
0.073460445,6193
0.17976049,6194
0.39988655,6195
0.35958457,6196
0.26770252,6197
0.2509724,6198
0.13080712,6199
0.077269524,6200
0.060629092,6201
0.04907621,6202
0.09570579,6203
0.30367476,6204
0.2937904,6205
0.2849844,6206
0.22932501,6207
0.17063966,6208
0.103729166,6209
0.09407359,6210
0.08253175,6211
0.07101679,6212
0.38054207,6213
0.33316782,6214
0.19031925,6215
0.11129206,6216
0.121328995,6217
0.275041,6218
0.23857208,6219
0.24206536,6220
0.24832822,6221
0.2879164,6222
0.30197784,6223
0.21265584,6224
0.16471465,6225
0.13467717,6226
0.14133179,6227
0.111698285,6228
0.09271588,6229
0.06771995,6230
0.2184657,6231
0.40749362,6232
0.3330023,6233
0.2759546,6234
0.26603046,6235
0.09908479,6236
0.07390924,6237
0.056269,6238
0.04154697,6239
0.1254349,6240
0.34857267,6241
0.2944449,6242
0.2938323,6243
0.24016918,6244
0.15239185,6245
0.11395295,6246
0.10662962,6247
0.08262234,6248
0.07724787,6249
0.3896189,6250
0.30697754,6251
0.17951822,6252
0.10343013,6253
0.14359382,6254
0.26837698,6255
0.24246186,6256
0.2693105,6257
0.2618346,6258
0.32792705,6259
0.2968654,6260
0.22123884,6261
0.16073732,6262
0.16899009,6263
0.39715818,6264
0.29164606,6265
0.17791979,6266
0.11350204,6267
0.19155611,6268
0.2543966,6269
0.27824906,6270
0.24464229,6271
0.25473255,6272
0.17276147,6273
0.14321543,6274
0.09530395,6275
0.06882569,6276
0.1401574,6277
0.2815049,6278
0.23734933,6279
0.17741823,6280
0.13542874,6281
0.114144705,6282
0.10776103,6283
0.09184383,6284
0.077028066,6285
0.09168939,6286
0.41434819,6287
0.31734332,6288
0.2578347,6289
0.23366983,6290
0.16676421,6291
0.09160038,6292
0.07298569,6293
0.064750955,6294
0.051110175,6295
0.367049,6296
0.3462376,6297
0.3016433,6298
0.2782949,6299
0.21756645,6300
0.11596258,6301
0.09663244,6302
0.07810291,6303
0.078728974,6304
0.31060228,6305
0.35964322,6306
0.2831124,6307
0.23592228,6308
0.23284744,6309
0.10018766,6310
0.08299091,6311
0.06435314,6312
0.053362843,6313
0.17539264,6314
0.32658392,6315
0.2747521,6316
0.26018256,6317
0.24149305,6318
0.14376804,6319
0.110496975,6320
0.09886482,6321
0.07515822,6322
0.11919054,6323
0.40369356,6324
0.2748922,6325
0.16965231,6326
0.10189906,6327
0.16052206,6328
0.22668576,6329
0.25068036,6330
0.2629627,6331
0.24836329,6332
0.31433612,6333
0.3023259,6334
0.21169838,6335
0.15691619,6336
0.13657565,6337
0.110085875,6338
0.08194057,6339
0.07170575,6340
0.06116535,6341
0.2933802,6342
0.32702416,6343
0.31618124,6344
0.2655273,6345
0.23552218,6346
0.09050686,6347
0.06721609,6348
0.051963568,6349
0.04023498,6350
0.20921487,6351
0.31060496,6352
0.25208715,6353
0.24017054,6354
0.22067659,6355
0.10936468,6356
0.101885654,6357
0.088267356,6358
0.07960171,6359
0.13906704,6360
0.3726926,6361
0.27395442,6362
0.16154146,6363
0.10010647,6364
0.15859808,6365
0.2591756,6366
0.23501536,6367
0.22939885,6368
0.22836836,6369
0.36952645,6370
0.26039827,6371
0.21975596,6372
0.15845978,6373
0.13567829,6374
0.11005309,6375
0.08012656,6376
0.074487485,6377
0.06924147,6378
0.33826235,6379
0.33252838,6380
0.2542737,6381
0.24131362,6382
0.2114519,6383
0.08942432,6384
0.057822764,6385
0.04930353,6386
0.03922472,6387
0.19898951,6388
0.29773954,6389
0.26897326,6390
0.2469192,6391
0.23498784,6392
0.11651073,6393
0.10021143,6394
0.092412844,6395
0.07728942,6396
0.18159117,6397
0.3912754,6398
0.2521932,6399
0.14795831,6400
0.1001107,6401
0.19874741,6402
0.25979775,6403
0.26841468,6404
0.2641296,6405
0.23025693,6406
0.33737522,6407
0.2776261,6408
0.2033275,6409
0.15380329,6410
0.13019682,6411
0.10908663,6412
0.080165476,6413
0.07446088,6414
0.0628112,6415
0.37438703,6416
0.31291834,6417
0.27416453,6418
0.2515952,6419
0.20091112,6420
0.10444334,6421
0.077368915,6422
0.06149935,6423
0.0551673,6424
0.23939842,6425
0.24459022,6426
0.20905083,6427
0.1695106,6428
0.14146067,6429
0.10671402,6430
0.1026212,6431
0.09577212,6432
0.0734966,6433
0.21323486,6434
0.35836467,6435
0.31766543,6436
0.27053827,6437
0.26584435,6438
0.14303142,6439
0.11283157,6440
0.09843353,6441
0.08567062,6442
0.14468643,6443
0.41673136,6444
0.33315033,6445
0.30081996,6446
0.25129643,6447
0.1764316,6448
0.11151317,6449
0.09693601,6450
0.089498736,6451
0.07339143,6452
0.43473798,6453
0.35563022,6454
0.29301214,6455
0.26751626,6456
0.2033325,6457
0.11370811,6458
0.078897156,6459
0.06251834,6460
0.0525868,6461
0.28926566,6462
0.3096568,6463
0.2835966,6464
0.23019068,6465
0.22003657,6466
0.11948252,6467
0.12033286,6468
0.10466518,6469
0.07475091,6470
0.25070235,6471
0.37046567,6472
0.24745908,6473
0.12918927,6474
0.0972267,6475
0.25594556,6476
0.32715547,6477
0.27855623,6478
0.29514155,6479
0.29293224,6480
0.33010012,6481
0.2547785,6482
0.19830446,6483
0.1482644,6484
0.12168308,6485
0.0873165,6486
0.078983754,6487
0.07246683,6488
0.08004853,6489
0.39620954,6490
0.33699358,6491
0.2853632,6492
0.28215018,6493
0.2037252,6494
0.09835233,6495
0.07876109,6496
0.055042777,6497
0.041148536,6498
0.29624665,6499
0.30420697,6500
0.27059183,6501
0.22842787,6502
0.20772575,6503
0.12751494,6504
0.10727432,6505
0.10237311,6506
0.08130009,6507
0.29390857,6508
0.33673832,6509
0.23160522,6510
0.13244455,6511
0.08910678,6512
0.24327514,6513
0.31081593,6514
0.29928938,6515
0.28025585,6516
0.31731626,6517
0.3434836,6518
0.25610772,6519
0.19511615,6520
0.15464813,6521
0.1238598,6522
0.09654002,6523
0.07675271,6524
0.07010396,6525
0.10885198,6526
0.40928343,6527
0.35960785,6528
0.29988676,6529
0.30941495,6530
0.20049216,6531
0.10669128,6532
0.07809243,6533
0.05176154,6534
0.043655705,6535
0.26142675,6536
0.28489447,6537
0.30031237,6538
0.21248716,6539
0.21115902,6540
0.11871533,6541
0.12260789,6542
0.09934231,6543
0.08674981,6544
0.33079457,6545
0.3225298,6546
0.21941699,6547
0.11650863,6548
0.08800633,6549
0.3445787,6550
0.3562495,6551
0.34268528,6552
0.30593002,6553
0.32744417,6554
0.31779924,6555
0.23926435,6556
0.18509644,6557
0.15055296,6558
0.3216971,6559
0.24888366,6560
0.14493717,6561
0.10842066,6562
0.12691253,6563
0.3359934,6564
0.3520931,6565
0.3522691,6566
0.35829994,6567
0.24097437,6568
0.18090284,6569
0.11467635,6570
0.069605015,6571
0.049811475,6572
0.32506093,6573
0.22560902,6574
0.19896063,6575
0.14244667,6576
0.13271001,6577
0.13528576,6578
0.14423794,6579
0.11376116,6580
0.09131945,6581
0.40077338,6582
0.35803762,6583
0.31142336,6584
0.2624108,6585
0.22462876,6586
0.22084345,6587
0.23126572,6588
0.21514755,6589
0.1512911,6590
0.26590157,6591
0.3665407,6592
0.31595716,6593
0.2831849,6594
0.26257995,6595
0.13032857,6596
0.09235831,6597
0.09826716,6598
0.0715756,6599
0.18835773,6600
0.43226302,6601
0.34089687,6602
0.31401646,6603
0.27343944,6604
0.14984892,6605
0.09419841,6606
0.07521438,6607
0.058789473,6608
0.079374865,6609
0.3559723,6610
0.27389973,6611
0.2763811,6612
0.21040225,6613
0.15339208,6614
0.10474829,6615
0.09672037,6616
0.09066723,6617
0.076349944,6618
0.38448513,6619
0.34003788,6620
0.19536312,6621
0.111258574,6622
0.12193715,6623
0.26598948,6624
0.25025496,6625
0.26031637,6626
0.26977757,6627
0.27684703,6628
0.29336867,6629
0.21161467,6630
0.17091511,6631
0.1367982,6632
0.093763135,6633
0.0811552,6634
0.07890371,6635
0.06474817,6636
0.1880876,6637
0.37298262,6638
0.33954173,6639
0.2871728,6640
0.24967158,6641
0.10192224,6642
0.07308589,6643
0.053806476,6644
0.043493733,6645
0.093904525,6646
0.33450213,6647
0.2668805,6648
0.24980257,6649
0.21362862,6650
0.15578488,6651
0.10954143,6652
0.0950545,6653
0.086239904,6654
0.07081305,6655
0.40684915,6656
0.30826142,6657
0.16853116,6658
0.10268588,6659
0.113499366,6660
0.22349021,6661
0.20329753,6662
0.21632212,6663
0.22460961,6664
0.2558532,6665
0.2958757,6666
0.21483462,6667
0.16676824,6668
0.13405253,6669
0.09853791,6670
0.08084125,6671
0.08052527,6672
0.0623519,6673
0.20161383,6674
0.3537244,6675
0.33123806,6676
0.25015852,6677
0.23736839,6678
0.09472894,6679
0.0679831,6680
0.049428158,6681
0.03688701,6682
0.13181518,6683
0.29716653,6684
0.25103784,6685
0.26825136,6686
0.22943203,6687
0.12974232,6688
0.10181677,6689
0.09775845,6690
0.08073773,6691
0.07265185,6692
0.4182164,6693
0.32845193,6694
0.17894307,6695
0.09806078,6696
0.14189765,6697
0.23555627,6698
0.22287752,6699
0.24495442,6700
0.22694571,6701
0.3238704,6702
0.30009332,6703
0.20096087,6704
0.16835657,6705
0.13740373,6706
0.09102736,6707
0.08231005,6708
0.08045292,6709
0.07009521,6710
0.27484545,6711
0.3382157,6712
0.32945165,6713
0.23828503,6714
0.21208262,6715
0.09790805,6716
0.08249252,6717
0.06848815,6718
0.05780965,6719
0.15305923,6720
0.24951248,6721
0.21208054,6722
0.1684372,6723
0.13613929,6724
0.115356416,6725
0.10677222,6726
0.09460741,6727
0.0793863,6728
0.09408031,6729
0.4002868,6730
0.3352326,6731
0.2728776,6732
0.24767576,6733
0.15209387,6734
0.096137166,6735
0.07554635,6736
0.058895316,6737
0.053646363,6738
0.3550882,6739
0.3142505,6740
0.32744882,6741
0.26456082,6742
0.22086665,6743
0.10405242,6744
0.097669564,6745
0.09128374,6746
0.079517305,6747
0.31391576,6748
0.35060164,6749
0.34826523,6750
0.2668181,6751
0.22446363,6752
0.10340318,6753
0.076687135,6754
0.06074003,6755
0.045804963,6756
0.18594916,6757
0.29861745,6758
0.26391754,6759
0.2748628,6760
0.23250319,6761
0.1311839,6762
0.1074976,6763
0.09513962,6764
0.07225279,6765
0.13357092,6766
0.41650483,6767
0.30602446,6768
0.15429911,6769
0.10558754,6770
0.15995757,6771
0.22635488,6772
0.23247632,6773
0.2543657,6774
0.24480323,6775
0.35045564,6776
0.26275268,6777
0.22816111,6778
0.16270818,6779
0.13649699,6780
0.09179604,6781
0.08717423,6782
0.0859495,6783
0.08036401,6784
0.29910406,6785
0.31840202,6786
0.3393149,6787
0.29163504,6788
0.22712424,6789
0.08805189,6790
0.067273505,6791
0.05302347,6792
0.039093975,6793
0.23070769,6794
0.35240912,6795
0.2909129,6796
0.24441771,6797
0.20584999,6798
0.116776675,6799
0.101607464,6800
0.09820921,6801
0.07349863,6802
0.16419023,6803
0.3822438,6804
0.25811076,6805
0.1551176,6806
0.09601574,6807
0.17038515,6808
0.20730679,6809
0.18982433,6810
0.21917224,6811
0.22781408,6812
0.34652412,6813
0.2694317,6814
0.21656892,6815
0.16675153,6816
0.13417147,6817
0.09338445,6818
0.0955622,6819
0.08404556,6820
0.07284322,6821
0.37620777,6822
0.34024835,6823
0.28013217,6824
0.21882182,6825
0.19497317,6826
0.08209656,6827
0.057768784,6828
0.045834817,6829
0.038245883,6830
0.19702968,6831
0.28814846,6832
0.262951,6833
0.26583162,6834
0.21950091,6835
0.11536282,6836
0.09920022,6837
0.09322068,6838
0.07319961,6839
0.19291832,6840
0.3886245,6841
0.27169952,6842
0.15442772,6843
0.10158045,6844
0.19122538,6845
0.2406827,6846
0.25478482,6847
0.23249733,6848
0.22959626,6849
0.3218927,6850
0.24317184,6851
0.20767784,6852
0.16406432,6853
0.24453796,6854
0.2663122,6855
0.24404734,6856
0.14795096,6857
0.10421322,6858
0.2334131,6859
0.24910761,6860
0.23412544,6861
0.2392478,6862
0.18649673,6863
0.19100219,6864
0.13330565,6865
0.09750787,6866
0.065974355,6867
0.23705894,6868
0.23919696,6869
0.18717827,6870
0.17421946,6871
0.13227011,6872
0.12072677,6873
0.10326837,6874
0.09833972,6875
0.07342274,6876
0.21990925,6877
0.33968338,6878
0.27658525,6879
0.2500948,6880
0.2544073,6881
0.11890473,6882
0.088504285,6883
0.0743013,6884
0.059149753,6885
0.12976232,6886
0.36213496,6887
0.3440733,6888
0.28517938,6889
0.2720525,6890
0.17550275,6891
0.11706239,6892
0.09326898,6893
0.09078018,6894
0.09515664,6895
0.41479322,6896
0.3485297,6897
0.3010092,6898
0.26667175,6899
0.18655224,6900
0.096819974,6901
0.070995115,6902
0.05659908,6903
0.049615577,6904
0.31360114,6905
0.31207934,6906
0.29830298,6907
0.26570842,6908
0.19321081,6909
0.102640666,6910
0.099333435,6911
0.09635292,6912
0.07100402,6913
0.27439976,6914
0.3422465,6915
0.24676315,6916
0.13091166,6917
0.10595015,6918
0.242131,6919
0.23334782,6920
0.2561717,6921
0.27838287,6922
0.26827702,6923
0.30361447,6924
0.2580067,6925
0.1935627,6926
0.15142311,6927
0.119714126,6928
0.10022691,6929
0.08893436,6930
0.08373439,6931
0.09850508,6932
0.38804242,6933
0.3363367,6934
0.29716235,6935
0.25675562,6936
0.15794317,6937
0.08356162,6938
0.057021584,6939
0.047115467,6940
0.04019617,6941
0.3007673,6942
0.2649788,6943
0.25837278,6944
0.24993502,6945
0.17181264,6946
0.10595882,6947
0.10144449,6948
0.08990864,6949
0.07089918,6950
0.2941156,6951
0.35526845,6952
0.24001512,6953
0.12917681,6954
0.08765637,6955
0.22467697,6956
0.23494421,6957
0.20114635,6958
0.23249133,6959
0.28221712,6960
0.30976996,6961
0.26358044,6962
0.19252732,6963
0.14759673,6964
0.121847354,6965
0.08894654,6966
0.079906404,6967
0.071473464,6968
0.12742886,6969
0.40251812,6970
0.30940285,6971
0.24357262,6972
0.2437332,6973
0.14589493,6974
0.083031066,6975
0.05890135,6976
0.044555146,6977
0.035520323,6978
0.2896732,6979
0.2955187,6980
0.24660578,6981
0.23490992,6982
0.16720705,6983
0.11111695,6984
0.10508127,6985
0.09068118,6986
0.067712635,6987
0.33269593,6988
0.34622073,6989
0.21861146,6990
0.121769786,6991
0.09413033,6992
0.23541602,6993
0.26591575,6994
0.2615912,6995
0.25347432,6996
0.29054317,6997
0.31711298,6998
0.2437903,6999
0.19183788,7000
0.14588463,7001
0.11140218,7002
0.077530704,7003
0.076676294,7004
0.063805915,7005
0.14869295,7006
0.39674976,7007
0.32188097,7008
0.28483516,7009
0.26858398,7010
0.14176144,7011
0.08795483,7012
0.06891961,7013
0.057609856,7014
0.059158303,7015
0.34020838,7016
0.23110513,7017
0.17847358,7018
0.14360902,7019
0.112730525,7020
0.10497067,7021
0.09704839,7022
0.08839344,7023
0.06926635,7024
0.35596892,7025
0.30933085,7026
0.2726073,7027
0.28549632,7028
0.20960227,7029
0.1410033,7030
0.13835448,7031
0.108670376,7032
0.10057387,7033
0.23394021,7034
0.34253052,7035
0.29027238,7036
0.26713058,7037
0.24785002,7038
0.11259061,7039
0.09045311,7040
0.087493524,7041
0.081560306,7042
0.17303847,7043
0.3685321,7044
0.33060408,7045
0.2842976,7046
0.27735057,7047
0.1464589,7048
0.09456007,7049
0.07067805,7050
0.06225672,7051
0.08763568,7052
0.3197211,7053
0.2842203,7054
0.2808184,7055
0.24696113,7056
0.14309117,7057
0.11290454,7058
0.10607615,7059
0.08773481,7060
0.07378996,7061
0.38840875,7062
0.33008885,7063
0.18268222,7064
0.1084248,7065
0.122326866,7066
0.25450546,7067
0.30332947,7068
0.28795803,7069
0.28103867,7070
0.34154776,7071
0.3130656,7072
0.24566278,7073
0.17326534,7074
0.14376877,7075
0.11146653,7076
0.08443452,7077
0.08629775,7078
0.06979397,7079
0.2176328,7080
0.41205895,7081
0.32419544,7082
0.2668772,7083
0.28426683,7084
0.14005408,7085
0.089340046,7086
0.06743256,7087
0.049889423,7088
0.10275097,7089
0.28466693,7090
0.2404025,7091
0.27417997,7092
0.24658747,7093
0.1546871,7094
0.11912343,7095
0.109875195,7096
0.08785509,7097
0.08012025,7098
0.40243888,7099
0.32306165,7100
0.1769176,7101
0.10498006,7102
0.13014719,7103
0.2881331,7104
0.28617528,7105
0.31002504,7106
0.3198242,7107
0.3257613,7108
0.29333198,7109
0.21017355,7110
0.17353335,7111
0.13904981,7112
0.10055591,7113
0.09331799,7114
0.08841996,7115
0.06463681,7116
0.2628282,7117
0.42641664,7118
0.432039,7119
0.41125944,7120
0.33796233,7121
0.17070687,7122
0.12083537,7123
0.077828035,7124
0.06027492,7125
0.14294258,7126
0.30522674,7127
0.2653333,7128
0.25581083,7129
0.24484713,7130
0.13630317,7131
0.13469616,7132
0.13798088,7133
0.10881096,7134
0.109490156,7135
0.40060982,7136
0.3143743,7137
0.17098542,7138
0.10335654,7139
0.17423123,7140
0.32459188,7141
0.3234586,7142
0.2827025,7143
0.25567913,7144
0.2862805,7145
0.27569872,7146
0.21860398,7147
0.16080396,7148
0.18466131,7149
0.30585197,7150
0.22957484,7151
0.17004338,7152
0.10138367,7153
0.18465593,7154
0.2334853,7155
0.24979383,7156
0.2597291,7157
0.23097982,7158
0.17377886,7159
0.1411925,7160
0.09200571,7161
0.05877496,7162
0.2179745,7163
0.37154815,7164
0.39180806,7165
0.35584632,7166
0.3507715,7167
0.36676398,7168
0.33949277,7169
0.35311222,7170
0.3096227,7171
0.34813067,7172
0.46857083,7173
0.39187002,7174
0.37255317,7175
0.36118126,7176
0.2474285,7177
0.2355861,7178
0.2091544,7179
0.19164735,7180
0.167558,7181
0.36846223,7182
0.3158372,7183
0.3135259,7184
0.30426753,7185
0.26157302,7186
0.18683241,7187
0.16396026,7188
0.1312209,7189
0.11240181,7190
0.33826378,7191
0.3847376,7192
0.33439732,7193
0.27785015,7194
0.24948446,7195
0.11691959,7196
0.09608008,7197
0.08005569,7198
0.06754368,7199
0.18645343,7200
0.30656192,7201
0.26521432,7202
0.2623565,7203
0.25878167,7204
0.13101934,7205
0.10347309,7206
0.09982452,7207
0.07655163,7208
0.14784968,7209
0.37169617,7210
0.27822554,7211
0.15125686,7212
0.09805058,7213
0.18867153,7214
0.24465795,7215
0.24336712,7216
0.27392703,7217
0.24476749,7218
0.28851345,7219
0.25442034,7220
0.20313622,7221
0.14850184,7222
0.13387898,7223
0.12508659,7224
0.10239579,7225
0.08403601,7226
0.0603964,7227
0.30418813,7228
0.33521524,7229
0.32432476,7230
0.298473,7231
0.24513125,7232
0.09357756,7233
0.06751653,7234
0.047283527,7235
0.03802702,7236
0.22866492,7237
0.30068338,7238
0.2749397,7239
0.23688827,7240
0.25060746,7241
0.13360383,7242
0.10284789,7243
0.10008756,7244
0.08383932,7245
0.1786663,7246
0.38605106,7247
0.27284586,7248
0.14573875,7249
0.099879235,7250
0.18032621,7251
0.24408345,7252
0.25854564,7253
0.2472622,7254
0.23438385,7255
0.3543031,7256
0.25740504,7257
0.22178629,7258
0.15733796,7259
0.13359112,7260
0.12482427,7261
0.107965894,7262
0.08643049,7263
0.07062497,7264
0.36305264,7265
0.3764843,7266
0.2787149,7267
0.25843862,7268
0.19804652,7269
0.09443659,7270
0.0704297,7271
0.05475634,7272
0.04388218,7273
0.26067415,7274
0.3212488,7275
0.24638122,7276
0.24372679,7277
0.25707585,7278
0.12506425,7279
0.10517231,7280
0.09858775,7281
0.077961095,7282
0.20776439,7283
0.34946862,7284
0.250726,7285
0.13970032,7286
0.09419511,7287
0.21351738,7288
0.26683396,7289
0.28932434,7290
0.26940602,7291
0.26711005,7292
0.33579,7293
0.25739115,7294
0.19945817,7295
0.14657785,7296
0.12558337,7297
0.12009056,7298
0.11162288,7299
0.08706342,7300
0.06606763,7301
0.33790034,7302
0.3395425,7303
0.3071786,7304
0.2789246,7305
0.19557536,7306
0.10094268,7307
0.08505018,7308
0.067069754,7309
0.05271384,7310
0.26322636,7311
0.24868253,7312
0.18884394,7313
0.15777504,7314
0.13243614,7315
0.1116011,7316
0.1029897,7317
0.09142215,7318
0.07000537,7319
0.22546059,7320
0.39034677,7321
0.33332136,7322
0.2522653,7323
0.260445,7324
0.09395709,7325
0.08101889,7326
0.066493094,7327
0.05188083,7328
0.16025713,7329
0.3972133,7330
0.3402251,7331
0.32736927,7332
0.27550295,7333
0.17273226,7334
0.124261275,7335
0.11581439,7336
0.08747978,7337
0.08881669,7338
0.39323646,7339
0.34490424,7340
0.29878598,7341
0.2675881,7342
0.19408771,7343
0.09732975,7344
0.07944038,7345
0.05937388,7346
0.049713377,7347
0.29525045,7348
0.3065735,7349
0.25218287,7350
0.23909073,7351
0.20991597,7352
0.11551202,7353
0.094247155,7354
0.090661086,7355
0.068134956,7356
0.2708492,7357
0.33731863,7358
0.2370982,7359
0.13455938,7360
0.092589535,7361
0.2587549,7362
0.21721193,7363
0.25083,7364
0.27030015,7365
0.2836811,7366
0.2863121,7367
0.2480858,7368
0.19472615,7369
0.15303779,7370
0.121514745,7371
0.10538641,7372
0.09807593,7373
0.075224824,7374
0.10784933,7375
0.36162096,7376
0.32863945,7377
0.30494696,7378
0.2767709,7379
0.17221205,7380
0.08424086,7381
0.066873066,7382
0.053726915,7383
0.038798124,7384
0.325044,7385
0.34306294,7386
0.3081192,7387
0.25308672,7388
0.21218362,7389
0.11029976,7390
0.09211412,7391
0.090418294,7392
0.07047567,7393
0.29359207,7394
0.31363866,7395
0.2354067,7396
0.12733148,7397
0.091316335,7398
0.24637587,7399
0.22377181,7400
0.23990159,7401
0.24447761,7402
0.2839506,7403
0.29955828,7404
0.2194085,7405
0.18557365,7406
0.13859682,7407
0.13860266,7408
0.119467,7409
0.10859778,7410
0.0920182,7411
0.13689435,7412
0.36023796,7413
0.32341075,7414
0.27866146,7415
0.27323774,7416
0.14869311,7417
0.08549811,7418
0.0676306,7419
0.05452869,7420
0.04715594,7421
0.347868,7422
0.28408667,7423
0.26490125,7424
0.24108633,7425
0.20464745,7426
0.10151675,7427
0.10421614,7428
0.08425431,7429
0.073443316,7430
0.31227764,7431
0.3262109,7432
0.20737737,7433
0.123818554,7434
0.099191256,7435
0.24598902,7436
0.24142365,7437
0.25195047,7438
0.2514295,7439
0.3202974,7440
0.28344142,7441
0.23718312,7442
0.1795776,7443
0.1391719,7444
0.3623721,7445
0.31130838,7446
0.1800613,7447
0.124364376,7448
0.14294443,7449
0.27200145,7450
0.24965823,7451
0.25362402,7452
0.26440072,7453
0.19869024,7454
0.16502884,7455
0.10504365,7456
0.08018308,7457
0.0807752,7458
0.29851896,7459
0.24304362,7460
0.20740207,7461
0.14787091,7462
0.13148578,7463
0.1039762,7464
0.096367545,7465
0.08404953,7466
0.06407015,7467
0.35621738,7468
0.33020487,7469
0.27571458,7470
0.26072195,7471
0.2047154,7472
0.09433603,7473
0.075992964,7474
0.06126476,7475
0.053361464,7476
0.27677742,7477
0.37005487,7478
0.2910051,7479
0.3085295,7480
0.22002327,7481
0.13176297,7482
0.09746818,7483
0.082102634,7484
0.076196454,7485
0.17613183,7486
0.3688153,7487
0.27222514,7488
0.27743998,7489
0.25817627,7490
0.12781782,7491
0.096547276,7492
0.06508082,7493
0.059857663,7494
0.10224755,7495
0.28535855,7496
0.25819516,7497
0.23036833,7498
0.24231789,7499
0.1643325,7500
0.10568489,7501
0.09325785,7502
0.081475765,7503
0.07073309,7504
0.36066782,7505
0.28934017,7506
0.18251428,7507
0.10685173,7508
0.13524748,7509
0.23638931,7510
0.24002343,7511
0.24936247,7512
0.25663477,7513
0.28741407,7514
0.28970173,7515
0.2351018,7516
0.165399,7517
0.1393715,7518
0.11543754,7519
0.08963549,7520
0.082883425,7521
0.06562561,7522
0.21331216,7523
0.36291936,7524
0.29525426,7525
0.25754264,7526
0.25361586,7527
0.09574746,7528
0.07511998,7529
0.061370507,7530
0.049286805,7531
0.11965926,7532
0.30008975,7533
0.25422686,7534
0.2650155,7535
0.24284533,7536
0.15116209,7537
0.10706291,7538
0.10110569,7539
0.07914076,7540
0.075250275,7541
0.37104568,7542
0.28399444,7543
0.16888498,7544
0.10644446,7545
0.1244899,7546
0.21932377,7547
0.23023674,7548
0.22661139,7549
0.24025294,7550
0.30596668,7551
0.27129105,7552
0.2301622,7553
0.17878237,7554
0.14179398,7555
0.101982005,7556
0.08706247,7557
0.0796176,7558
0.07136366,7559
0.23249666,7560
0.30634534,7561
0.2679886,7562
0.2367889,7563
0.24238387,7564
0.09530921,7565
0.07211999,7566
0.05397637,7567
0.0415344,7568
0.14616425,7569
0.28963283,7570
0.24856496,7571
0.27328262,7572
0.23132958,7573
0.12973167,7574
0.093559824,7575
0.096303806,7576
0.076032855,7577
0.09203337,7578
0.39542517,7579
0.29872602,7580
0.1647657,7581
0.10468615,7582
0.13961811,7583
0.227974,7584
0.24037792,7585
0.23056021,7586
0.22754307,7587
0.2786972,7588
0.2752629,7589
0.21378422,7590
0.16253781,7591
0.13169038,7592
0.106486104,7593
0.08067859,7594
0.072668016,7595
0.065941945,7596
0.27448645,7597
0.3231611,7598
0.32574472,7599
0.27548915,7600
0.24818173,7601
0.10420536,7602
0.09027974,7603
0.0716817,7604
0.060140166,7605
0.1821721,7606
0.26120767,7607
0.22282301,7608
0.17358097,7609
0.1307422,7610
0.1123602,7611
0.102560714,7612
0.098735005,7613
0.08311028,7614
0.12520172,7615
0.39950302,7616
0.33899286,7617
0.2816723,7618
0.25294682,7619
0.15946257,7620
0.11205151,7621
0.102703504,7622
0.08634323,7623
0.0845179,7624
0.36029455,7625
0.32588452,7626
0.29224828,7627
0.25876564,7628
0.21317463,7629
0.12460742,7630
0.089595854,7631
0.083778925,7632
0.07071232,7633
0.34658772,7634
0.3246073,7635
0.2977634,7636
0.2675788,7637
0.24359596,7638
0.10555359,7639
0.08888997,7640
0.063066535,7641
0.05634188,7642
0.21619931,7643
0.26870066,7644
0.2813978,7645
0.25661623,7646
0.23536688,7647
0.12227932,7648
0.10914562,7649
0.09956494,7650
0.08786995,7651
0.15705293,7652
0.40121078,7653
0.26848188,7654
0.1560374,7655
0.10373164,7656
0.19304092,7657
0.28550774,7658
0.26490244,7659
0.2754383,7660
0.26301634,7661
0.3551513,7662
0.27622232,7663
0.21720862,7664
0.16470744,7665
0.13864623,7666
0.09559907,7667
0.078219555,7668
0.0713328,7669
0.064697966,7670
0.3662206,7671
0.3589297,7672
0.30160058,7673
0.27041873,7674
0.23150927,7675
0.12572688,7676
0.10220782,7677
0.08217625,7678
0.053330332,7679
0.25341848,7680
0.28032893,7681
0.2771233,7682
0.24684843,7683
0.21097243,7684
0.12679893,7685
0.12305039,7686
0.10753949,7687
0.08836699,7688
0.19851413,7689
0.39845666,7690
0.27040294,7691
0.15014447,7692
0.09845697,7693
0.20825198,7694
0.2911064,7695
0.29347786,7696
0.26803192,7697
0.2711414,7698
0.32962152,7699
0.27450132,7700
0.21809608,7701
0.15548694,7702
0.13878685,7703
0.1138158,7704
0.07950804,7705
0.06874447,7706
0.0561856,7707
0.42843628,7708
0.3509419,7709
0.33468404,7710
0.31104106,7711
0.24877478,7712
0.118982665,7713
0.08551332,7714
0.0563663,7715
0.045100886,7716
0.2048908,7717
0.30416605,7718
0.2701083,7719
0.23322839,7720
0.23282366,7721
0.11499307,7722
0.12791596,7723
0.11051921,7724
0.0874063,7725
0.21241932,7726
0.35272717,7727
0.24117348,7728
0.13254797,7729
0.08884931,7730
0.28328732,7731
0.35003644,7732
0.32154992,7733
0.3012463,7734
0.31750563,7735
0.30022296,7736
0.26412818,7737
0.2096201,7738
0.15872267,7739
0.2676507,7740
0.29118776,7741
0.18056723,7742
0.11878664,7743
0.08884739,7744
0.33639842,7745
0.3236752,7746
0.33288887,7747
0.30906698,7748
0.277249,7749
0.20340873,7750
0.12681998,7751
0.08258438,7752
0.06096584,7753
0.22763553,7754
0.25915608,7755
0.18204877,7756
0.14615375,7757
0.12699842,7758
0.1358538,7759
0.14011392,7760
0.12358464,7761
0.09524662,7762
0.25805566,7763
0.3951795,7764
0.3463859,7765
0.2627698,7766
0.25378835,7767
0.20892617,7768
0.21351,7769
0.19339143,7770
0.17599118,7771
0.23421715,7772
0.40119988,7773
0.29919124,7774
0.31013793,7775
0.26915354,7776
0.1508488,7777
0.08871929,7778
0.090312704,7779
0.07723079,7780
0.0906307,7781
0.46241656,7782
0.3536473,7783
0.3193242,7784
0.2715201,7785
0.18721016,7786
0.10338579,7787
0.07891843,7788
0.061463807,7789
0.050606538,7790
0.30701175,7791
0.29696622,7792
0.29775786,7793
0.2718544,7794
0.1848501,7795
0.115964845,7796
0.107978396,7797
0.09527336,7798
0.08049886,7799
0.29111812,7800
0.34931287,7801
0.25633293,7802
0.121570155,7803
0.090228155,7804
0.25439924,7805
0.21419768,7806
0.2295983,7807
0.26183155,7808
0.27723864,7809
0.2940381,7810
0.23219223,7811
0.18750525,7812
0.15340194,7813
0.11631863,7814
0.07889092,7815
0.085061006,7816
0.063758366,7817
0.1115612,7818
0.3677944,7819
0.35103106,7820
0.26662615,7821
0.24157843,7822
0.15513399,7823
0.08506141,7824
0.066073835,7825
0.052069135,7826
0.037545796,7827
0.32572073,7828
0.26826185,7829
0.29638103,7830
0.21672682,7831
0.18534069,7832
0.102685675,7833
0.09295069,7834
0.08008374,7835
0.07121174,7836
0.32641026,7837
0.35759035,7838
0.22286329,7839
0.114664465,7840
0.0895817,7841
0.21403843,7842
0.18436955,7843
0.20784467,7844
0.20631287,7845
0.27822915,7846
0.3043151,7847
0.22531663,7848
0.18459141,7849
0.14238466,7850
0.11044727,7851
0.081676446,7852
0.08862562,7853
0.0630413,7854
0.13413705,7855
0.38812748,7856
0.34799618,7857
0.2577789,7858
0.2262203,7859
0.1341,7860
0.075921096,7861
0.054894686,7862
0.038644534,7863
0.03541779,7864
0.3230889,7865
0.2635705,7866
0.26196936,7867
0.2311448,7868
0.16390027,7869
0.10648501,7870
0.096097305,7871
0.08229558,7872
0.0692432,7873
0.35599035,7874
0.32333043,7875
0.21971723,7876
0.11369375,7877
0.09559629,7878
0.21112359,7879
0.22161502,7880
0.24998322,7881
0.2356626,7882
0.27691367,7883
0.3069759,7884
0.23274602,7885
0.17818972,7886
0.15012011,7887
0.112853885,7888
0.077878535,7889
0.08888216,7890
0.07232954,7891
0.17664987,7892
0.40223792,7893
0.34334016,7894
0.2852045,7895
0.26303753,7896
0.12759997,7897
0.09792625,7898
0.07390898,7899
0.05493248,7900
0.091148496,7901
0.29753926,7902
0.22009139,7903
0.18712409,7904
0.1544637,7905
0.12613858,7906
0.10664763,7907
0.0964379,7908
0.08449163,7909
0.06992889,7910
0.3465647,7911
0.33034736,7912
0.27691126,7913
0.2398931,7914
0.18923168,7915
0.096748486,7916
0.081358984,7917
0.059447646,7918
0.05149759,7919
0.2448743,7920
0.36463007,7921
0.27775165,7922
0.2531821,7923
0.21855858,7924
0.11296746,7925
0.09575067,7926
0.10086054,7927
0.07887535,7928
0.21456644,7929
0.38490963,7930
0.3301059,7931
0.2699612,7932
0.27097338,7933
0.11184042,7934
0.086975455,7935
0.06544869,7936
0.05874682,7937
0.11284121,7938
0.37233952,7939
0.27372697,7940
0.27303118,7941
0.2553244,7942
0.15433213,7943
0.1050532,7944
0.099676415,7945
0.0870048,7946
0.066364,7947
0.40800864,7948
0.32890537,7949
0.18588674,7950
0.114568725,7951
0.13395306,7952
0.24228552,7953
0.220769,7954
0.23852749,7955
0.2550577,7956
0.28955716,7957
0.3161418,7958
0.22877663,7959
0.1769489,7960
0.13966657,7961
0.09839768,7962
0.08232385,7963
0.08876054,7964
0.073935814,7965
0.26010343,7966
0.3570211,7967
0.33264735,7968
0.24122864,7969
0.23737457,7970
0.10741842,7971
0.083178304,7972
0.07151635,7973
0.044486314,7974
0.14606443,7975
0.359711,7976
0.2964535,7977
0.28101498,7978
0.20912415,7979
0.14544806,7980
0.10246223,7981
0.10156178,7982
0.08159821,7983
0.079169,7984
0.41473824,7985
0.32223392,7986
0.17342035,7987
0.104203895,7988
0.13049868,7989
0.21598734,7990
0.21753937,7991
0.22009066,7992
0.23155496,7993
0.3160809,7994
0.27857384,7995
0.21270952,7996
0.17277801,7997
0.13608983,7998
0.10461669,7999
0.089847684,8000
0.08994966,8001
0.08017728,8002
0.29475197,8003
0.34362856,8004
0.2990158,8005
0.25420815,8006
0.22943592,8007
0.088510506,8008
0.061326917,8009
0.046481498,8010
0.037299957,8011
0.1742089,8012
0.3460087,8013
0.26213634,8014
0.29079244,8015
0.22474466,8016
0.12620005,8017
0.1040015,8018
0.094561614,8019
0.082122125,8020
0.10871239,8021
0.40124682,8022
0.30093515,8023
0.16911718,8024
0.1055602,8025
0.15983045,8026
0.23636705,8027
0.21777007,8028
0.2040111,8029
0.20635118,8030
0.32374638,8031
0.2616368,8032
0.2179485,8033
0.1684073,8034
0.19791438,8035
0.29754165,8036
0.21368918,8037
0.1569565,8038
0.11939808,8039
0.22598377,8040
0.23337938,8041
0.25616753,8042
0.2438073,8043
0.22540452,8044
0.18656453,8045
0.14528161,8046
0.108972676,8047
0.07463994,8048
0.19605075,8049
0.24994843,8050
0.21201295,8051
0.17492113,8052
0.1415536,8053
0.10929778,8054
0.101968184,8055
0.09627345,8056
0.07835547,8057
0.14319037,8058
0.4060441,8059
0.3124455,8060
0.2960369,8061
0.25694588,8062
0.17414346,8063
0.09936612,8064
0.08078378,8065
0.061640255,8066
0.052542545,8067
0.37735066,8068
0.32253057,8069
0.28586948,8070
0.26267937,8071
0.20016515,8072
0.12643337,8073
0.112722926,8074
0.112009525,8075
0.091606624,8076
0.3255942,8077
0.35983717,8078
0.32427594,8079
0.24902165,8080
0.20202222,8081
0.1078833,8082
0.08737964,8083
0.070982024,8084
0.05233445,8085
0.21979457,8086
0.28020582,8087
0.26116425,8088
0.26176956,8089
0.22918439,8090
0.12762944,8091
0.10598962,8092
0.10638195,8093
0.08296023,8094
0.16700318,8095
0.42319947,8096
0.28861228,8097
0.16197294,8098
0.12512939,8099
0.18289848,8100
0.25590527,8101
0.2858362,8102
0.2777677,8103
0.2413632,8104
0.30944318,8105
0.25217387,8106
0.21827638,8107
0.16451572,8108
0.14578211,8109
0.09883478,8110
0.08723417,8111
0.08834133,8112
0.087916,8113
0.3512052,8114
0.36420056,8115
0.28489277,8116
0.26971453,8117
0.21717787,8118
0.08905194,8119
0.06715465,8120
0.05373976,8121
0.04135378,8122
0.23849632,8123
0.28108215,8124
0.23444752,8125
0.2569666,8126
0.20348991,8127
0.119575776,8128
0.104273744,8129
0.097137935,8130
0.08199402,8131
0.19873546,8132
0.39341295,8133
0.26261482,8134
0.14773995,8135
0.11536163,8136
0.18272461,8137
0.20686981,8138
0.20337842,8139
0.24151689,8140
0.2421854,8141
0.26689076,8142
0.26028952,8143
0.20278767,8144
0.1625827,8145
0.1432522,8146
0.09079832,8147
0.08359589,8148
0.08567563,8149
0.07233959,8150
0.37844002,8151
0.32192463,8152
0.26243404,8153
0.24830908,8154
0.19191244,8155
0.099474564,8156
0.06595677,8157
0.05545815,8158
0.038077693,8159
0.26207146,8160
0.31047058,8161
0.25050795,8162
0.2680656,8163
0.21121897,8164
0.112593345,8165
0.098767765,8166
0.10148237,8167
0.07219384,8168
0.21320005,8169
0.37426484,8170
0.26129752,8171
0.14252204,8172
0.11345685,8173
0.2193238,8174
0.21975027,8175
0.22583082,8176
0.24332762,8177
0.263053,8178
0.26961687,8179
0.25817263,8180
0.21448006,8181
0.16424322,8182
0.13539276,8183
0.09876849,8184
0.08685598,8185
0.08059199,8186
0.08599552,8187
0.39203176,8188
0.32060835,8189
0.31786162,8190
0.2729202,8191
0.193378,8192
0.11224094,8193
0.08479943,8194
0.06898535,8195
0.061463233,8196
0.28771412,8197
0.25056487,8198
0.2013668,8199
0.16591263,8200
0.1446575,8201
0.11415239,8202
0.10779782,8203
0.09883797,8204
0.08336432,8205
0.26675302,8206
0.3369481,8207
0.27706727,8208
0.25945258,8209
0.25587475,8210
0.1498299,8211
0.14689215,8212
0.122107595,8213
0.10418157,8214
0.17989638,8215
0.38810325,8216
0.32133356,8217
0.31875154,8218
0.26117852,8219
0.14960597,8220
0.11096503,8221
0.093547754,8222
0.08045302,8223
0.10162783,8224
0.415029,8225
0.34254003,8226
0.27815604,8227
0.28155425,8228
0.20002262,8229
0.1135813,8230
0.09311168,8231
0.08130714,8232
0.059355244,8233
0.32086077,8234
0.28500277,8235
0.25765544,8236
0.26336488,8237
0.191212,8238
0.13444147,8239
0.13401683,8240
0.117018044,8241
0.09178313,8242
0.31317905,8243
0.35592234,8244
0.25959697,8245
0.16513547,8246
0.15276347,8247
0.2664065,8248
0.29865336,8249
0.291929,8250
0.27933702,8251
0.28278294,8252
0.3126718,8253
0.2912051,8254
0.2292618,8255
0.2243416,8256
0.19343933,8257
0.1669203,8258
0.17691074,8259
0.19372992,8260
0.27173302,8261
0.4433762,8262
0.409427,8263
0.40024236,8264
0.40643433,8265
0.35677436,8266
0.37346706,8267
0.36314344,8268
0.38983604,8269
0.38468087,8270
0.4576416,8271
0.4392791,8272
0.33919555,8273
0.3301948,8274
0.18183045,8275
0.14833365,8276
0.16620176,8277
0.15715215,8278
0.14875188,8279
0.35593915,8280
0.3506884,8281
0.27445933,8282
0.18923137,8283
0.20167804,8284
0.3551919,8285
0.28452778,8286
0.29178435,8287
0.2623429,8288
0.27248856,8289
0.27621165,8290
0.27278987,8291
0.21377711,8292
0.17289503,8293
0.19157824,8294
0.16901504,8295
0.15119441,8296
0.14179774,8297
0.20963526,8298
0.48423544,8299
0.38942617,8300
0.34196955,8301
0.3104808,8302
0.19635423,8303
0.1550755,8304
0.14659649,8305
0.14118518,8306
0.14099577,8307
0.30424315,8308
0.26282948,8309
0.2484989,8310
0.26019603,8311
0.18993492,8312
0.17979814,8313
0.17797309,8314
0.1828492,8315
0.16518742,8316
0.3978049,8317
0.37340936,8318
0.2423731,8319
0.16656001,8320
0.20963225,8321
0.3021591,8322
0.24477816,8323
0.28297958,8324
0.26870623,8325
0.23936015,8326
0.2788763,8327
0.2665877,8328
0.20985457,8329
0.2076755,8330
0.43650517,8331
0.34601027,8332
0.23213892,8333
0.19065405,8334
0.22236082,8335
0.27240562,8336
0.2476683,8337
0.24562187,8338
0.23861265,8339
0.16720267,8340
0.14830244,8341
0.16613646,8342
0.1648779,8343
0.16866975,8344
0.32073396,8345
0.43451053,8346
0.40858382,8347
0.38323897,8348
0.36521035,8349
0.41668922,8350
0.38175467,8351
0.3232119,8352
0.30351007,8353
0.3048639,8354
0.2740156,8355
0.30650395,8356
0.22940658,8357
0.22481564,8358
0.2243571,8359
0.20350741,8360
0.20065548,8361
0.18357404,8362
0.18659635,8363
0.17300853,8364
0.1574184,8365
0.14280748,8366
0.13373743,8367
0.13914734,8368
0.12842639,8369
0.11151811,8370
0.107745364,8371
0.09281664,8372
0.10731211,8373
0.092906125,8374
0.0788849,8375
0.06975028,8376
0.07083057,8377
0.069268286,8378
0.061056044,8379
0.052941766,8380
0.046988294,8381
0.05152115,8382
0.044218738,8383
0.040291287,8384
0.035368726,8385
0.041629735,8386
0.052701086,8387
0.048984412,8388
0.037356623,8389
0.027562998,8390
0.040929213,8391
0.07078839,8392
0.04170397,8393
0.030400462,8394
0.028454065,8395
0.034945816,8396
0.0316931,8397
0.027992101,8398
0.023056095,8399
0.024264941,8400
0.032467127,8401
0.024684832,8402
0.01970088,8403
0.01921206,8404
0.02908095,8405
0.030409692,8406
0.024208935,8407
0.017896635,8408
0.02074018,8409
0.067845225,8410
0.046728157,8411
0.02763053,8412
0.025877334,8413
0.025311071,8414
0.025794163,8415
0.022162192,8416
0.018406613,8417
0.01822582,8418
0.027836084,8419
0.025673853,8420
0.018714283,8421
0.015372767,8422
0.018849764,8423
0.030162817,8424
0.025552403,8425
0.018925237,8426
0.014911694,8427
0.043562036,8428
0.066904195,8429
0.031509146,8430
0.02364921,8431
0.021575516,8432
0.024624195,8433
0.026416715,8434
0.01924788,8435
0.015600762,8436
0.026541734,8437
0.03202783,8438
0.020789413,8439
0.023199005,8440
0.01815791,8441
0.027648278,8442
0.030454766,8443
0.023048088,8444
0.014975014,8445
0.022951467,8446
0.07680461,8447
0.04407841,8448
0.02762988,8449
0.022999864,8450
0.021513194,8451
0.027395949,8452
0.024362126,8453
0.017817939,8454
0.017550506,8455
0.03506237,8456
0.02438582,8457
0.018044377,8458
0.01850321,8459
0.02171178,8460
0.030478481,8461
0.026958672,8462
0.016298123,8463
0.014053849,8464
0.057966873,8465
0.0681746,8466
0.03161207,8467
0.02719585,8468
0.022155814,8469
0.024946017,8470
0.02441326,8471
0.018299868,8472
0.014268304,8473
0.026381977,8474
0.03658661,8475
0.023279194,8476
0.01966696,8477
0.016456958,8478
0.030651495,8479
0.032126814,8480
0.025128163,8481
0.018299036,8482
0.025144624,8483
0.09178147,8484
0.047991414,8485
0.029994113,8486
0.022910971,8487
0.029968265,8488
0.032005746,8489
0.028091673,8490
0.018313173,8491
0.021414528,8492
0.03918371,8493
0.031671442,8494
0.024112327,8495
0.019791361,8496
0.031276338,8497
0.041260783,8498
0.042918406,8499
0.029985245,8500
0.020164974,8501
0.063221425,8502
0.0588834,8503
0.03243127,8504
0.026290068,8505
0.03147602,8506
0.041341417,8507
0.040024582,8508
0.031693686,8509
0.021155072,8510
0.03288249,8511
0.04259635,8512
0.02736099,8513
0.021096205,8514
0.022506833,8515
0.04700899,8516
0.042389844,8517
0.03326069,8518
0.020398906,8519
0.031986896,8520
0.08240768,8521
0.044620138,8522
0.030487603,8523
0.02530045,8524
0.037998613,8525
0.03483424,8526
0.033799972,8527
0.021022897,8528
0.019771652,8529
0.040415596,8530
0.0268481,8531
0.020124506,8532
0.015144309,8533
0.03352086,8534
0.04143402,8535
0.0376031,8536
0.025235225,8537
0.01867657,8538
0.07047796,8539
0.059246782,8540
0.030907331,8541
0.024988731,8542
0.027220542,8543
0.02823844,8544
0.024661964,8545
0.018583493,8546
0.014864935,8547
0.039681382,8548
0.046478156,8549
0.030356256,8550
0.017557045,8551
0.018298494,8552
0.028265929,8553
0.02424346,8554
0.018920423,8555
0.014697508,8556
0.037198674,8557
0.09303566,8558
0.04236216,8559
0.028644102,8560
0.027100192,8561
0.034720004,8562
0.032941498,8563
0.026674254,8564
0.016861785,8565
0.018448085,8566
0.041930217,8567
0.024910301,8568
0.017925471,8569
0.016338423,8570
0.024904298,8571
0.03246613,8572
0.024401542,8573
0.01685915,8574
0.017797604,8575
0.09527596,8576
0.07227275,8577
0.03277594,8578
0.023128787,8579
0.025640775,8580
0.0308179,8581
0.025158389,8582
0.01955341,8583
0.015345657,8584
0.03840442,8585
0.038651,8586
0.022417309,8587
0.016541557,8588
0.020335732,8589
0.03761738,8590
0.028929468,8591
0.01873628,8592
0.013325395,8593
0.04607085,8594
0.115220256,8595
0.045693547,8596
0.026726011,8597
0.020327741,8598
0.031939436,8599
0.02709542,8600
0.021543823,8601
0.015606856,8602
0.021133216,8603
0.04895596,8604
0.025255194,8605
0.018526236,8606
0.015656762,8607
0.029756894,8608
0.03469251,8609
0.02307144,8610
0.015053996,8611
0.019240787,8612
0.11887962,8613
0.06859586,8614
0.03179867,8615
0.02305328,8616
0.030667175,8617
0.032864805,8618
0.025840325,8619
0.020212928,8620
0.01712302,8621
0.04575913,8622
0.0397227,8623
0.022211922,8624
0.016937235,8625
0.024465578,8626
0.04791951,8627
0.03523839,8628
0.023287777,8629
0.01610862,8630
0.061694164,8631
0.12941058,8632
0.055671364,8633
0.031049754,8634
0.029820828,8635
0.045828838,8636
0.040875625,8637
0.033223085,8638
0.021217464,8639
0.03020951,8640
0.054453857,8641
0.029273054,8642
0.021271357,8643
0.018742323,8644
0.044549942,8645
0.051545974,8646
0.03403293,8647
0.023785776,8648
0.031414144,8649
0.17507076,8650
0.10098719,8651
0.0561729,8652
0.043921217,8653
0.044529665,8654
0.04776661,8655
0.039163224,8656
0.030257545,8657
0.021956671,8658
0.055301663,8659
0.03835707,8660
0.025748419,8661
0.018482743,8662
0.0311286,8663
0.055708412,8664
0.035817437,8665
0.023190357,8666
0.017708166,8667
0.101710595,8668
0.16159423,8669
0.070883326,8670
0.05217576,8671
0.03826879,8672
0.0423022,8673
0.034945257,8674
0.024944553,8675
0.017813895,8676
0.028934151,8677
0.059013925,8678
0.027293105,8679
0.020763999,8680
0.019294208,8681
0.043707464,8682
0.03857195,8683
0.024223097,8684
0.017813843,8685
0.03455645,8686
0.19972129,8687
0.09757058,8688
0.05672004,8689
0.044387907,8690
0.040093068,8691
0.033990003,8692
0.02651819,8693
0.01952817,8694
0.019022567,8695
0.06133727,8696
0.040289395,8697
0.023512691,8698
0.018627899,8699
0.027913935,8700
0.05365583,8701
0.032419313,8702
0.021440592,8703
0.01691168,8704
0.14333282,8705
0.16112961,8706
0.072052635,8707
0.055908285,8708
0.039462477,8709
0.042803396,8710
0.029958611,8711
0.02182396,8712
0.016627373,8713
0.033581942,8714
0.06293758,8715
0.028941184,8716
0.021464398,8717
0.020685207,8718
0.050327808,8719
0.042376254,8720
0.024644546,8721
0.018809084,8722
0.04532054,8723
0.20814036,8724
0.08773674,8725
0.051845215,8726
0.040771667,8727
0.035325073,8728
0.034640934,8729
0.02508006,8730
0.017750004,8731
0.01924132,8732
0.06225884,8733
0.03979353,8734
0.02152249,8735
0.018270034,8736
0.029399803,8737
0.05488768,8738
0.030200846,8739
0.020186858,8740
0.020157978,8741
0.16042191,8742
0.13986328,8743
0.06399508,8744
0.046628106,8745
0.037207093,8746
0.03868567,8747
0.030805172,8748
0.02026608,8749
0.017146824,8750
0.042541355,8751
0.05818973,8752
0.027952272,8753
0.019010264,8754
0.022113044,8755
0.055597875,8756
0.043159615,8757
0.027349912,8758
0.019255465,8759
0.050943047,8760
0.210106,8761
0.08481322,8762
0.05135509,8763
0.040600777,8764
0.043533266,8765
0.03909367,8766
0.031128269,8767
0.019992305,8768
0.02585812,8769
0.066594325,8770
0.041258786,8771
0.028501008,8772
0.02011397,8773
0.046823617,8774
0.068804845,8775
0.0436428,8776
0.029856559,8777
0.025782054,8778
0.16927241,8779
0.138363,8780
0.063314706,8781
0.048098717,8782
0.048761994,8783
0.047131702,8784
0.044777513,8785
0.036219813,8786
0.023677602,8787
0.059614703,8788
0.060532067,8789
0.03249835,8790
0.02250908,8791
0.030772084,8792
0.06458413,8793
0.052324567,8794
0.03570459,8795
0.020967089,8796
0.058212556,8797
0.14901945,8798
0.063871674,8799
0.040119745,8800
0.039543528,8801
0.042219747,8802
0.036814786,8803
0.03059707,8804
0.020342411,8805
0.026847402,8806
0.07069136,8807
0.036081415,8808
0.022961807,8809
0.01879476,8810
0.037344724,8811
0.04551037,8812
0.029762538,8813
0.023416298,8814
0.025373107,8815
0.13536285,8816
0.08782553,8817
0.045031555,8818
0.03983681,8819
0.0379271,8820
0.03847587,8821
0.024724223,8822
0.019670658,8823
0.0152706625,8824
0.052257087,8825
0.050314955,8826
0.027366176,8827
0.019339185,8828
0.020856427,8829
0.041609902,8830
0.027556434,8831
0.019296344,8832
0.016609106,8833
0.06809867,8834
0.14262408,8835
0.060618907,8836
0.041524347,8837
0.040106006,8838
0.04390237,8839
0.03534019,8840
0.026008565,8841
0.016569285,8842
0.026881397,8843
0.063130096,8844
0.030631643,8845
0.02282142,8846
0.01731862,8847
0.03606336,8848
0.04282181,8849
0.026207156,8850
0.017778408,8851
0.031970102,8852
0.14565523,8853
0.08927989,8854
0.047192194,8855
0.040130466,8856
0.037081067,8857
0.029546378,8858
0.019208228,8859
0.01639967,8860
0.015509719,8861
0.05528415,8862
0.04680664,8863
0.026093364,8864
0.019231318,8865
0.026960755,8866
0.04908704,8867
0.033462703,8868
0.022321412,8869
0.017600536,8870
0.099981226,8871
0.15388842,8872
0.05843355,8873
0.0345093,8874
0.02797332,8875
0.038319957,8876
0.029132983,8877
0.022047957,8878
0.01713318,8879
0.033429544,8880
0.06591425,8881
0.03010863,8882
0.01914762,8883
0.017308796,8884
0.04458383,8885
0.046261307,8886
0.024869408,8887
0.017867627,8888
0.028553171,8889
0.16832231,8890
0.08920729,8891
0.041605577,8892
0.029868841,8893
0.033905346,8894
0.038187053,8895
0.028795062,8896
0.022980377,8897
0.019571487,8898
0.06323181,8899
0.042681538,8900
0.022945432,8901
0.018906474,8902
0.028203301,8903
0.05232146,8904
0.039992567,8905
0.031547457,8906
0.020164512,8907
0.10791959,8908
0.14083575,8909
0.060121123,8910
0.03304948,8911
0.03497127,8912
0.04504283,8913
0.03508554,8914
0.03622155,8915
0.023225676,8916
0.040588804,8917
0.064444505,8918
0.030350909,8919
0.021765303,8920
0.021327997,8921
0.05987966,8922
0.054107707,8923
0.03780095,8924
0.02484641,8925
0.046450876,8926
0.1844618,8927
0.085446864,8928
0.044454623,8929
0.031712644,8930
0.045682147,8931
0.042931244,8932
0.037227537,8933
0.024029424,8934
0.028758159,8935
0.05847755,8936
0.04225224,8937
0.031526104,8938
0.017718228,8939
0.02635578,8940
0.055303797,8941
0.032482997,8942
0.01972436,8943
0.015341348,8944
0.17130405,8945
0.15592378,8946
0.07173412,8947
0.05649917,8948
0.04115778,8949
0.043097664,8950
0.03504194,8951
0.02924603,8952
0.020953402,8953
0.031745754,8954
0.047063734,8955
0.02726399,8956
0.023277463,8957
0.022993835,8958
0.055878974,8959
0.04449483,8960
0.026154283,8961
0.020377563,8962
0.05624756,8963
0.21809852,8964
0.097947165,8965
0.061524346,8966
0.046375047,8967
0.041892856,8968
0.037526403,8969
0.026692757,8970
0.021408673,8971
0.021826973,8972
0.048907034,8973
0.032833308,8974
0.022014271,8975
0.020322938,8976
0.03256861,8977
0.058933537,8978
0.032019567,8979
0.024517953,8980
0.023675807,8981
0.1852876,8982
0.1478042,8983
0.068487294,8984
0.056337222,8985
0.039191727,8986
0.036545288,8987
0.031062888,8988
0.022557681,8989
0.0183659,8990
0.036006603,8991
0.04404916,8992
0.0245938,8993
0.019862028,8994
0.021476312,8995
0.056313828,8996
0.03895268,8997
0.025997687,8998
0.019180639,8999
0.06336294,9000
0.22188544,9001
0.08958922,9002
0.05886181,9003
0.045620836,9004
0.039602097,9005
0.033291228,9006
0.02477563,9007
0.018762171,9008
0.019305378,9009
0.049574923,9010
0.028340286,9011
0.021437904,9012
0.018113844,9013
0.03725048,9014
0.053553607,9015
0.030028602,9016
0.020232694,9017
0.022394348,9018
0.17378794,9019
0.12575649,9020
0.06123343,9021
0.04552855,9022
0.033789992,9023
0.03292336,9024
0.029125461,9025
0.018007016,9026
0.01603701,9027
0.041997522,9028
0.03896219,9029
0.023862,9030
0.025339711,9031
0.02139196,9032
0.055785287,9033
0.04119713,9034
0.023552809,9035
0.01611095,9036
0.08871091,9037
0.19568731,9038
0.075395316,9039
0.051204603,9040
0.03915629,9041
0.034951698,9042
0.039304383,9043
0.030613633,9044
0.01918327,9045
0.030746104,9046
0.048441716,9047
0.02639499,9048
0.020988667,9049
0.020776693,9050
0.049560685,9051
0.056219943,9052
0.03590673,9053
0.02442016,9054
0.028872022,9055
0.19521515,9056
0.1145741,9057
0.05909944,9058
0.046441108,9059
0.040199228,9060
0.040723346,9061
0.036226805,9062
0.023991251,9063
0.01922397,9064
0.049934432,9065
0.037999913,9066
0.026327133,9067
0.021896278,9068
0.030232545,9069
0.06272375,9070
0.04642359,9071
0.030809548,9072
0.020097919,9073
0.10620967,9074
0.18812233,9075
0.069823675,9076
0.051402576,9077
0.03920841,9078
0.037477747,9079
0.031009233,9080
0.024034794,9081
0.017331837,9082
0.027460098,9083
0.048723865,9084
0.027182667,9085
0.020418297,9086
0.017698228,9087
0.04391454,9088
0.049488205,9089
0.030060127,9090
0.02056522,9091
0.027992772,9092
0.14328803,9093
0.07694809,9094
0.03888339,9095
0.03768193,9096
0.03562244,9097
0.034771226,9098
0.02718779,9099
0.017414792,9100
0.016853493,9101
0.045208722,9102
0.032777395,9103
0.020492515,9104
0.018903669,9105
0.021875475,9106
0.043695025,9107
0.030817006,9108
0.018720688,9109
0.01555255,9110
0.100691944,9111
0.11547592,9112
0.050358247,9113
0.039609287,9114
0.039177332,9115
0.032749515,9116
0.02664922,9117
0.017405765,9118
0.014249902,9119
0.024298321,9120
0.042174622,9121
0.021670306,9122
0.018422084,9123
0.015847174,9124
0.04017068,9125
0.039088864,9126
0.025056802,9127
0.016856508,9128
0.033121046,9129
0.14869799,9130
0.073437065,9131
0.03904789,9132
0.038921323,9133
0.035154324,9134
0.029330641,9135
0.023544205,9136
0.015723912,9137
0.018778224,9138
0.04968283,9139
0.035757385,9140
0.023001878,9141
0.017060397,9142
0.020386351,9143
0.039792042,9144
0.023404473,9145
0.017861178,9146
0.016029391,9147
0.113331206,9148
0.11375355,9149
0.052035894,9150
0.038999718,9151
0.039350517,9152
0.04100926,9153
0.032137673,9154
0.022942243,9155
0.015447657,9156
0.0287982,9157
0.040957402,9158
0.022445103,9159
0.016560985,9160
0.0158307,9161
0.03814746,9162
0.034570836,9163
0.020842835,9164
0.015920104,9165
0.046776317,9166
0.18461023,9167
0.085262336,9168
0.04560998,9169
0.030043116,9170
0.028116321,9171
0.025316471,9172
0.019875824,9173
0.0143224895,9174
0.019861173,9175
0.05047565,9176
0.03389178,9177
0.019876093,9178
0.017240867,9179
0.046555832,9180
0.06825271,9181
0.039640218,9182
0.027670238,9183
0.020872591,9184
0.1407407,9185
0.1202324,9186
0.051672533,9187
0.033138186,9188
0.033277873,9189
0.044068307,9190
0.03640401,9191
0.02857331,9192
0.019541813,9193
0.03824748,9194
0.04456407,9195
0.025328696,9196
0.018614389,9197
0.021344488,9198
0.055122524,9199
0.047590535,9200
0.031723022,9201
0.017968163,9202
0.057646897,9203
0.17743285,9204
0.07394335,9205
0.038045403,9206
0.03181321,9207
0.042568468,9208
0.037746575,9209
0.028636318,9210
0.021368945,9211
0.021694902,9212
0.05207345,9213
0.03169005,9214
0.023258282,9215
0.017201124,9216
0.03805576,9217
0.05006079,9218
0.02917193,9219
0.018418506,9220
0.019065702,9221
0.15208986,9222
0.10585473,9223
0.04782396,9224
0.03164451,9225
0.032337435,9226
0.037697345,9227
0.029222548,9228
0.02278868,9229
0.019228665,9230
0.04752952,9231
0.045460615,9232
0.03205969,9233
0.027060388,9234
0.02938942,9235
0.053500146,9236
0.03664103,9237
0.024092477,9238
0.015608104,9239
0.090555966,9240
0.21620096,9241
0.09250016,9242
0.065106325,9243
0.049639523,9244
0.04448925,9245
0.03636147,9246
0.026931606,9247
0.020737045,9248
0.032481316,9249
0.05926629,9250
0.043492965,9251
0.03428242,9252
0.032494143,9253
0.047390923,9254
0.05515551,9255
0.033175368,9256
0.021933207,9257
0.031362712,9258
0.21044986,9259
0.13395806,9260
0.07237768,9261
0.06429355,9262
0.047635056,9263
0.042387944,9264
0.029484387,9265
0.025345683,9266
0.02459815,9267
0.05384323,9268
0.056225196,9269
0.039398428,9270
0.037039112,9271
0.036710195,9272
0.0654125,9273
0.04306508,9274
0.031128576,9275
0.022188455,9276
0.10800415,9277
0.2213908,9278
0.092511676,9279
0.068642795,9280
0.051571265,9281
0.046769463,9282
0.03833699,9283
0.028234437,9284
0.0228701,9285
0.043055993,9286
0.07227282,9287
0.050832596,9288
0.04136956,9289
0.041677225,9290
0.055565156,9291
0.058990497,9292
0.038398124,9293
0.024690162,9294
0.04212034,9295
0.22145066,9296
0.13152753,9297
0.078706756,9298
0.06785589,9299
0.051543683,9300
0.047354538,9301
0.035039715,9302
0.025895191,9303
0.029676516,9304
0.06793506,9305
0.06417732,9306
0.04690394,9307
0.045237973,9308
0.0444527,9309
0.06909126,9310
0.04548008,9311
0.031803858,9312
0.027012989,9313
0.1334685,9314
0.19024095,9315
0.090177834,9316
0.068319075,9317
0.055049993,9318
0.05081135,9319
0.041950203,9320
0.037038725,9321
0.024802418,9322
0.053191416,9323
0.08097754,9324
0.06375985,9325
0.053542696,9326
0.05113473,9327
0.06601888,9328
0.061618473,9329
0.04597791,9330
0.03047585,9331
0.059146684,9332
0.22331607,9333
0.12721917,9334
0.07556264,9335
0.06800807,9336
0.06341973,9337
0.05602581,9338
0.05030949,9339
0.03744612,9340
0.039423034,9341
0.08560557,9342
0.07460468,9343
0.05901025,9344
0.058484413,9345
0.058811173,9346
0.07643335,9347
0.051580835,9348
0.040104024,9349
0.035666678,9350
0.1607751,9351
0.19034189,9352
0.10105852,9353
0.07692357,9354
0.0636341,9355
0.058926817,9356
0.0464627,9357
0.03786479,9358
0.028142845,9359
0.0672595,9360
0.0889647,9361
0.07022097,9362
0.06084912,9363
0.062024016,9364
0.07878967,9365
0.06376958,9366
0.043747656,9367
0.02968207,9368
0.0763137,9369
0.2433872,9370
0.1266211,9371
0.08330354,9372
0.072130576,9373
0.06356164,9374
0.054412894,9375
0.045343164,9376
0.032246646,9377
0.047908705,9378
0.09357278,9379
0.08373921,9380
0.068015225,9381
0.07179409,9382
0.06427959,9383
0.0790111,9384
0.049382076,9385
0.038073868,9386
0.04294481,9387
0.15126516,9388
0.14655122,9389
0.086548194,9390
0.08159136,9391
0.06887038,9392
0.06620427,9393
0.051898398,9394
0.04245401,9395
0.03667321,9396
0.08280645,9397
0.10147213,9398
0.086489536,9399
0.07772319,9400
0.07383763,9401
0.07957268,9402
0.06233382,9403
0.047736995,9404
0.032895975,9405
0.09094201,9406
0.19702849,9407
0.115735434,9408
0.0906233,9409
0.087496534,9410
0.077058926,9411
0.058882378,9412
0.052001227,9413
0.03676106,9414
0.06447557,9415
0.114742644,9416
0.096378855,9417
0.08442648,9418
0.08848424,9419
0.07737886,9420
0.078747,9421
0.06255946,9422
0.05499954,9423
0.07416377,9424
0.19942659,9425
0.17299974,9426
0.12379289,9427
0.12912568,9428
0.11583348,9429
0.12370439,9430
0.11800953,9431
0.11910128,9432
0.12386409,9433
0.16659148,9434
0.17804489,9435
0.17504938,9436
0.16536418,9437
0.17856869,9438
0.19334792,9439
0.20294358,9440
0.22923504,9441
0.22114708,9442
0.31090423,9443
0.35525724,9444
0.33262476,9445
0.28641316,9446
0.33774304,9447
0.35208014,9448
0.3978065,9449
0.4028637,9450
0.36282012,9451
0.43844864,9452
0.45717078,9453
0.35060647,9454
0.2844506,9455
0.1258093,9456
0.12607978,9457
0.15570298,9458
0.15116137,9459
0.12684862,9460
0.12849493,9461
0.23534462,9462
0.20459072,9463
0.15472765,9464
0.14744483,9465
0.22443826,9466
0.19033356,9467
0.15024146,9468
0.13075592,9469
0.11927203,9470
0.13211286,9471
0.14395435,9472
0.12659162,9473
0.11602276,9474
0.1218594,9475
0.13539279,9476
0.14077011,9477
0.13130102,9478
0.12599523,9479
0.23669878,9480
0.23632164,9481
0.15179059,9482
0.12826626,9483
0.12631696,9484
0.13490236,9485
0.15179202,9486
0.14037685,9487
0.11853692,9488
0.19881842,9489
0.16601299,9490
0.13257055,9491
0.11665978,9492
0.12837763,9493
0.12045067,9494
0.15462407,9495
0.14259031,9496
0.12398997,9497
0.13395803,9498
0.24865675,9499
0.19021201,9500
0.14354284,9501
0.13498554,9502
0.21523187,9503
0.16194268,9504
0.14032419,9505
0.13545106,9506
0.12950519,9507
0.12369681,9508
0.15420927,9509
0.12689108,9510
0.13175763,9511
0.13772279,9512
0.16604334,9513
0.16271988,9514
0.15191104,9515
0.16505355,9516
0.22738793,9517
0.22903106,9518
0.1558444,9519
0.13783607,9520
0.13995856,9521
0.14311823,9522
0.14348803,9523
0.14725518,9524
0.13499582,9525
0.31440705,9526
0.42036837,9527
0.413859,9528
0.35473695,9529
0.36613154,9530
0.35603797,9531
0.351578,9532
0.33612612,9533
0.31748864,9534
0.45154592,9535
0.45850044,9536
0.36912584,9537
0.2973585,9538
0.23504238,9539
0.22798389,9540
0.21401805,9541
0.19882332,9542
0.17410615,9543
0.29971728,9544
0.35424504,9545
0.25885415,9546
0.2411721,9547
0.19201435,9548
0.17305176,9549
0.16621192,9550
0.13650988,9551
0.11611601,9552
0.16056785,9553
0.45287108,9554
0.39460984,9555
0.18560758,9556
0.1231859,9557
0.09693442,9558
0.09561039,9559
0.07329794,9560
0.052892003,9561
0.049904183,9562
0.31011757,9563
0.23508047,9564
0.20566387,9565
0.1487851,9566
0.13626295,9567
0.1043766,9568
0.09915384,9569
0.07684203,9570
0.064122215,9571
0.3159565,9572
0.43553692,9573
0.2337986,9574
0.13301462,9575
0.09234643,9576
0.085977115,9577
0.06609683,9578
0.048150174,9579
0.037097722,9580
0.20452231,9581
0.32880062,9582
0.25026047,9583
0.17412086,9584
0.13999486,9585
0.12315816,9586
0.11679247,9587
0.09119323,9588
0.0666072,9589
0.15181556,9590
0.4551765,9591
0.35098174,9592
0.17501456,9593
0.1070168,9594
0.086047605,9595
0.07782237,9596
0.055661555,9597
0.045055646,9598
0.051783003,9599
0.33358204,9600
0.24501804,9601
0.19601636,9602
0.14445394,9603
0.13116561,9604
0.10529893,9605
0.096588016,9606
0.08213039,9607
0.064094625,9608
0.34460554,9609
0.43057027,9610
0.2305802,9611
0.11752944,9612
0.08748947,9613
0.08607453,9614
0.07352823,9615
0.053757306,9616
0.038839642,9617
0.22054869,9618
0.3116605,9619
0.22944681,9620
0.1752079,9621
0.13780124,9622
0.12651011,9623
0.12149741,9624
0.08972552,9625
0.065562025,9626
0.18773367,9627
0.44241887,9628
0.31472582,9629
0.14357372,9630
0.103954814,9631
0.08173191,9632
0.070723906,9633
0.05070149,9634
0.036736283,9635
0.08984126,9636
0.2820694,9637
0.24535385,9638
0.19491799,9639
0.14538954,9640
0.11997832,9641
0.1069066,9642
0.09703528,9643
0.07238182,9644
0.04869054,9645
0.37585488,9646
0.41581017,9647
0.21014428,9648
0.11079695,9649
0.08189945,9650
0.07763527,9651
0.059588443,9652
0.045399085,9653
0.0321053,9654
0.27313915,9655
0.30785355,9656
0.20433548,9657
0.1614539,9658
0.13430573,9659
0.12335017,9660
0.10927221,9661
0.08694343,9662
0.06371453,9663
0.21391127,9664
0.43955204,9665
0.30794603,9666
0.15673806,9667
0.09554152,9668
0.08167699,9669
0.07139185,9670
0.051253553,9671
0.039278906,9672
0.1120873,9673
0.3109048,9674
0.24483193,9675
0.18321933,9676
0.14338717,9677
0.12017269,9678
0.09887594,9679
0.09408117,9680
0.07222545,9681
0.06389571,9682
0.4001662,9683
0.37979442,9684
0.1889854,9685
0.11056895,9686
0.084320374,9687
0.07977574,9688
0.060530208,9689
0.042958237,9690
0.031706646,9691
0.27235824,9692
0.3170685,9693
0.21559773,9694
0.16168687,9695
0.13315241,9696
0.1351794,9697
0.10382344,9698
0.08851637,9699
0.05738099,9700
0.25603956,9701
0.3978347,9702
0.26472175,9703
0.12726608,9704
0.09427603,9705
0.082400404,9706
0.060666807,9707
0.046168912,9708
0.03368189,9709
0.13901202,9710
0.2886829,9711
0.23101164,9712
0.1784297,9713
0.14015214,9714
0.121668935,9715
0.10678234,9716
0.088259704,9717
0.07085746,9718
0.07560072,9719
0.4204089,9720
0.35875937,9721
0.17274985,9722
0.10024167,9723
0.07884079,9724
0.078407705,9725
0.05786666,9726
0.046076912,9727
0.034111187,9728
0.26849782,9729
0.28090113,9730
0.21457319,9731
0.15460078,9732
0.13041434,9733
0.12253334,9734
0.09405909,9735
0.088391334,9736
0.0582912,9737
0.2790255,9738
0.36059228,9739
0.25734654,9740
0.13503133,9741
0.08984377,9742
0.104816675,9743
0.0929017,9744
0.07190076,9745
0.043893997,9746
0.16377005,9747
0.27295193,9748
0.2310264,9749
0.16861859,9750
0.13530324,9751
0.12585112,9752
0.106323354,9753
0.093000084,9754
0.0762784,9755
0.114560135,9756
0.42037928,9757
0.31888783,9758
0.16389976,9759
0.098134786,9760
0.08470458,9761
0.08583461,9762
0.06472946,9763
0.05135164,9764
0.040998746,9765
0.3455942,9766
0.28964898,9767
0.2091093,9768
0.15826516,9769
0.13922231,9770
0.1270363,9771
0.10802968,9772
0.08343386,9773
0.061949424,9774
0.2981604,9775
0.41069794,9776
0.2487521,9777
0.121193446,9778
0.085500136,9779
0.07578034,9780
0.0617913,9781
0.043375462,9782
0.03295966,9783
0.20451485,9784
0.28831625,9785
0.20915556,9786
0.17256247,9787
0.13302298,9788
0.11255666,9789
0.11017365,9790
0.086516045,9791
0.06836098,9792
0.1427845,9793
0.43603304,9794
0.33047706,9795
0.16669418,9796
0.0952191,9797
0.07869648,9798
0.07615987,9799
0.05426775,9800
0.04179687,9801
0.04157672,9802
0.321498,9803
0.25737172,9804
0.20449279,9805
0.15491718,9806
0.25158074,9807
0.41448966,9808
0.26368326,9809
0.1435854,9810
0.096513845,9811
0.1427438,9812
0.21713766,9813
0.1158142,9814
0.062410537,9815
0.064903215,9816
0.1736192,9817
0.117287315,9818
0.07195196,9819
0.04672907,9820
0.20303527,9821
0.27302545,9822
0.20261294,9823
0.16280879,9824
0.12671813,9825
0.11278615,9826
0.10181455,9827
0.0839295,9828
0.061206378,9829
0.17870216,9830
0.44656977,9831
0.32111904,9832
0.16926844,9833
0.10338509,9834
0.08795057,9835
0.077238105,9836
0.05589106,9837
0.044950467,9838
0.07643015,9839
0.32709563,9840
0.2737302,9841
0.20523602,9842
0.14588425,9843
0.13306598,9844
0.13437982,9845
0.10395884,9846
0.08689027,9847
0.059688885,9848
0.39465702,9849
0.42098233,9850
0.22239237,9851
0.12753475,9852
0.0869538,9853
0.08149251,9854
0.058298577,9855
0.041928448,9856
0.030533534,9857
0.25554276,9858
0.25972918,9859
0.2060915,9860
0.16405529,9861
0.13579258,9862
0.1112236,9863
0.10099879,9864
0.0856488,9865
0.067539915,9866
0.20634995,9867
0.40891457,9868
0.28752503,9869
0.16702263,9870
0.09793248,9871
0.08782084,9872
0.08038501,9873
0.064552024,9874
0.04989147,9875
0.11344427,9876
0.32063386,9877
0.26481992,9878
0.19162533,9879
0.1522351,9880
0.12179805,9881
0.12792541,9882
0.102464095,9883
0.07992762,9884
0.062292572,9885
0.4129725,9886
0.38762727,9887
0.20141473,9888
0.118036136,9889
0.095250346,9890
0.0888353,9891
0.06463255,9892
0.05161632,9893
0.036733042,9894
0.2286049,9895
0.29811493,9896
0.19818124,9897
0.1476237,9898
0.13570155,9899
0.122418225,9900
0.10838791,9901
0.09276152,9902
0.061423473,9903
0.24208888,9904
0.4222487,9905
0.30605635,9906
0.14406738,9907
0.09019895,9908
0.08792905,9909
0.08060657,9910
0.059053168,9911
0.053025585,9912
0.14149278,9913
0.3347969,9914
0.2505714,9915
0.19497772,9916
0.14958587,9917
0.12669675,9918
0.11992863,9919
0.09757715,9920
0.078375556,9921
0.08593143,9922
0.4116788,9923
0.4134488,9924
0.20323193,9925
0.114906184,9926
0.08773006,9927
0.076711684,9928
0.057143234,9929
0.042871524,9930
0.029715218,9931
0.26930997,9932
0.27868697,9933
0.19111629,9934
0.14865299,9935
0.13398732,9936
0.11537339,9937
0.09855139,9938
0.078786634,9939
0.05733816,9940
0.2704787,9941
0.41520646,9942
0.27932286,9943
0.14047325,9944
0.08946887,9945
0.09392401,9946
0.07685168,9947
0.06753443,9948
0.055050176,9949
0.1696195,9950
0.30524302,9951
0.23078422,9952
0.19194648,9953
0.14491922,9954
0.12558706,9955
0.119859435,9956
0.10432945,9957
0.074443884,9958
0.11262662,9959
0.43057945,9960
0.38897285,9961
0.16885152,9962
0.11181432,9963
0.091051586,9964
0.080714636,9965
0.062602535,9966
0.049071744,9967
0.04351785,9968
0.28224766,9969
0.27182093,9970
0.2004262,9971
0.14556059,9972
0.13482441,9973
0.11575921,9974
0.08972596,9975
0.08047036,9976
0.057643887,9977
0.30926645,9978
0.4042152,9979
0.25375628,9980
0.12756109,9981
0.09658101,9982
0.103654064,9983
0.084979765,9984
0.076582,9985
0.06435709,9986
0.214544,9987
0.3128785,9988
0.24293359,9989
0.18659653,9990
0.14211917,9991
0.1341417,9992
0.11799019,9993
0.096423715,9994
0.07126797,9995
0.1377146,9996
0.43723476,9997
0.32206157,9998
0.1709275,9999
0.121511444,10000
0.09833108,10001
0.080139756,10002
0.05694713,10003
0.04457477,10004
0.034050263,10005
0.31812745,10006
0.2503461,10007
0.19987868,10008
0.14484917,10009
0.1350794,10010
0.11568987,10011
0.09273717,10012
0.07918772,10013
0.06378904,10014
0.33788985,10015
0.39932612,10016
0.22840203,10017
0.12655696,10018
0.10134419,10019
0.14087194,10020
0.14738342,10021
0.12096725,10022
0.09859647,10023
0.25436124,10024
0.32005242,10025
0.23320019,10026
0.18485998,10027
0.13862944,10028
0.12783821,10029
0.12302323,10030
0.09513938,10031
0.07652101,10032
0.1696331,10033
0.4395123,10034
0.31951344,10035
0.19296122,10036
0.15128607,10037
0.11611994,10038
0.08505245,10039
0.055940766,10040
0.039235383,10041
0.0578841,10042
0.28922838,10043
0.22979786,10044
0.20274745,10045
0.13910341,10046
0.12906325,10047
0.11489709,10048
0.09586124,10049
0.079906315,10050
0.064810306,10051
0.36526307,10052
0.38176703,10053
0.21609016,10054
0.10809952,10055
0.08628571,10056
0.17259784,10057
0.17996943,10058
0.15715098,10059
0.13064991,10060
0.25421363,10061
0.3248962,10062
0.21044238,10063
0.1763162,10064
0.14049232,10065
0.1359812,10066
0.118105166,10067
0.09266788,10068
0.069885276,10069
0.18823445,10070
0.44090793,10071
0.3480376,10072
0.20748694,10073
0.18866962,10074
0.11919761,10075
0.08749518,10076
0.06308635,10077
0.04262739,10078
0.099341996,10079
0.29186666,10080
0.23478562,10081
0.19017816,10082
0.14093976,10083
0.123147525,10084
0.112886116,10085
0.09849364,10086
0.086970784,10087
0.06436669,10088
0.40482783,10089
0.389722,10090
0.19739434,10091
0.10953145,10092
0.10153459,10093
0.24876225,10094
0.29278463,10095
0.2350701,10096
0.1783518,10097
0.2949919,10098
0.32265642,10099
0.2228247,10100
0.166741,10101
0.15251665,10102
0.41527185,10103
0.3043207,10104
0.18188399,10105
0.10617588,10106
0.15827122,10107
0.3653829,10108
0.2970602,10109
0.23470962,10110
0.18415022,10111
0.19512168,10112
0.14830965,10113
0.090556905,10114
0.05825567,10115
0.14816517,10116
0.2837013,10117
0.23476474,10118
0.18353675,10119
0.13702148,10120
0.1206694,10121
0.12067613,10122
0.11104074,10123
0.09005401,10124
0.08882998,10125
0.3783677,10126
0.3650876,10127
0.19483882,10128
0.11490393,10129
0.11222922,10130
0.20153579,10131
0.18981643,10132
0.15209353,10133
0.11643844,10134
0.3153436,10135
0.32052803,10136
0.22470963,10137
0.1733763,10138
0.13796371,10139
0.11794063,10140
0.090752065,10141
0.07850175,10142
0.060252886,10143
0.27091885,10144
0.39409235,10145
0.2996876,10146
0.17210557,10147
0.12840766,10148
0.10102537,10149
0.0746714,10150
0.05819868,10151
0.043533105,10152
0.15805297,10153
0.28342253,10154
0.21999744,10155
0.18412367,10156
0.1404709,10157
0.117195986,10158
0.12535821,10159
0.106522605,10160
0.0813855,10161
0.09475822,10162
0.42045406,10163
0.36742795,10164
0.18719,10165
0.11358917,10166
0.09407742,10167
0.10709926,10168
0.0875171,10169
0.069266595,10170
0.062191863,10171
0.30762824,10172
0.27780417,10173
0.23207977,10174
0.17029767,10175
0.1389866,10176
0.10621247,10177
0.090263724,10178
0.06850935,10179
0.060008273,10180
0.26993424,10181
0.36287028,10182
0.25075915,10183
0.13768405,10184
0.09530267,10185
0.07974919,10186
0.06219037,10187
0.050115578,10188
0.038219262,10189
0.14478952,10190
0.25034726,10191
0.20802096,10192
0.18039003,10193
0.13715306,10194
0.11258797,10195
0.11373544,10196
0.09055496,10197
0.06484642,10198
0.124661036,10199
0.4062498,10200
0.30879474,10201
0.15615873,10202
0.10713908,10203
0.0794846,10204
0.0787739,10205
0.056766894,10206
0.046349265,10207
0.04086227,10208
0.3198626,10209
0.2771468,10210
0.22153483,10211
0.15199177,10212
0.13007209,10213
0.118233316,10214
0.0857516,10215
0.06916567,10216
0.055611096,10217
0.30165547,10218
0.39208677,10219
0.23113859,10220
0.12445808,10221
0.09005792,10222
0.078251705,10223
0.057181567,10224
0.04440518,10225
0.031794492,10226
0.16904446,10227
0.24960771,10228
0.20385778,10229
0.16637957,10230
0.13303094,10231
0.11133441,10232
0.106998414,10233
0.08537229,10234
0.062296156,10235
0.15686584,10236
0.42506057,10237
0.2796682,10238
0.14548324,10239
0.10025673,10240
0.086485766,10241
0.08648076,10242
0.065107934,10243
0.050738044,10244
0.060903355,10245
0.35006663,10246
0.25734615,10247
0.21168604,10248
0.1642675,10249
0.13046548,10250
0.09556028,10251
0.08646957,10252
0.066876054,10253
0.062848225,10254
0.3329095,10255
0.39639655,10256
0.22706003,10257
0.12038661,10258
0.08950879,10259
0.08474267,10260
0.07432181,10261
0.056210943,10262
0.045669653,10263
0.2159146,10264
0.2338204,10265
0.22291327,10266
0.15968226,10267
0.14014755,10268
0.10875735,10269
0.10637971,10270
0.08724567,10271
0.06477998,10272
0.17473373,10273
0.41477725,10274
0.24775885,10275
0.13684046,10276
0.09690509,10277
0.09090839,10278
0.090117104,10279
0.064499855,10280
0.051619217,10281
0.09736171,10282
0.31094158,10283
0.26738876,10284
0.20789917,10285
0.15290636,10286
0.12794535,10287
0.09590901,10288
0.08706408,10289
0.072973505,10290
0.059075445,10291
0.37223178,10292
0.3548875,10293
0.19243935,10294
0.11490702,10295
0.09246783,10296
0.08078601,10297
0.05797654,10298
0.04982617,10299
0.03491352,10300
0.21766423,10301
0.25042883,10302
0.21880913,10303
0.1536232,10304
0.13761292,10305
0.1130395,10306
0.113587804,10307
0.09175443,10308
0.06844234,10309
0.21242796,10310
0.4223215,10311
0.22842641,10312
0.14408377,10313
0.096301615,10314
0.08796337,10315
0.07816215,10316
0.06159269,10317
0.048531074,10318
0.12647955,10319
0.320145,10320
0.26264614,10321
0.20791122,10322
0.15325311,10323
0.12475576,10324
0.10880281,10325
0.073645495,10326
0.0772874,10327
0.075729035,10328
0.39322254,10329
0.3306746,10330
0.18458703,10331
0.10862195,10332
0.08824026,10333
0.083138116,10334
0.060331944,10335
0.043717287,10336
0.029841889,10337
0.2883503,10338
0.26744515,10339
0.20294318,10340
0.15650202,10341
0.14511193,10342
0.10198109,10343
0.10044061,10344
0.07870132,10345
0.062083084,10346
0.24267715,10347
0.37392345,10348
0.25569886,10349
0.13352694,10350
0.09815122,10351
0.08963788,10352
0.08039589,10353
0.06013179,10354
0.047784176,10355
0.16510381,10356
0.31880352,10357
0.26130918,10358
0.18330795,10359
0.13957413,10360
0.12639475,10361
0.11370746,10362
0.09277515,10363
0.08205984,10364
0.095378116,10365
0.4228815,10366
0.33920637,10367
0.17225099,10368
0.102363594,10369
0.08445113,10370
0.073812425,10371
0.054652523,10372
0.038986485,10373
0.031026654,10374
0.29006493,10375
0.23608075,10376
0.2162831,10377
0.15324585,10378
0.13979651,10379
0.09948529,10380
0.09750576,10381
0.07735319,10382
0.062728904,10383
0.29103604,10384
0.40509507,10385
0.27202857,10386
0.14037164,10387
0.10560076,10388
0.09345736,10389
0.08135789,10390
0.06278485,10391
0.045707937,10392
0.17759216,10393
0.3021464,10394
0.24744667,10395
0.18846865,10396
0.14292133,10397
0.34092414,10398
0.27541155,10399
0.16751067,10400
0.13551007,10401
0.11601065,10402
0.19334254,10403
0.18192902,10404
0.083400026,10405
0.05770763,10406
0.12739941,10407
0.17027402,10408
0.1265051,10409
0.08904762,10410
0.061724383,10411
0.2802264,10412
0.26502377,10413
0.20010494,10414
0.14658754,10415
0.1427843,10416
0.10926589,10417
0.099195406,10418
0.07617725,10419
0.054746076,10420
0.3326326,10421
0.41591018,10422
0.26150924,10423
0.14923175,10424
0.11988462,10425
0.10679026,10426
0.07750959,10427
0.06915866,10428
0.053503815,10429
0.19178693,10430
0.29844153,10431
0.23803492,10432
0.18085378,10433
0.13951188,10434
0.13937432,10435
0.124641314,10436
0.10478629,10437
0.08588503,10438
0.16863713,10439
0.40551066,10440
0.3059162,10441
0.16160621,10442
0.114763536,10443
0.08263658,10444
0.081096515,10445
0.054028716,10446
0.043420915,10447
0.03792876,10448
0.3309833,10449
0.23253317,10450
0.1882154,10451
0.1557389,10452
0.14653195,10453
0.1087047,10454
0.09839336,10455
0.07607875,10456
0.06200252,10457
0.3602407,10458
0.39509585,10459
0.2316829,10460
0.13392264,10461
0.110649735,10462
0.10575109,10463
0.08511087,10464
0.069240965,10465
0.060780298,10466
0.21473369,10467
0.31398675,10468
0.24201134,10469
0.17767233,10470
0.1363453,10471
0.12122312,10472
0.12027967,10473
0.08143481,10474
0.08163435,10475
0.18796611,10476
0.40932098,10477
0.2810982,10478
0.17367667,10479
0.11221568,10480
0.091654375,10481
0.07240546,10482
0.049278665,10483
0.038149808,10484
0.06246921,10485
0.29213962,10486
0.23215832,10487
0.18071133,10488
0.14654063,10489
0.12824108,10490
0.111755416,10491
0.09821029,10492
0.079288736,10493
0.051595267,10494
0.35006288,10495
0.36999902,10496
0.19445863,10497
0.116068445,10498
0.094307296,10499
0.10614929,10500
0.08641525,10501
0.07303223,10502
0.057039857,10503
0.2665317,10504
0.28581712,10505
0.22634573,10506
0.17983554,10507
0.1392111,10508
0.10686218,10509
0.09555557,10510
0.07734088,10511
0.06829127,10512
0.20418459,10513
0.42397362,10514
0.29959103,10515
0.15735014,10516
0.109027885,10517
0.082085796,10518
0.070997685,10519
0.049320966,10520
0.034460064,10521
0.102704704,10522
0.28657204,10523
0.2324764,10524
0.18707567,10525
0.14307848,10526
0.121584825,10527
0.10788738,10528
0.090573885,10529
0.07482997,10530
0.052129023,10531
0.37252727,10532
0.36308652,10533
0.18628687,10534
0.10840269,10535
0.09510848,10536
0.1178191,10537
0.09784636,10538
0.080609225,10539
0.07089617,10540
0.27309048,10541
0.2784004,10542
0.22274041,10543
0.17821595,10544
0.13670266,10545
0.10932183,10546
0.09002259,10547
0.077393584,10548
0.062949486,10549
0.24470393,10550
0.37108153,10551
0.26886034,10552
0.15539795,10553
0.115728036,10554
0.10045535,10555
0.07724903,10556
0.06019182,10557
0.047440667,10558
0.12448909,10559
0.25617823,10560
0.21917695,10561
0.1745653,10562
0.13520958,10563
0.116367556,10564
0.10767879,10565
0.09064661,10566
0.075376056,10567
0.07685502,10568
0.40559098,10569
0.32869327,10570
0.17358123,10571
0.10420122,10572
0.10465518,10573
0.1587569,10574
0.1271368,10575
0.11236299,10576
0.09834331,10577
0.30804938,10578
0.290118,10579
0.22976524,10580
0.16583438,10581
0.13138992,10582
0.10443223,10583
0.08164805,10584
0.07464877,10585
0.06370221,10586
0.2915255,10587
0.3883388,10588
0.2692716,10589
0.16753119,10590
0.12635872,10591
0.102043085,10592
0.07442466,10593
0.05440673,10594
0.035701215,10595
0.1519273,10596
0.23600559,10597
0.2053774,10598
0.17535345,10599
0.12495879,10600
0.11733744,10601
0.109516576,10602
0.09560837,10603
0.08322625,10604
0.13226075,10605
0.4018835,10606
0.33123398,10607
0.17579623,10608
0.122411005,10609
0.13775592,10610
0.22635825,10611
0.21274832,10612
0.18726866,10613
0.17035522,10614
0.36551902,10615
0.3121783,10616
0.23631413,10617
0.21667445,10618
0.191496,10619
0.14150082,10620
0.14225636,10621
0.17937043,10622
0.20546302,10623
0.415497,10624
0.4363623,10625
0.39036384,10626
0.32060716,10627
0.35206577,10628
0.35115394,10629
0.3782556,10630
0.38308623,10631
0.38864073,10632
0.40718752,10633
0.3920133,10634
0.38639623,10635
0.30686334,10636
0.12992887,10637
0.13018495,10638
0.13134544,10639
0.12346209,10640
0.11094523,10641
0.16936594,10642
0.41883716,10643
0.31858364,10644
0.18551704,10645
0.1306122,10646
0.22467963,10647
0.27631608,10648
0.24559209,10649
0.21434139,10650
0.20364423,10651
0.2863282,10652
0.26324186,10653
0.20704803,10654
0.149197,10655
0.13425274,10656
0.12399164,10657
0.10986816,10658
0.094325684,10659
0.06889918,10660
0.37687626,10661
0.42897946,10662
0.42299983,10663
0.24189252,10664
0.2195543,10665
0.12787835,10666
0.08982034,10667
0.060529433,10668
0.05546957,10669
0.17867032,10670
0.24167171,10671
0.195948,10672
0.15261358,10673
0.1228099,10674
0.12389762,10675
0.15721731,10676
0.12567894,10677
0.10459667,10678
0.17771277,10679
0.40682477,10680
0.28339523,10681
0.15384221,10682
0.099157274,10683
0.21387771,10684
0.19608453,10685
0.17803092,10686
0.12877056,10687
0.11137708,10688
0.2624516,10689
0.25373405,10690
0.1964799,10691
0.14546232,10692
0.26679543,10693
0.37565112,10694
0.26216492,10695
0.16632126,10696
0.10105308,10697
0.2258278,10698
0.17000918,10699
0.10650402,10700
0.07290384,10701
0.073664986,10702
0.122142814,10703
0.09813816,10704
0.07484494,10705
0.052703988,10706
0.26162934,10707
0.37895897,10708
0.40825713,10709
0.38635278,10710
0.35232607,10711
0.35611606,10712
0.32912058,10713
0.37364346,10714
0.28303874,10715
0.40453058,10716
0.44330516,10717
0.3703726,10718
0.28184092,10719
0.23239188,10720
0.2255477,10721
0.21906748,10722
0.2036666,10723
0.17985669,10724
0.22934036,10725
0.3664375,10726
0.3093769,10727
0.23590855,10728
0.19645876,10729
0.183999,10730
0.16577727,10731
0.14112496,10732
0.12470763,10733
0.10415742,10734
0.3937924,10735
0.35148022,10736
0.20790887,10737
0.12101482,10738
0.09195199,10739
0.08161148,10740
0.07300392,10741
0.05900362,10742
0.051752888,10743
0.26865438,10744
0.26248503,10745
0.20612796,10746
0.16080436,10747
0.13164324,10748
0.11066743,10749
0.09012378,10750
0.08715449,10751
0.06699834,10752
0.22854258,10753
0.36199373,10754
0.24680758,10755
0.125109,10756
0.08024652,10757
0.077447794,10758
0.061423536,10759
0.04430967,10760
0.034901835,10761
0.1303276,10762
0.27846587,10763
0.24218908,10764
0.20476474,10765
0.14880079,10766
0.12172686,10767
0.095519476,10768
0.08910671,10769
0.06837779,10770
0.06835419,10771
0.39548323,10772
0.31511343,10773
0.17071256,10774
0.09520186,10775
0.07322681,10776
0.06689664,10777
0.04231888,10778
0.03639491,10779
0.026661055,10780
0.23557638,10781
0.24806255,10782
0.20969523,10783
0.15212287,10784
0.12847528,10785
0.10593633,10786
0.08418662,10787
0.08063517,10788
0.05375878,10789
0.2738269,10790
0.35100806,10791
0.23835568,10792
0.123778775,10793
0.07980836,10794
0.072793044,10795
0.0549843,10796
0.040646117,10797
0.030156976,10798
0.1552343,10799
0.30702227,10800
0.23725836,10801
0.19461545,10802
0.1493702,10803
0.12047127,10804
0.0940797,10805
0.08437705,10806
0.06305339,10807
0.08522391,10808
0.40200174,10809
0.31431204,10810
0.16314888,10811
0.093881376,10812
0.07105204,10813
0.060740586,10814
0.04703843,10815
0.033667333,10816
0.023717903,10817
0.27255893,10818
0.24866371,10819
0.20974205,10820
0.14746241,10821
0.12796679,10822
0.102850445,10823
0.085725084,10824
0.076952495,10825
0.053502098,10826
0.29559183,10827
0.34274185,10828
0.23058513,10829
0.116659604,10830
0.07741748,10831
0.070274144,10832
0.053250123,10833
0.039111093,10834
0.03153229,10835
0.19083574,10836
0.3144138,10837
0.23992647,10838
0.19398579,10839
0.14631362,10840
0.12050488,10841
0.091374435,10842
0.08614428,10843
0.068966396,10844
0.11764188,10845
0.38392228,10846
0.3017876,10847
0.14703341,10848
0.0886667,10849
0.073489375,10850
0.069381684,10851
0.044943906,10852
0.03792034,10853
0.026820498,10854
0.3154022,10855
0.22780225,10856
0.2116553,10857
0.14233136,10858
0.13673048,10859
0.09855228,10860
0.088836305,10861
0.07342284,10862
0.058319144,10863
0.32771456,10864
0.3482012,10865
0.20725718,10866
0.10931039,10867
0.079264596,10868
0.07004088,10869
0.05167346,10870
0.037491135,10871
0.031126222,10872
0.20639518,10873
0.3030902,10874
0.23576911,10875
0.1811568,10876
0.13386022,10877
0.12516622,10878
0.09527963,10879
0.08410214,10880
0.061178032,10881
0.15237376,10882
0.39445737,10883
0.2730427,10884
0.14391573,10885
0.08801777,10886
0.06981213,10887
0.058149155,10888
0.039700575,10889
0.030658945,10890
0.03807901,10891
0.31790632,10892
0.23025529,10893
0.20194227,10894
0.13596763,10895
0.1282306,10896
0.09980009,10897
0.082791194,10898
0.07703723,10899
0.04658535,10900
0.35141373,10901
0.34160745,10902
0.19425449,10903
0.102571696,10904
0.0748376,10905
0.06669155,10906
0.05129013,10907
0.034973923,10908
0.026665932,10909
0.20475283,10910
0.28109887,10911
0.23630284,10912
0.17519625,10913
0.13554731,10914
0.113373026,10915
0.086686514,10916
0.080105744,10917
0.056916166,10918
0.18271688,10919
0.37651283,10920
0.2551501,10921
0.13145256,10922
0.08308388,10923
0.07079241,10924
0.05730216,10925
0.04119405,10926
0.029715568,10927
0.08876191,10928
0.28707537,10929
0.24373128,10930
0.18396878,10931
0.14316188,10932
0.12231167,10933
0.09225951,10934
0.08123662,10935
0.06846491,10936
0.05388099,10937
0.3793368,10938
0.3239174,10939
0.16967094,10940
0.10216762,10941
0.072094604,10942
0.06852238,10943
0.045906257,10944
0.034118306,10945
0.025785018,10946
0.25705764,10947
0.27793083,10948
0.21878174,10949
0.16493927,10950
0.13959955,10951
0.12395867,10952
0.08829953,10953
0.08343931,10954
0.060897324,10955
0.21595585,10956
0.36333838,10957
0.2517964,10958
0.13270672,10959
0.08133085,10960
0.07104319,10961
0.054792743,10962
0.03718158,10963
0.029214062,10964
0.11281206,10965
0.30440682,10966
0.23005497,10967
0.18527767,10968
0.14254372,10969
0.11804622,10970
0.09063608,10971
0.08510956,10972
0.065449595,10973
0.06383571,10974
0.4009787,10975
0.3321983,10976
0.1674514,10977
0.096161656,10978
0.07117489,10979
0.06790677,10980
0.045818314,10981
0.03320015,10982
0.025232151,10983
0.267606,10984
0.25808194,10985
0.22041121,10986
0.16420053,10987
0.17342658,10988
0.43558404,10989
0.30359226,10990
0.16788553,10991
0.099462196,10992
0.12275768,10993
0.11672498,10994
0.08376769,10995
0.049922775,10996
0.032515034,10997
0.15795054,10998
0.12379164,10999
0.0710505,11000
0.04275023,11001
0.14420487,11002
0.28144443,11003
0.21571597,11004
0.17484735,11005
0.1386125,11006
0.12006321,11007
0.08863806,11008
0.081278056,11009
0.063138954,11010
0.07257495,11011
0.3975531,11012
0.3183643,11013
0.16679765,11014
0.08893307,11015
0.074003704,11016
0.0650903,11017
0.042721804,11018
0.033560865,11019
0.02285395,11020
0.30003485,11021
0.29317456,11022
0.22140917,11023
0.15054649,11024
0.13504004,11025
0.1155358,11026
0.08523479,11027
0.07889371,11028
0.054689806,11029
0.28783596,11030
0.33516023,11031
0.23541708,11032
0.111986525,11033
0.07686318,11034
0.067420594,11035
0.047644548,11036
0.033438396,11037
0.025560994,11038
0.18020907,11039
0.28803334,11040
0.21350126,11041
0.17326894,11042
0.13487826,11043
0.11828994,11044
0.08646823,11045
0.08506252,11046
0.066697136,11047
0.11020845,11048
0.3893703,11049
0.29432148,11050
0.15158182,11051
0.086109884,11052
0.071633704,11053
0.060944065,11054
0.039923474,11055
0.031528182,11056
0.023946993,11057
0.3015751,11058
0.27510765,11059
0.21282932,11060
0.14801207,11061
0.1310815,11062
0.10225478,11063
0.08470025,11064
0.07344035,11065
0.049998034,11066
0.3138577,11067
0.33452934,11068
0.21584837,11069
0.11236906,11070
0.078532316,11071
0.07076617,11072
0.044093758,11073
0.033803795,11074
0.026382428,11075
0.17656018,11076
0.25553697,11077
0.20850682,11078
0.15801792,11079
0.13619125,11080
0.11495014,11081
0.08571046,11082
0.081105076,11083
0.059542555,11084
0.13452928,11085
0.40533033,11086
0.27734748,11087
0.14573598,11088
0.085852794,11089
0.065019995,11090
0.06455975,11091
0.039123785,11092
0.03006347,11093
0.03304859,11094
0.34934497,11095
0.2682995,11096
0.21318695,11097
0.15904681,11098
0.12881002,11099
0.098965175,11100
0.08142592,11101
0.07081846,11102
0.056518916,11103
0.33770844,11104
0.344619,11105
0.20994684,11106
0.1071143,11107
0.07772804,11108
0.06477645,11109
0.045400787,11110
0.0321712,11111
0.023610422,11112
0.20316239,11113
0.2537389,11114
0.20745406,11115
0.16406079,11116
0.13156644,11117
0.11188533,11118
0.085950464,11119
0.07904503,11120
0.056679614,11121
0.1745486,11122
0.39206555,11123
0.25825512,11124
0.1426721,11125
0.085221395,11126
0.069595546,11127
0.05906363,11128
0.039910972,11129
0.029923284,11130
0.0668332,11131
0.32819116,11132
0.25399727,11133
0.20879385,11134
0.1628889,11135
0.12601456,11136
0.0996018,11137
0.08014757,11138
0.07264679,11139
0.054577675,11140
0.3604907,11141
0.33535743,11142
0.18236347,11143
0.10126541,11144
0.07417231,11145
0.06693608,11146
0.047452845,11147
0.035468895,11148
0.024735421,11149
0.2198425,11150
0.27329895,11151
0.19720648,11152
0.15391673,11153
0.1320803,11154
0.10874606,11155
0.08780563,11156
0.075971,11157
0.0556561,11158
0.20404148,11159
0.37917352,11160
0.26257157,11161
0.13389052,11162
0.08261153,11163
0.067440994,11164
0.0528629,11165
0.038488183,11166
0.028691921,11167
0.10874445,11168
0.3167112,11169
0.26947948,11170
0.19555493,11171
0.15277451,11172
0.12735786,11173
0.10204727,11174
0.08359733,11175
0.068513304,11176
0.048489556,11177
0.40086144,11178
0.32305902,11179
0.17320046,11180
0.09273424,11181
0.070718564,11182
0.06491329,11183
0.041058257,11184
0.030483533,11185
0.02179489,11186
0.2561512,11187
0.25785515,11188
0.1992472,11189
0.14921546,11190
0.13071825,11191
0.101191126,11192
0.08574061,11193
0.076235004,11194
0.057861276,11195
0.24454793,11196
0.3519851,11197
0.25093272,11198
0.12518522,11199
0.08001481,11200
0.07097308,11201
0.052410737,11202
0.03425563,11203
0.028074142,11204
0.13736615,11205
0.33251932,11206
0.24265537,11207
0.19501849,11208
0.15405183,11209
0.116774,11210
0.09054095,11211
0.08480979,11212
0.067005634,11213
0.07083198,11214
0.38805196,11215
0.3084807,11216
0.16450039,11217
0.09133879,11218
0.07236612,11219
0.061170418,11220
0.03799043,11221
0.029113028,11222
0.0223026,11223
0.26302883,11224
0.24759042,11225
0.19474111,11226
0.14904171,11227
0.12977795,11228
0.10320249,11229
0.08394528,11230
0.07345789,11231
0.058202825,11232
0.27232012,11233
0.34045732,11234
0.23727185,11235
0.11832887,11236
0.075416975,11237
0.07084257,11238
0.051882174,11239
0.03497057,11240
0.025870437,11241
0.1408351,11242
0.2778864,11243
0.24634442,11244
0.18356219,11245
0.1481049,11246
0.12426828,11247
0.09880946,11248
0.0861908,11249
0.06314955,11250
0.09871148,11251
0.38948274,11252
0.30356807,11253
0.14759651,11254
0.087757,11255
0.06815974,11256
0.05776035,11257
0.040848967,11258
0.029061928,11259
0.02158229,11260
0.27346584,11261
0.24668822,11262
0.2124043,11263
0.14151828,11264
0.12632461,11265
0.10228829,11266
0.0829158,11267
0.073384374,11268
0.052014437,11269
0.3033573,11270
0.33981985,11271
0.22688171,11272
0.1155358,11273
0.075182535,11274
0.06795008,11275
0.04971442,11276
0.035020985,11277
0.026986329,11278
0.18576363,11279
0.30852577,11280
0.24261358,11281
0.17737278,11282
0.14412186,11283
0.37375325,11284
0.3367001,11285
0.21546724,11286
0.12250856,11287
0.096528105,11288
0.14546594,11289
0.09358329,11290
0.06052323,11291
0.034698084,11292
0.1093948,11293
0.14929578,11294
0.08679126,11295
0.050959498,11296
0.045575857,11297
0.30783373,11298
0.34341457,11299
0.39308572,11300
0.33176142,11301
0.34720644,11302
0.3672777,11303
0.3482173,11304
0.32996136,11305
0.30319473,11306
0.44870946,11307
0.40441987,11308
0.3195662,11309
0.26233456,11310
0.22920977,11311
0.22621414,11312
0.20106266,11313
0.1927998,11314
0.1734665,11315
0.24048147,11316
0.21340458,11317
0.17862396,11318
0.1557185,11319
0.13977596,11320
0.13477431,11321
0.12245788,11322
0.101412095,11323
0.0965767,11324
0.19535075,11325
0.39195302,11326
0.28937736,11327
0.16031796,11328
0.097236946,11329
0.08178302,11330
0.071988136,11331
0.056863632,11332
0.04597964,11333
0.070417866,11334
0.14324868,11335
0.07948591,11336
0.053765476,11337
0.036302164,11338
0.029130945,11339
0.02783815,11340
0.025604116,11341
0.024473926,11342
0.020685567,11343
0.36089063,11344
0.32711044,11345
0.18955773,11346
0.09301232,11347
0.07098587,11348
0.06305394,11349
0.04465203,11350
0.029097658,11351
0.024789724,11352
0.14214313,11353
0.13251781,11354
0.09841465,11355
0.063852526,11356
0.036743112,11357
0.024877192,11358
0.01707521,11359
0.016684864,11360
0.012606192,11361
0.16982622,11362
0.3668979,11363
0.2568583,11364
0.12964004,11365
0.07938528,11366
0.06342718,11367
0.050820556,11368
0.031025786,11369
0.024768984,11370
0.075872906,11371
0.12733741,11372
0.07466488,11373
0.045232844,11374
0.025379166,11375
0.019465966,11376
0.0173808,11377
0.012511797,11378
0.011048525,11379
0.009104058,11380
0.38578588,11381
0.3287855,11382
0.1673361,11383
0.09379946,11384
0.06751122,11385
0.06258392,11386
0.040539294,11387
0.028044455,11388
0.02246373,11389
0.15136546,11390
0.13305044,11391
0.09850925,11392
0.060768813,11393
0.03453837,11394
0.024339052,11395
0.016154915,11396
0.014884614,11397
0.013447775,11398
0.21356955,11399
0.3567416,11400
0.24930373,11401
0.120035194,11402
0.0738785,11403
0.06350727,11404
0.04829659,11405
0.029743172,11406
0.023626402,11407
0.089576535,11408
0.11648907,11409
0.06756362,11410
0.04121744,11411
0.025400385,11412
0.018286726,11413
0.016641648,11414
0.013341132,11415
0.010039931,11416
0.025182385,11417
0.38873,11418
0.32175326,11419
0.16460784,11420
0.08666302,11421
0.06809113,11422
0.061817575,11423
0.038984943,11424
0.028404677,11425
0.020808663,11426
0.16330008,11427
0.12805726,11428
0.0937125,11429
0.05939597,11430
0.032951087,11431
0.02349779,11432
0.016082121,11433
0.013879919,11434
0.01411783,11435
0.2470754,11436
0.34268495,11437
0.23523638,11438
0.11456185,11439
0.07603384,11440
0.068131804,11441
0.04683628,11442
0.03154481,11443
0.025346419,11444
0.10639006,11445
0.11060393,11446
0.06878797,11447
0.038079973,11448
0.025514908,11449
0.018311832,11450
0.016294569,11451
0.013475153,11452
0.010427043,11453
0.05299862,11454
0.39507708,11455
0.31056792,11456
0.15290287,11457
0.084806986,11458
0.06588874,11459
0.059972852,11460
0.037035543,11461
0.028443657,11462
0.020606967,11463
0.18035159,11464
0.13132216,11465
0.098042086,11466
0.058235116,11467
0.037515882,11468
0.054677505,11469
0.036108192,11470
0.021821644,11471
0.017475024,11472
0.284495,11473
0.34179965,11474
0.22299114,11475
0.10885766,11476
0.073367774,11477
0.063322015,11478
0.04330486,11479
0.028364044,11480
0.022432279,11481
0.113328755,11482
0.106236376,11483
0.06195071,11484
0.035813164,11485
0.022218116,11486
0.019290755,11487
0.014572053,11488
0.01323344,11489
0.010173336,11490
0.09056933,11491
0.38437656,11492
0.2961822,11493
0.14312147,11494
0.08272486,11495
0.063427515,11496
0.056446258,11497
0.035650313,11498
0.026737586,11499
0.022136591,11500
0.18243052,11501
0.1196959,11502
0.09008796,11503
0.05250775,11504
0.029191295,11505
0.02181304,11506
0.015854402,11507
0.013146486,11508
0.012389421,11509
0.30394584,11510
0.3315947,11511
0.20485929,11512
0.105895355,11513
0.07133107,11514
0.063104436,11515
0.04134553,11516
0.028602958,11517
0.021729983,11518
0.12576863,11519
0.10739365,11520
0.060108498,11521
0.033844646,11522
0.022588471,11523
0.01974078,11524
0.014696508,11525
0.013015697,11526
0.009177451,11527
0.12229096,11528
0.39689952,11529
0.26369435,11530
0.13980865,11531
0.08058354,11532
0.06305746,11533
0.05531704,11534
0.03495852,11535
0.026528977,11536
0.03899264,11537
0.16896127,11538
0.11852853,11539
0.09053101,11540
0.051571794,11541
0.04482602,11542
0.06005287,11543
0.037246667,11544
0.024181565,11545
0.016463138,11546
0.33535165,11547
0.3224524,11548
0.19035731,11549
0.0989778,11550
0.070261724,11551
0.061318323,11552
0.040066503,11553
0.026525706,11554
0.021678915,11555
0.1353593,11556
0.0977993,11557
0.053833257,11558
0.03220555,11559
0.022475034,11560
0.018479737,11561
0.015060529,11562
0.012936589,11563
0.00823519,11564
0.16019186,11565
0.38002092,11566
0.25351223,11567
0.13163677,11568
0.0784784,11569
0.0634191,11570
0.054971978,11571
0.03520786,11572
0.025445472,11573
0.072831325,11574
0.15609074,11575
0.114758946,11576
0.08459427,11577
0.049043834,11578
0.21969557,11579
0.3760146,11580
0.22513656,11581
0.1267213,11582
0.075621,11583
0.13489838,11584
0.100841954,11585
0.05028882,11586
0.024089722,11587
0.056722462,11588
0.16335067,11589
0.103145316,11590
0.05779848,11591
0.032879602,11592
0.14393921,11593
0.107585445,11594
0.061078526,11595
0.038181916,11596
0.032131802,11597
0.025783315,11598
0.021227898,11599
0.019086136,11600
0.013176997,11601
0.19784312,11602
0.36421454,11603
0.2501244,11604
0.124909356,11605
0.08681428,11606
0.070144266,11607
0.05218053,11608
0.035862282,11609
0.028530978,11610
0.087806225,11611
0.15018262,11612
0.12094571,11613
0.09076312,11614
0.05311618,11615
0.052546296,11616
0.05389418,11617
0.0336993,11618
0.026602294,11619
0.028506532,11620
0.3925959,11621
0.31380698,11622
0.16820344,11623
0.09926456,11624
0.07213628,11625
0.06486839,11626
0.04095207,11627
0.031249885,11628
0.023544362,11629
0.14901951,11630
0.103441864,11631
0.060784318,11632
0.042919446,11633
0.038402032,11634
0.032333765,11635
0.025624322,11636
0.023145126,11637
0.016235247,11638
0.23654373,11639
0.33870018,11640
0.2419482,11641
0.1189658,11642
0.08840778,11643
0.07082966,11644
0.053074587,11645
0.03942098,11646
0.030812627,11647
0.10637106,11648
0.14354627,11649
0.116940714,11650
0.0824224,11651
0.056459554,11652
0.04269174,11653
0.034201626,11654
0.02739134,11655
0.023434201,11656
0.048879057,11657
0.39129436,11658
0.31536898,11659
0.15936273,11660
0.09641937,11661
0.07571682,11662
0.06564251,11663
0.043702934,11664
0.034437735,11665
0.023177411,11666
0.1613142,11667
0.10615145,11668
0.06670166,11669
0.04895492,11670
0.045496963,11671
0.037814543,11672
0.030112999,11673
0.026474616,11674
0.019124111,11675
0.27755424,11676
0.33807966,11677
0.23223473,11678
0.114872806,11679
0.09461089,11680
0.070254035,11681
0.05462266,11682
0.041535035,11683
0.03212653,11684
0.11535825,11685
0.14694719,11686
0.12166298,11687
0.085394084,11688
0.061056413,11689
0.04888097,11690
0.038050193,11691
0.032609858,11692
0.026678342,11693
0.08562565,11694
0.39666262,11695
0.2982019,11696
0.14772685,11697
0.10167592,11698
0.07839413,11699
0.06942276,11700
0.046158817,11701
0.03878725,11702
0.025446756,11703
0.16678052,11704
0.10209722,11705
0.075043105,11706
0.059157632,11707
0.054006293,11708
0.045291875,11709
0.0356855,11710
0.03240704,11711
0.02254633,11712
0.30229446,11713
0.3409253,11714
0.22831735,11715
0.1193646,11716
0.09742749,11717
0.07692676,11718
0.059118595,11719
0.046487443,11720
0.034667198,11721
0.12983407,11722
0.15462984,11723
0.123161316,11724
0.089075446,11725
0.07004645,11726
0.05680933,11727
0.04469949,11728
0.038143035,11729
0.031525347,11730
0.121535875,11731
0.39390618,11732
0.28123328,11733
0.14617863,11734
0.10819333,11735
0.08508609,11736
0.072468065,11737
0.051185228,11738
0.042115565,11739
0.044078212,11740
0.1699699,11741
0.110031016,11742
0.086247504,11743
0.07017272,11744
0.06531174,11745
0.05756033,11746
0.041969497,11747
0.03781809,11748
0.027204528,11749
0.33717206,11750
0.34723553,11751
0.205701,11752
0.12200965,11753
0.10416726,11754
0.08061138,11755
0.06372296,11756
0.051848285,11757
0.03825967,11758
0.14285903,11759
0.16502364,11760
0.13160361,11761
0.09593727,11762
0.083808035,11763
0.07744405,11764
0.068036675,11765
0.05182505,11766
0.03845484,11767
0.15971445,11768
0.3933927,11769
0.27950704,11770
0.14777282,11771
0.12495505,11772
0.0902906,11773
0.08031743,11774
0.06056383,11775
0.046948347,11776
0.07647682,11777
0.15648846,11778
0.11321378,11779
0.09863681,11780
0.08252743,11781
0.07958087,11782
0.066984355,11783
0.05218827,11784
0.047255084,11785
0.031786587,11786
0.36512962,11787
0.34049845,11788
0.20074716,11789
0.12734258,11790
0.109626494,11791
0.09084378,11792
0.069445156,11793
0.058162194,11794
0.04208978,11795
0.16157514,11796
0.1728275,11797
0.14058879,11798
0.10584931,11799
0.09672134,11800
0.07962643,11801
0.065947756,11802
0.055126034,11803
0.042958125,11804
0.1936407,11805
0.38240904,11806
0.27443165,11807
0.1486435,11808
0.13463122,11809
0.10719235,11810
0.08400516,11811
0.06764818,11812
0.053678755,11813
0.05510335,11814
0.12333534,11815
0.1277359,11816
0.11338631,11817
0.11056442,11818
0.11417906,11819
0.11416035,11820
0.12215873,11821
0.11909841,11822
0.11396054,11823
0.41373196,11824
0.36442238,11825
0.21305087,11826
0.16388968,11827
0.16506971,11828
0.15418725,11829
0.16489455,11830
0.16613533,11831
0.16345026,11832
0.17700472,11833
0.18342364,11834
0.19287921,11835
0.18261743,11836
0.19985922,11837
0.19329135,11838
0.19758525,11839
0.25109035,11840
0.24975622,11841
0.4092938,11842
0.47127974,11843
0.45845926,11844
0.40456924,11845
0.37475017,11846
0.38007712,11847
0.40426025,11848
0.43495697,11849
0.40129066,11850
0.4131112,11851
0.5027885,11852
0.48985747,11853
0.42702243,11854
0.2709037,11855
0.22829139,11856
0.22745754,11857
0.2032471,11858
0.19130704,11859
0.19041748,11860
0.42768425,11861
0.3643704,11862
0.2509983,11863
0.18182547,11864
0.2245171,11865
0.25525278,11866
0.2896363,11867
0.2795902,11868
0.25202477,11869
0.23430037,11870
0.22420907,11871
0.20352772,11872
0.1700498,11873
0.22178943,11874
0.43217748,11875
0.30749083,11876
0.21908252,11877
0.17131181,11878
0.23730338,11879
0.29047522,11880
0.29562885,11881
0.28514394,11882
0.24111633,11883
0.27711734,11884
0.2372344,11885
0.20475222,11886
0.18215112,11887
0.257401,11888
0.34139603,11889
0.38096744,11890
0.3932942,11891
0.35459983,11892
0.35201687,11893
0.34974784,11894
0.36152634,11895
0.3042959,11896
0.3186203,11897
0.29770246,11898
0.2990365,11899
0.2843854,11900
0.2340799,11901
0.20952527,11902
0.20837095,11903
0.19965044,11904
0.1884552,11905
0.1874678,11906
0.24805142,11907
0.18946335,11908
0.17229468,11909
0.14344011,11910
0.12626141,11911
0.11884987,11912
0.10748652,11913
0.100157484,11914
0.086008,11915
0.12658337,11916
0.13432331,11917
0.10018428,11918
0.07274757,11919
0.059599474,11920
0.059816238,11921
0.048420284,11922
0.043916374,11923
0.041812535,11924
0.12359924,11925
0.09648944,11926
0.06631487,11927
0.038132984,11928
0.032185394,11929
0.028497105,11930
0.025386697,11931
0.026427405,11932
0.021786604,11933
0.044942774,11934
0.12101249,11935
0.07763133,11936
0.03678009,11937
0.018181324,11938
0.012826751,11939
0.0113339545,11940
0.008353731,11941
0.009111132,11942
0.01771235,11943
0.17032044,11944
0.115024954,11945
0.084434696,11946
0.05070214,11947
0.02850923,11948
0.020359023,11949
0.013499575,11950
0.012119649,11951
0.007815753,11952
0.10762141,11953
0.09461336,11954
0.050576854,11955
0.022159461,11956
0.0100194765,11957
0.0052004713,11958
0.0034790502,11959
0.0026928182,11960
0.002333682,11961
0.122567944,11962
0.089561254,11963
0.057956792,11964
0.024859777,11965
0.019436982,11966
0.016295167,11967
0.01247265,11968
0.011845837,11969
0.007942789,11970
0.04725009,11971
0.11936699,11972
0.07224557,11973
0.033423785,11974
0.012211886,11975
0.0057347794,11976
0.003242496,11977
8.7363244E-4,11978
6.2577624E-4,11979
0.03786383,11980
0.15183927,11981
0.11121873,11982
0.07933681,11983
0.047917333,11984
0.026233392,11985
0.018264713,11986
0.011903028,11987
0.011164913,11988
0.0069899517,11989
0.11400821,11990
0.09376683,11991
0.04841506,11992
0.019734396,11993
0.008408364,11994
0.0040402096,11995
0.001681944,11996
2.832151E-4,11997
2.7810782E-4,11998
0.1281967,11999
0.08420981,12000
0.053789776,12001
0.023696665,12002
0.018805569,12003
0.015760187,12004
0.01256005,12005
0.012185372,12006
0.0071478994,12007
0.059159562,12008
0.11416393,12009
0.06856857,12010
0.031131608,12011
0.012071494,12012
0.0052658934,12013
0.00309309,12014
3.3693473E-4,12015
2.1981276E-4,12016
0.06404193,12017
0.13892527,12018
0.10854429,12019
0.079234645,12020
0.04567347,12021
0.025917375,12022
0.01774702,12023
0.01159708,12024
0.010328434,12025
0.006935835,12026
0.12491793,12027
0.08544622,12028
0.04447354,12029
0.018742464,12030
0.0076469393,12031
0.0037996133,12032
0.0014576531,12033
2.2598614E-4,12034
2.0355193E-4,12035
0.14039464,12036
0.08381376,12037
0.05266643,12038
0.023929954,12039
0.017342735,12040
0.016176404,12041
0.0117572015,12042
0.011877167,12043
0.007685177,12044
0.067517936,12045
0.11446736,12046
0.06444916,12047
0.028601037,12048
0.011322721,12049
0.0048890538,12050
0.0028357203,12051
3.098843E-4,12052
1.8822991E-4,12053
0.07962353,12054
0.12456257,12055
0.10623231,12056
0.0741786,12057
0.042007156,12058
0.024822988,12059
0.016973965,12060
0.012725288,12061
0.009452096,12062
0.009584761,12063
0.1300315,12064
0.087111354,12065
0.04164222,12066
0.016812343,12067
0.007239902,12068
0.0036218555,12069
0.0011983962,12070
2.1343747E-4,12071
3.6321493E-4,12072
0.14242394,12073
0.08160735,12074
0.045884896,12075
0.023217656,12076
0.017813016,12077
0.016363414,12078
0.0111173205,12079
0.011157706,12080
0.007776276,12081
0.07772499,12082
0.105985254,12083
0.05966445,12084
0.025953913,12085
0.010909001,12086
0.0043698195,12087
0.0025898605,12088
2.711558E-4,12089
1.9438993E-4,12090
0.099655285,12091
0.1261579,12092
0.10341888,12093
0.07073244,12094
0.0404744,12095
0.0237668,12096
0.015507288,12097
0.012728351,12098
0.009876846,12099
0.021360783,12100
0.12961023,12101
0.078198105,12102
0.039192464,12103
0.015606217,12104
0.006592279,12105
0.0036176466,12106
8.956323E-4,12107
2.087191E-4,12108
6.8542984E-4,12109
0.15446445,12110
0.07862516,12111
0.045865472,12112
0.022334404,12113
0.017580494,12114
0.015530868,12115
0.011832206,12116
0.010506119,12117
0.0070544537,12118
0.09363183,12119
0.09940016,12120
0.05796482,12121
0.023633575,12122
0.010232273,12123
0.0044217966,12124
0.002204013,12125
2.6416694E-4,12126
2.1478691E-4,12127
0.10641313,12128
0.12574963,12129
0.101694845,12130
0.067374,12131
0.039158504,12132
0.024114909,12133
0.014164739,12134
0.012584029,12135
0.009565266,12136
0.029834835,12137
0.11599649,12138
0.08429664,12139
0.03630717,12140
0.014370116,12141
0.006063597,12142
0.0034942837,12143
7.5794273E-4,12144
2.0158642E-4,12145
0.0033184364,12146
0.15593494,12147
0.07490098,12148
0.041121423,12149
0.022825465,12150
0.015930817,12151
0.015470768,12152
0.011852676,12153
0.011032712,12154
0.0065253833,12155
0.09969499,12156
0.10164756,12157
0.05085095,12158
0.022422941,12159
0.009498658,12160
0.004255294,12161
0.00198944,12162
2.4423935E-4,12163
1.9292471E-4,12164
0.12267955,12165
0.12100792,12166
0.09783403,12167
0.06582953,12168
0.035490524,12169
0.022766257,12170
0.014142943,12171
0.012170448,12172
0.008379587,12173
0.043075103,12174
0.121057644,12175
0.069395855,12176
0.03534575,12177
0.012817293,12178
0.005755809,12179
0.0033024424,12180
5.5453775E-4,12181
2.0766062E-4,12182
0.025737466,12183
0.14482051,12184
0.07337441,12185
0.041521903,12186
0.020931339,12187
0.016139122,12188
0.015340227,12189
0.011113921,12190
0.011178775,12191
0.0066859084,12192
0.11095432,12193
0.0954829,12194
0.049468905,12195
0.020075308,12196
0.008746756,12197
0.0042532943,12198
0.0017233072,12199
2.2594896E-4,12200
1.9506342E-4,12201
0.12981495,12202
0.11963959,12203
0.09279698,12204
0.061822265,12205
0.034345508,12206
0.021368178,12207
0.014538709,12208
0.012654814,12209
0.0073846253,12210
0.056084838,12211
0.11047586,12212
0.073246755,12213
0.031914838,12214
0.012285504,12215
0.00541014,12216
0.003139567,12217
3.932173E-4,12218
1.9258754E-4,12219
0.06072958,12220
0.11610803,12221
0.068029635,12222
0.03708292,12223
0.02034514,12224
0.017321253,12225
0.014515642,12226
0.010719241,12227
0.010336982,12228
0.00697947,12229
0.11837576,12230
0.09197101,12231
0.045795795,12232
0.018796246,12233
0.0079119215,12234
0.0038213439,12235
0.001538849,12236
2.2527073E-4,12237
2.0971002E-4,12238
0.14665437,12239
0.11624814,12240
0.09437344,12241
0.058339942,12242
0.032528743,12243
0.021232212,12244
0.013557902,12245
0.01254463,12246
0.0076719965,12247
0.065972716,12248
0.11381442,12249
0.0624692,12250
0.029455548,12251
0.011521933,12252
0.0049596294,12253
0.0029456578,12254
3.3327384E-4,12255
1.8710588E-4,12256
0.074977696,12257
0.110461906,12258
0.06921892,12259
0.03408152,12260
0.020131238,12261
0.016976979,12262
0.013934215,12263
0.011558974,12264
0.00938833,12265
0.008065516,12266
0.12837201,12267
0.08706634,12268
0.04236081,12269
0.017583203,12270
0.0072804214,12271
0.0037379449,12272
0.0012843693,12273
2.2571543E-4,12274
2.98794E-4,12275
0.15063623,12276
0.11962234,12277
0.09058702,12278
0.056384854,12279
0.030093059,12280
0.02127242,12281
0.012641653,12282
0.012003376,12283
0.007993226,12284
0.075414784,12285
0.10677025,12286
0.06465575,12287
0.027008768,12288
0.011324668,12289
0.0045756577,12290
0.0027454058,12291
2.768521E-4,12292
1.9670709E-4,12293
0.08926745,12294
0.102642514,12295
0.06466198,12296
0.029975237,12297
0.01996465,12298
0.015960291,12299
0.013562599,12300
0.012307669,12301
0.0093930485,12302
0.015985925,12303
0.12697522,12304
0.08312782,12305
0.040753163,12306
0.015982503,12307
0.0067041735,12308
0.0036631923,12309
9.906003E-4,12310
2.0996823E-4,12311
4.5590638E-4,12312
0.16304207,12313
0.11518954,12314
0.09220645,12315
0.054908674,12316
0.029050425,12317
0.020691192,12318
0.012592567,12319
0.011058199,12320
0.0074915923,12321
0.08931014,12322
0.10062914,12323
0.055632643,12324
0.024651792,12325
0.010448337,12326
0.004456462,12327
0.0023488807,12328
2.696941E-4,12329
1.9524388E-4,12330
0.10358311,12331
0.09700779,12332
0.064184524,12333
0.029500974,12334
0.01867156,12335
0.017400099,12336
0.012240202,12337
0.0120064635,12338
0.009600226,12339
0.027798643,12340
0.12288954,12341
0.080719486,12342
0.03802813,12343
0.014689136,12344
0.0061769667,12345
0.0034849714,12346
7.859349E-4,12347
2.0646641E-4,12348
7.563561E-4,12349
0.16958427,12350
0.11242427,12351
0.0823137,12352
0.052005544,12353
0.027495533,12354
0.019885918,12355
0.012788382,12356
0.011294022,12357
0.0067560426,12358
0.099140175,12359
0.101336695,12360
0.0536129,12361
0.02250203,12362
0.009687321,12363
0.0044096485,12364
0.0020029547,12365
2.5057438E-4,12366
1.9514644E-4,12367
0.111051954,12368
0.08984464,12369
0.05850915,12370
0.02700884,12371
0.018811366,12372
0.017291868,12373
0.011865252,12374
0.011793229,12375
0.0085029295,12376
0.039661627,12377
0.117390856,12378
0.0746908,12379
0.034251608,12380
0.012817317,12381
0.005761797,12382
0.0032959695,12383
5.7985657E-4,12384
2.0081413E-4,12385
0.019514527,12386
0.16805494,12387
0.11249643,12388
0.08213268,12389
0.048372656,12390
0.026300272,12391
0.019034868,12392
0.012233499,12393
0.011453063,12394
0.0067300987,12395
0.11054566,12396
0.09342538,12397
0.048242114,12398
0.021418119,12399
0.008896669,12400
0.004163606,12401
0.0017659322,12402
2.3271477E-4,12403
1.9067785E-4,12404
0.12313304,12405
0.08963596,12406
0.057438258,12407
0.024197256,12408
0.019668346,12409
0.015862793,12410
0.012644429,12411
0.011748318,12412
0.0074668787,12413
0.05248823,12414
0.11457167,12415
0.07358017,12416
0.03201023,12417
0.012347157,12418
0.0054763393,12419
0.003241823,12420
4.286076E-4,12421
1.9039393E-4,12422
0.052076545,12423
0.1361547,12424
0.110114224,12425
0.08013945,12426
0.04793115,12427
0.02615503,12428
0.01803655,12429
0.011643217,12430
0.01083239,12431
0.0070878426,12432
0.11749874,12433
0.09092199,12434
0.046784233,12435
0.018757997,12436
0.008088098,12437
0.0039656507,12438
0.0016182644,12439
2.3214903E-4,12440
1.9079092E-4,12441
0.13270138,12442
0.082173884,12443
0.050795592,12444
0.02437471,12445
0.017992435,12446
0.015949812,12447
0.012297819,12448
0.012280396,12449
0.007198478,12450
0.06276541,12451
0.11428645,12452
0.06502836,12453
0.030287948,12454
0.011828979,12455
0.005162492,12456
0.0029983444,12457
3.283656E-4,12458
1.9092424E-4,12459
0.072727434,12460
0.13341074,12461
0.106340855,12462
0.07736881,12463
0.043653328,12464
0.025017463,12465
0.0172666,12466
0.01190282,12467
0.009917016,12468
0.0071945465,12469
0.12721415,12470
0.0860049,12471
0.043460548,12472
0.017912405,12473
0.0075001996,12474
0.00368212,12475
0.0013819966,12476
2.2706515E-4,12477
3.0535334E-4,12478
0.14236908,12479
0.0857093,12480
0.050658975,12481
0.023194738,12482
0.017326493,12483
0.016311156,12484
0.011423205,12485
0.0116291065,12486
0.007863177,12487
0.07141391,12488
0.11308601,12489
0.0605564,12490
0.027391406,12491
0.011700275,12492
0.0048545743,12493
0.002834657,12494
2.9556913E-4,12495
2.0354109E-4,12496
0.08932886,12497
0.12342995,12498
0.103529125,12499
0.072098136,12500
0.0417119,12501
0.023855438,12502
0.016659042,12503
0.012975641,12504
0.009464692,12505
0.01212785,12506
0.12538554,12507
0.087233536,12508
0.040762626,12509
0.016626295,12510
0.0070327753,12511
0.003710481,12512
0.001109092,12513
2.231772E-4,12514
2.6011103E-4,12515
0.14665082,12516
0.079409495,12517
0.045590337,12518
0.02271009,12519
0.017961934,12520
0.016192129,12521
0.011219317,12522
0.01085459,12523
0.007533505,12524
0.08168102,12525
0.10602327,12526
0.05976428,12527
0.024908716,12528
0.010572913,12529
0.0045237695,12530
0.0024173222,12531
2.7087433E-4,12532
1.944047E-4,12533
0.10634818,12534
0.123547986,12535
0.10014317,12536
0.0703393,12537
0.039685246,12538
0.023695838,12539
0.015200192,12540
0.0125901,12541
0.00991406,12542
0.023759473,12543
0.12705551,12544
0.07820108,12545
0.03822858,12546
0.015232479,12547
0.0063759135,12548
0.0036285522,12549
8.852808E-4,12550
2.0570803E-4,12551
4.5621351E-4,12552
0.1591999,12553
0.076775685,12554
0.044250708,12555
0.022620078,12556
0.016965289,12557
0.015262121,12558
0.012097498,12559
0.010539497,12560
0.006827067,12561
0.09676654,12562
0.09998911,12563
0.055418223,12564
0.023049396,12565
0.009674506,12566
0.0044140583,12567
0.0021057702,12568
2.5828026E-4,12569
1.9719168E-4,12570
0.11094535,12571
0.12397436,12572
0.10033925,12573
0.06624267,12574
0.0367388,12575
0.024097802,12576
0.014049666,12577
0.0125331795,12578
0.009121484,12579
0.03518765,12580
0.11751874,12581
0.08237583,12582
0.03552417,12583
0.013545597,12584
0.006015813,12585
0.003311398,12586
6.616283E-4,12587
2.0564694E-4,12588
0.0102101425,12589
0.1537309,12590
0.07490929,12591
0.040504817,12592
0.022078006,12593
0.01577026,12594
0.015554688,12595
0.011539794,12596
0.011295586,12597
0.0064312196,12598
0.10150513,12599
0.10113666,12600
0.052209392,12601
0.021758474,12602
0.00917208,12603
0.004241352,12604
0.001857383,12605
2.41201E-4,12606
1.9786031E-4,12607
0.12429304,12608
0.12422727,12609
0.097346365,12610
0.06492118,12611
0.036706116,12612
0.022234976,12613
0.014493141,12614
0.012155694,12615
0.008002355,12616
0.048446167,12617
0.11835005,12618
0.06768653,12619
0.034231473,12620
0.012629763,12621
0.005440809,12622
0.0032452354,12623
5.1208923E-4,12624
1.9902106E-4,12625
0.041652896,12626
0.13250245,12627
0.07212248,12628
0.04006701,12629
0.020887401,12630
0.01665536,12631
0.015047139,12632
0.010908616,12633
0.010856635,12634
0.006917522,12635
0.11628442,12636
0.09286432,12637
0.048870236,12638
0.01991907,12639
0.008448059,12640
0.004038562,12641
0.0016197739,12642
2.3303989E-4,12643
1.8395083E-4,12644
0.13152628,12645
0.1167485,12646
0.09531133,12647
0.059678447,12648
0.033591397,12649
0.021759901,12650
0.0141743105,12651
0.01284093,12652
0.007263566,12653
0.06084881,12654
0.115133636,12655
0.069015674,12656
0.030547246,12657
0.0120447595,12658
0.005196746,12659
0.00308074,12660
3.688654E-4,12661
1.9129761E-4,12662
0.06317845,12663
0.11119294,12664
0.06831805,12665
0.03624707,12666
0.024072852,12667
0.02462259,12668
0.026451342,12669
0.030055543,12670
0.033247486,12671
0.041907016,12672
0.13498865,12673
0.11079144,12674
0.074804515,12675
0.06650962,12676
0.07352924,12677
0.076057196,12678
0.0954032,12679
0.10231369,12680
0.11578199,12681
0.18652785,12682
0.17194282,12683
0.15839556,12684
0.15956104,12685
0.14753404,12686
0.1518244,12687
0.15836452,12688
0.21271917,12689
0.21513979,12690
0.26862773,12691
0.283678,12692
0.3040496,12693
0.2594633,12694
0.3105295,12695
0.32762834,12696
0.36862895,12697
0.37955892,12698
0.38694096,12699
0.39766192,12700
0.42795813,12701
0.3788179,12702
0.31684384,12703
0.11948304,12704
0.06326024,12705
0.071838394,12706
0.07008834,12707
0.069876894,12708
0.07770735,12709
0.14410461,12710
0.1174067,12711
0.11356982,12712
0.09241185,12713
0.1654671,12714
0.13161139,12715
0.11364032,12716
0.077488065,12717
0.032102246,12718
0.027937872,12719
0.024667218,12720
0.02575795,12721
0.022211276,12722
0.022702511,12723
0.026287481,12724
0.028946346,12725
0.031924054,12726
0.029311836,12727
0.15409194,12728
0.13287477,12729
0.08202598,12730
0.038728148,12731
0.023548376,12732
0.018023916,12733
0.014909612,12734
0.013917779,12735
0.010339371,12736
0.09793874,12737
0.09717724,12738
0.06373588,12739
0.029817704,12740
0.022289136,12741
0.018739836,12742
0.017399728,12743
0.015117322,12744
0.011355825,12745
0.02027036,12746
0.11803087,12747
0.074415565,12748
0.038296398,12749
0.015947105,12750
0.12160101,12751
0.09048936,12752
0.059858214,12753
0.026187586,12754
0.019360263,12755
0.017418195,12756
0.012581125,12757
0.012197889,12758
0.008475658,12759
0.006119151,12760
0.0036394896,12761
0.0024737734,12762
0.0018491428,12763
0.0014710356,12764
0.15659685,12765
0.120997414,12766
0.0734575,12767
0.033452965,12768
0.02155809,12769
0.016752247,12770
0.012600638,12771
0.0123289935,12772
0.0072380765,12773
0.0055595497,12774
0.0036974212,12775
0.00207924,12776
0.0016824378,12777
0.0011949264,12778
8.7405974E-4,12779
5.8569765E-4,12780
4.655597E-4,12781
3.7842686E-4,12782
3.2560632E-4,12783
3.4063132E-4,12784
3.7222725E-4,12785
2.803454E-4,12786
1.3182465E-4,12787
9.541597E-5,12788
9.393445E-5,12789
9.1915936E-5,12790
8.590252E-5,12791
9.0990696E-5,12792
9.804429E-5,12793
1.1499705E-4,12794
1.2245635E-4,12795
1.1263786E-4,12796
1.1253189E-4,12797
1.1981869E-4,12798
1.2766583E-4,12799
1.043716E-4,12800
5.717347E-5,12801
5.3387044E-5,12802
5.0567913E-5,12803
4.9158236E-5,12804
4.676001E-5,12805
4.5891768E-5,12806
4.5637196E-5,12807
5.2066724E-5,12808
5.280251E-5,12809
5.0046747E-5,12810
5.1866667E-5,12811
5.2509826E-5,12812
6.0169717E-5,12813
5.311225E-5,12814
3.8527047E-5,12815
3.6478035E-5,12816
3.752957E-5,12817
3.7198388E-5,12818
3.4176606E-5,12819
3.151307E-5,12820
3.194237E-5,12821
3.419746E-5,12822
3.1565385E-5,12823
3.14854E-5,12824
3.5840127E-5,12825
3.6743873E-5,12826
3.4618322E-5,12827
3.276334E-5,12828
2.8959032E-5,12829
2.7384469E-5,12830
2.8916282E-5,12831
2.4315581E-5,12832
3.0175357E-5,12833
2.7649952E-5,12834
2.7532371E-5,12835
2.7803033E-5,12836
2.7918071E-5,12837
2.9928846E-5,12838
2.8314844E-5,12839
3.1161326E-5,12840
2.9386263E-5,12841
2.9987994E-5,12842
2.6682877E-5,12843
2.8976272E-5,12844
2.6960764E-5,12845
2.5843829E-5,12846
2.408001E-5,12847
2.3444785E-5,12848
2.5445015E-5,12849
2.8679608E-5,12850
3.0352548E-5,12851
2.7013504E-5,12852
2.620978E-5,12853
2.8612352E-5,12854
2.704476E-5,12855
3.0024188E-5,12856
2.6473266E-5,12857
2.8249131E-5,12858
2.7419657E-5,12859
2.7697903E-5,12860
2.8477036E-5,12861
2.7478154E-5,12862
2.5877704E-5,12863
2.7614988E-5,12864
3.0960433E-5,12865
2.7621936E-5,12866
2.74227E-5,12867
2.823672E-5,12868
2.4571067E-5,12869
2.515936E-5,12870
2.633373E-5,12871
2.9825029E-5,12872
2.8498162E-5,12873
3.0559335E-5,12874
2.578704E-5,12875
2.7041264E-5,12876
2.9902096E-5,12877
2.8482209E-5,12878
2.5696712E-5,12879
3.1353953E-5,12880
2.6166055E-5,12881
2.6902495E-5,12882
2.6853175E-5,12883
2.778862E-5,12884
2.586077E-5,12885
2.7123013E-5,12886
2.7075985E-5,12887
3.0842195E-5,12888
2.7749076E-5,12889
2.5270192E-5,12890
2.7514912E-5,12891
2.9228615E-5,12892
2.4501513E-5,12893
2.8843075E-5,12894
2.8283712E-5,12895
2.8582022E-5,12896
2.833091E-5,12897
2.9083632E-5,12898
2.6985836E-5,12899
2.9914952E-5,12900
2.3141405E-5,12901
2.6972126E-5,12902
2.8417067E-5,12903
2.757071E-5,12904
2.6716947E-5,12905
2.5000967E-5,12906
2.7560494E-5,12907
2.8649727E-5,12908
2.4044462E-5,12909
2.9583047E-5,12910
2.7275455E-5,12911
2.4495102E-5,12912
2.6567077E-5,12913
2.3461853E-5,12914
2.6340282E-5,12915
2.7901358E-5,12916
2.5849944E-5,12917
2.7066648E-5,12918
2.6256035E-5,12919
2.6767899E-5,12920
2.6621858E-5,12921
1.0636238E-5,12922
