@RELATION 'Music feature'
%rows=1
%columns=12922
%sample_rate=22050
%window_size=512
%step_size=512

@ATTRIBUTE 'Zero-crossing rate' NUMERIC
@ATTRIBUTE WindowNumber NUMERIC

@DATA
0.0,1
0.1923828125,2
0.23828125,3
0.4091796875,4
0.65625,5
0.67578125,6
0.693359375,7
0.673828125,8
0.62109375,9
0.68359375,10
0.716796875,11
0.740234375,12
0.68359375,13
0.67578125,14
0.705078125,15
0.728515625,16
0.74609375,17
0.67578125,18
0.724609375,19
0.669921875,20
0.697265625,21
0.703125,22
0.6796875,23
0.701171875,24
0.68359375,25
0.689453125,26
0.71875,27
0.693359375,28
0.681640625,29
0.314453125,30
0.388671875,31
0.22265625,32
0.23046875,33
0.24609375,34
0.40625,35
0.55859375,36
0.59765625,37
0.4296875,38
0.431640625,39
0.458984375,40
0.33203125,41
0.23046875,42
0.150390625,43
0.248046875,44
0.36328125,45
0.275390625,46
0.09375,47
0.181640625,48
0.25,49
0.15625,50
0.181640625,51
0.138671875,52
0.220703125,53
0.265625,54
0.173828125,55
0.1640625,56
0.17578125,57
0.203125,58
0.37109375,59
0.443359375,60
0.244140625,61
0.1171875,62
0.234375,63
0.103515625,64
0.12109375,65
0.130859375,66
0.177734375,67
0.24609375,68
0.16015625,69
0.22265625,70
0.150390625,71
0.185546875,72
0.26171875,73
0.28515625,74
0.166015625,75
0.17578125,76
0.171875,77
0.150390625,78
0.091796875,79
0.140625,80
0.080078125,81
0.119140625,82
0.10546875,83
0.12890625,84
0.130859375,85
0.123046875,86
0.208984375,87
0.193359375,88
0.099609375,89
0.10546875,90
0.181640625,91
0.125,92
0.119140625,93
0.21875,94
0.126953125,95
0.04296875,96
0.08984375,97
0.029296875,98
0.056640625,99
0.052734375,100
0.076171875,101
0.029296875,102
0.025390625,103
0.015625,104
0.03515625,105
0.103515625,106
0.029296875,107
0.041015625,108
0.1953125,109
0.140625,110
0.1796875,111
0.119140625,112
0.08203125,113
0.029296875,114
0.025390625,115
0.013671875,116
0.01171875,117
0.005859375,118
0.005859375,119
0.005859375,120
0.01171875,121
0.013671875,122
0.021484375,123
0.015625,124
0.00390625,125
0.005859375,126
0.005859375,127
0.0078125,128
0.00390625,129
0.01171875,130
0.078125,131
0.068359375,132
0.017578125,133
0.015625,134
0.0078125,135
0.013671875,136
0.0078125,137
0.009765625,138
0.005859375,139
0.005859375,140
0.021484375,141
0.017578125,142
0.009765625,143
0.005859375,144
0.005859375,145
0.00390625,146
0.0234375,147
0.01171875,148
0.04296875,149
0.09765625,150
0.03125,151
0.015625,152
0.0078125,153
0.005859375,154
0.005859375,155
0.005859375,156
0.005859375,157
0.005859375,158
0.005859375,159
0.01171875,160
0.015625,161
0.005859375,162
0.005859375,163
0.005859375,164
0.005859375,165
0.005859375,166
0.005859375,167
0.068359375,168
0.07421875,169
0.015625,170
0.037109375,171
0.0078125,172
0.013671875,173
0.01171875,174
0.0078125,175
0.00390625,176
0.005859375,177
0.009765625,178
0.021484375,179
0.005859375,180
0.005859375,181
0.005859375,182
0.00390625,183
0.015625,184
0.03125,185
0.0859375,186
0.060546875,187
0.01953125,188
0.015625,189
0.0078125,190
0.0078125,191
0.005859375,192
0.00390625,193
0.005859375,194
0.005859375,195
0.005859375,196
0.025390625,197
0.013671875,198
0.005859375,199
0.005859375,200
0.005859375,201
0.005859375,202
0.005859375,203
0.005859375,204
0.068359375,205
0.083984375,206
0.017578125,207
0.0390625,208
0.005859375,209
0.009765625,210
0.013671875,211
0.005859375,212
0.00390625,213
0.00390625,214
0.01953125,215
0.01171875,216
0.0078125,217
0.005859375,218
0.009765625,219
0.0078125,220
0.005859375,221
0.005859375,222
0.048828125,223
0.05859375,224
0.03125,225
0.015625,226
0.005859375,227
0.0078125,228
0.005859375,229
0.005859375,230
0.00390625,231
0.005859375,232
0.009765625,233
0.021484375,234
0.009765625,235
0.005859375,236
0.005859375,237
0.005859375,238
0.005859375,239
0.005859375,240
0.005859375,241
0.05859375,242
0.0859375,243
0.017578125,244
0.0390625,245
0.005859375,246
0.015625,247
0.01171875,248
0.005859375,249
0.005859375,250
0.005859375,251
0.017578125,252
0.013671875,253
0.005859375,254
0.005859375,255
0.00390625,256
0.005859375,257
0.005859375,258
0.0078125,259
0.083984375,260
0.037109375,261
0.041015625,262
0.009765625,263
0.0078125,264
0.005859375,265
0.005859375,266
0.005859375,267
0.005859375,268
0.00390625,269
0.005859375,270
0.03125,271
0.01171875,272
0.0078125,273
0.00390625,274
0.0078125,275
0.00390625,276
0.0078125,277
0.005859375,278
0.078125,279
0.07421875,280
0.03125,281
0.01953125,282
0.0078125,283
0.009765625,284
0.01171875,285
0.005859375,286
0.005859375,287
0.005859375,288
0.013671875,289
0.021484375,290
0.005859375,291
0.005859375,292
0.00390625,293
0.005859375,294
0.017578125,295
0.009765625,296
0.015625,297
0.005859375,298
0.005859375,299
0.0078125,300
0.00390625,301
0.005859375,302
0.009765625,303
0.01171875,304
0.01171875,305
0.015625,306
0.009765625,307
0.005859375,308
0.005859375,309
0.005859375,310
0.009765625,311
0.005859375,312
0.005859375,313
0.005859375,314
0.005859375,315
0.005859375,316
0.0078125,317
0.01171875,318
0.005859375,319
0.021484375,320
0.0078125,321
0.005859375,322
0.005859375,323
0.005859375,324
0.009765625,325
0.005859375,326
0.005859375,327
0.005859375,328
0.005859375,329
0.00390625,330
0.009765625,331
0.005859375,332
0.013671875,333
0.013671875,334
0.0078125,335
0.005859375,336
0.005859375,337
0.005859375,338
0.0078125,339
0.013671875,340
0.005859375,341
0.013671875,342
0.015625,343
0.009765625,344
0.005859375,345
0.005859375,346
0.005859375,347
0.009765625,348
0.005859375,349
0.005859375,350
0.005859375,351
0.005859375,352
0.005859375,353
0.0078125,354
0.01171875,355
0.01171875,356
0.015625,357
0.0078125,358
0.00390625,359
0.0078125,360
0.00390625,361
0.01171875,362
0.00390625,363
0.0078125,364
0.00390625,365
0.0078125,366
0.01171875,367
0.005859375,368
0.005859375,369
0.00390625,370
0.080078125,371
0.04296875,372
0.0234375,373
0.005859375,374
0.0078125,375
0.005859375,376
0.005859375,377
0.005859375,378
0.00390625,379
0.005859375,380
0.013671875,381
0.025390625,382
0.005859375,383
0.005859375,384
0.005859375,385
0.005859375,386
0.005859375,387
0.005859375,388
0.029296875,389
0.068359375,390
0.0546875,391
0.02734375,392
0.01953125,393
0.01171875,394
0.01171875,395
0.009765625,396
0.005859375,397
0.005859375,398
0.009765625,399
0.025390625,400
0.009765625,401
0.005859375,402
0.005859375,403
0.00390625,404
0.005859375,405
0.005859375,406
0.015625,407
0.103515625,408
0.029296875,409
0.017578125,410
0.005859375,411
0.0078125,412
0.005859375,413
0.005859375,414
0.005859375,415
0.00390625,416
0.005859375,417
0.009765625,418
0.01953125,419
0.01171875,420
0.00390625,421
0.0078125,422
0.00390625,423
0.0078125,424
0.005859375,425
0.04296875,426
0.076171875,427
0.04296875,428
0.04296875,429
0.009765625,430
0.01171875,431
0.013671875,432
0.0078125,433
0.005859375,434
0.005859375,435
0.009765625,436
0.013671875,437
0.009765625,438
0.005859375,439
0.005859375,440
0.00390625,441
0.005859375,442
0.015625,443
0.015625,444
0.09765625,445
0.03515625,446
0.021484375,447
0.0078125,448
0.005859375,449
0.005859375,450
0.005859375,451
0.005859375,452
0.005859375,453
0.00390625,454
0.01953125,455
0.013671875,456
0.005859375,457
0.005859375,458
0.005859375,459
0.005859375,460
0.005859375,461
0.005859375,462
0.05078125,463
0.080078125,464
0.017578125,465
0.03125,466
0.015625,467
0.009765625,468
0.009765625,469
0.009765625,470
0.00390625,471
0.005859375,472
0.009765625,473
0.017578125,474
0.009765625,475
0.005859375,476
0.005859375,477
0.005859375,478
0.005859375,479
0.01953125,480
0.02734375,481
0.1015625,482
0.029296875,483
0.017578125,484
0.005859375,485
0.0078125,486
0.005859375,487
0.005859375,488
0.00390625,489
0.005859375,490
0.005859375,491
0.013671875,492
0.029296875,493
0.005859375,494
0.005859375,495
0.005859375,496
0.005859375,497
0.005859375,498
0.005859375,499
0.060546875,500
0.0859375,501
0.0234375,502
0.025390625,503
0.015625,504
0.009765625,505
0.009765625,506
0.009765625,507
0.005859375,508
0.00390625,509
0.005859375,510
0.015625,511
0.009765625,512
0.005859375,513
0.0078125,514
0.009765625,515
0.005859375,516
0.005859375,517
0.00390625,518
0.1015625,519
0.03515625,520
0.021484375,521
0.005859375,522
0.0078125,523
0.005859375,524
0.005859375,525
0.005859375,526
0.00390625,527
0.009765625,528
0.021484375,529
0.009765625,530
0.005859375,531
0.005859375,532
0.005859375,533
0.005859375,534
0.00390625,535
0.0078125,536
0.048828125,537
0.09375,538
0.013671875,539
0.0390625,540
0.009765625,541
0.013671875,542
0.009765625,543
0.009765625,544
0.005859375,545
0.005859375,546
0.009765625,547
0.017578125,548
0.009765625,549
0.005859375,550
0.005859375,551
0.00390625,552
0.005859375,553
0.009765625,554
0.041015625,555
0.078125,556
0.03515625,557
0.01953125,558
0.0078125,559
0.005859375,560
0.005859375,561
0.005859375,562
0.005859375,563
0.00390625,564
0.0078125,565
0.0234375,566
0.01953125,567
0.00390625,568
0.0078125,569
0.00390625,570
0.0078125,571
0.005859375,572
0.005859375,573
0.06640625,574
0.083984375,575
0.0234375,576
0.033203125,577
0.0078125,578
0.009765625,579
0.009765625,580
0.0078125,581
0.005859375,582
0.005859375,583
0.013671875,584
0.01953125,585
0.0078125,586
0.005859375,587
0.005859375,588
0.00390625,589
0.013671875,590
0.0078125,591
0.091796875,592
0.072265625,593
0.0390625,594
0.015625,595
0.0078125,596
0.005859375,597
0.005859375,598
0.005859375,599
0.005859375,600
0.005859375,601
0.009765625,602
0.021484375,603
0.009765625,604
0.005859375,605
0.005859375,606
0.005859375,607
0.005859375,608
0.005859375,609
0.005859375,610
0.064453125,611
0.083984375,612
0.013671875,613
0.029296875,614
0.0078125,615
0.009765625,616
0.013671875,617
0.005859375,618
0.00390625,619
0.005859375,620
0.013671875,621
0.029296875,622
0.0078125,623
0.00390625,624
0.005859375,625
0.00390625,626
0.01171875,627
0.005859375,628
0.0703125,629
0.060546875,630
0.0234375,631
0.017578125,632
0.005859375,633
0.0078125,634
0.005859375,635
0.00390625,636
0.005859375,637
0.005859375,638
0.005859375,639
0.029296875,640
0.017578125,641
0.005859375,642
0.005859375,643
0.005859375,644
0.005859375,645
0.005859375,646
0.005859375,647
0.0703125,648
0.0703125,649
0.017578125,650
0.02734375,651
0.005859375,652
0.013671875,653
0.013671875,654
0.005859375,655
0.005859375,656
0.00390625,657
0.01171875,658
0.017578125,659
0.005859375,660
0.005859375,661
0.009765625,662
0.0078125,663
0.005859375,664
0.005859375,665
0.04296875,666
0.064453125,667
0.01953125,668
0.015625,669
0.0078125,670
0.005859375,671
0.005859375,672
0.005859375,673
0.00390625,674
0.005859375,675
0.025390625,676
0.0703125,677
0.08203125,678
0.033203125,679
0.0078125,680
0.013671875,681
0.009765625,682
0.0078125,683
0.005859375,684
0.0703125,685
0.083984375,686
0.01171875,687
0.03515625,688
0.009765625,689
0.005859375,690
0.00390625,691
0.005859375,692
0.00390625,693
0.025390625,694
0.103515625,695
0.06640625,696
0.044921875,697
0.021484375,698
0.0078125,699
0.009765625,700
0.013671875,701
0.015625,702
0.0859375,703
0.05859375,704
0.01171875,705
0.013671875,706
0.0078125,707
0.005859375,708
0.005859375,709
0.005859375,710
0.005859375,711
0.00390625,712
0.025390625,713
0.072265625,714
0.0859375,715
0.0234375,716
0.013671875,717
0.009765625,718
0.0078125,719
0.009765625,720
0.0078125,721
0.072265625,722
0.06640625,723
0.029296875,724
0.015625,725
0.0078125,726
0.005859375,727
0.005859375,728
0.00390625,729
0.005859375,730
0.029296875,731
0.083984375,732
0.087890625,733
0.046875,734
0.025390625,735
0.0078125,736
0.009765625,737
0.015625,738
0.017578125,739
0.09375,740
0.072265625,741
0.01171875,742
0.01953125,743
0.005859375,744
0.0078125,745
0.00390625,746
0.005859375,747
0.005859375,748
0.0078125,749
0.025390625,750
0.12109375,751
0.064453125,752
0.0234375,753
0.013671875,754
0.009765625,755
0.0078125,756
0.009765625,757
0.0078125,758
0.083984375,759
0.0625,760
0.02734375,761
0.01953125,762
0.005859375,763
0.005859375,764
0.005859375,765
0.00390625,766
0.005859375,767
0.037109375,768
0.08203125,769
0.072265625,770
0.056640625,771
0.01953125,772
0.009765625,773
0.00390625,774
0.015625,775
0.013671875,776
0.173828125,777
0.044921875,778
0.01953125,779
0.009765625,780
0.0078125,781
0.005859375,782
0.005859375,783
0.00390625,784
0.005859375,785
0.021484375,786
0.037109375,787
0.107421875,788
0.03515625,789
0.021484375,790
0.009765625,791
0.0078125,792
0.009765625,793
0.0078125,794
0.02734375,795
0.06640625,796
0.05859375,797
0.02734375,798
0.0234375,799
0.005859375,800
0.005859375,801
0.005859375,802
0.005859375,803
0.00390625,804
0.033203125,805
0.087890625,806
0.07421875,807
0.056640625,808
0.009765625,809
0.013671875,810
0.0078125,811
0.0078125,812
0.009765625,813
0.0859375,814
0.078125,815
0.015625,816
0.009765625,817
0.0078125,818
0.005859375,819
0.005859375,820
0.005859375,821
0.00390625,822
0.021484375,823
0.06640625,824
0.080078125,825
0.0390625,826
0.025390625,827
0.013671875,828
0.0078125,829
0.009765625,830
0.0078125,831
0.044921875,832
0.0703125,833
0.05078125,834
0.03125,835
0.015625,836
0.0078125,837
0.005859375,838
0.00390625,839
0.005859375,840
0.005859375,841
0.03125,842
0.087890625,843
0.068359375,844
0.0546875,845
0.009765625,846
0.005859375,847
0.009765625,848
0.013671875,849
0.025390625,850
0.1171875,851
0.052734375,852
0.0234375,853
0.009765625,854
0.005859375,855
0.005859375,856
0.005859375,857
0.005859375,858
0.00390625,859
0.017578125,860
0.080078125,861
0.0546875,862
0.037109375,863
0.01953125,864
0.017578125,865
0.009765625,866
0.0078125,867
0.01171875,868
0.044921875,869
0.0859375,870
0.03515625,871
0.02734375,872
0.01953125,873
0.005859375,874
0.005859375,875
0.005859375,876
0.00390625,877
0.005859375,878
0.041015625,879
0.078125,880
0.091796875,881
0.05859375,882
0.00390625,883
0.013671875,884
0.005859375,885
0.015625,886
0.033203125,887
0.150390625,888
0.05078125,889
0.0234375,890
0.005859375,891
0.005859375,892
0.0078125,893
0.00390625,894
0.005859375,895
0.005859375,896
0.01171875,897
0.095703125,898
0.0703125,899
0.044921875,900
0.01953125,901
0.015625,902
0.0078125,903
0.009765625,904
0.009765625,905
0.0625,906
0.0703125,907
0.017578125,908
0.021484375,909
0.015625,910
0.005859375,911
0.005859375,912
0.005859375,913
0.00390625,914
0.005859375,915
0.025390625,916
0.087890625,917
0.109375,918
0.0234375,919
0.009765625,920
0.0078125,921
0.0078125,922
0.013671875,923
0.0234375,924
0.1171875,925
0.0390625,926
0.017578125,927
0.005859375,928
0.0078125,929
0.005859375,930
0.005859375,931
0.00390625,932
0.005859375,933
0.025390625,934
0.068359375,935
0.076171875,936
0.0390625,937
0.021484375,938
0.013671875,939
0.0078125,940
0.01171875,941
0.009765625,942
0.056640625,943
0.080078125,944
0.0234375,945
0.03515625,946
0.01171875,947
0.0078125,948
0.00390625,949
0.005859375,950
0.005859375,951
0.00390625,952
0.037109375,953
0.109375,954
0.080078125,955
0.01953125,956
0.013671875,957
0.0078125,958
0.0078125,959
0.009765625,960
0.0078125,961
0.109375,962
0.060546875,963
0.015625,964
0.01171875,965
0.005859375,966
0.005859375,967
0.005859375,968
0.005859375,969
0.00390625,970
0.025390625,971
0.07421875,972
0.060546875,973
0.04296875,974
0.025390625,975
0.013671875,976
0.009765625,977
0.009765625,978
0.009765625,979
0.06640625,980
0.0859375,981
0.013671875,982
0.02734375,983
0.013671875,984
0.0078125,985
0.005859375,986
0.00390625,987
0.005859375,988
0.025390625,989
0.01953125,990
0.140625,991
0.046875,992
0.021484375,993
0.0078125,994
0.009765625,995
0.009765625,996
0.013671875,997
0.125,998
0.07421875,999
0.03125,1000
0.015625,1001
0.0078125,1002
0.005859375,1003
0.005859375,1004
0.005859375,1005
0.005859375,1006
0.00390625,1007
0.025390625,1008
0.068359375,1009
0.0625,1010
0.037109375,1011
0.01953125,1012
0.013671875,1013
0.01171875,1014
0.009765625,1015
0.0078125,1016
0.068359375,1017
0.076171875,1018
0.015625,1019
0.033203125,1020
0.0078125,1021
0.005859375,1022
0.005859375,1023
0.005859375,1024
0.00390625,1025
0.025390625,1026
0.07421875,1027
0.091796875,1028
0.05078125,1029
0.021484375,1030
0.005859375,1031
0.00390625,1032
0.009765625,1033
0.013671875,1034
0.07421875,1035
0.06640625,1036
0.0390625,1037
0.015625,1038
0.01171875,1039
0.0078125,1040
0.005859375,1041
0.00390625,1042
0.005859375,1043
0.005859375,1044
0.02734375,1045
0.083984375,1046
0.06640625,1047
0.046875,1048
0.01953125,1049
0.009765625,1050
0.009765625,1051
0.009765625,1052
0.009765625,1053
0.068359375,1054
0.076171875,1055
0.013671875,1056
0.033203125,1057
0.0078125,1058
0.005859375,1059
0.005859375,1060
0.005859375,1061
0.00390625,1062
0.025390625,1063
0.08984375,1064
0.07421875,1065
0.048828125,1066
0.01953125,1067
0.009765625,1068
0.00390625,1069
0.013671875,1070
0.01171875,1071
0.16015625,1072
0.044921875,1073
0.02734375,1074
0.015625,1075
0.0078125,1076
0.005859375,1077
0.005859375,1078
0.005859375,1079
0.00390625,1080
0.005859375,1081
0.029296875,1082
0.06640625,1083
0.064453125,1084
0.05078125,1085
0.005859375,1086
0.01171875,1087
0.009765625,1088
0.0078125,1089
0.009765625,1090
0.0625,1091
0.07421875,1092
0.017578125,1093
0.03515625,1094
0.005859375,1095
0.0078125,1096
0.00390625,1097
0.005859375,1098
0.00390625,1099
0.021484375,1100
0.087890625,1101
0.0703125,1102
0.056640625,1103
0.01953125,1104
0.009765625,1105
0.0078125,1106
0.0078125,1107
0.0078125,1108
0.060546875,1109
0.09375,1110
0.013671875,1111
0.015625,1112
0.0078125,1113
0.005859375,1114
0.005859375,1115
0.005859375,1116
0.00390625,1117
0.005859375,1118
0.033203125,1119
0.078125,1120
0.08203125,1121
0.037109375,1122
0.017578125,1123
0.0078125,1124
0.009765625,1125
0.009765625,1126
0.0078125,1127
0.07421875,1128
0.07421875,1129
0.015625,1130
0.0390625,1131
0.0078125,1132
0.005859375,1133
0.00390625,1134
0.005859375,1135
0.005859375,1136
0.01953125,1137
0.095703125,1138
0.072265625,1139
0.046875,1140
0.021484375,1141
0.00390625,1142
0.009765625,1143
0.013671875,1144
0.0234375,1145
0.09765625,1146
0.0625,1147
0.015625,1148
0.013671875,1149
0.0078125,1150
0.005859375,1151
0.005859375,1152
0.005859375,1153
0.005859375,1154
0.00390625,1155
0.029296875,1156
0.083984375,1157
0.09375,1158
0.015625,1159
0.013671875,1160
0.009765625,1161
0.0078125,1162
0.009765625,1163
0.0078125,1164
0.080078125,1165
0.0703125,1166
0.029296875,1167
0.0234375,1168
0.005859375,1169
0.005859375,1170
0.005859375,1171
0.00390625,1172
0.005859375,1173
0.033203125,1174
0.078125,1175
0.087890625,1176
0.046875,1177
0.025390625,1178
0.0078125,1179
0.005859375,1180
0.013671875,1181
0.015625,1182
0.14453125,1183
0.07421875,1184
0.013671875,1185
0.015625,1186
0.005859375,1187
0.0078125,1188
0.00390625,1189
0.013671875,1190
0.021484375,1191
0.021484375,1192
0.0234375,1193
0.142578125,1194
0.107421875,1195
0.0625,1196
0.146484375,1197
0.064453125,1198
0.072265625,1199
0.078125,1200
0.09375,1201
0.08984375,1202
0.08203125,1203
0.08984375,1204
0.046875,1205
0.033203125,1206
0.060546875,1207
0.041015625,1208
0.037109375,1209
0.08984375,1210
0.205078125,1211
0.232421875,1212
0.203125,1213
0.1796875,1214
0.40625,1215
0.451171875,1216
0.58203125,1217
0.59375,1218
0.490234375,1219
0.30859375,1220
0.205078125,1221
0.16015625,1222
0.166015625,1223
0.06640625,1224
0.029296875,1225
0.064453125,1226
0.056640625,1227
0.0625,1228
0.087890625,1229
0.056640625,1230
0.07421875,1231
0.11328125,1232
0.025390625,1233
0.130859375,1234
0.09765625,1235
0.154296875,1236
0.13671875,1237
0.34375,1238
0.109375,1239
0.072265625,1240
0.078125,1241
0.04296875,1242
0.029296875,1243
0.0234375,1244
0.015625,1245
0.01953125,1246
0.01171875,1247
0.080078125,1248
0.142578125,1249
0.205078125,1250
0.103515625,1251
0.337890625,1252
0.123046875,1253
0.08984375,1254
0.08984375,1255
0.1015625,1256
0.15625,1257
0.169921875,1258
0.126953125,1259
0.103515625,1260
0.16015625,1261
0.072265625,1262
0.107421875,1263
0.146484375,1264
0.1015625,1265
0.271484375,1266
0.134765625,1267
0.291015625,1268
0.2421875,1269
0.06640625,1270
0.08984375,1271
0.205078125,1272
0.1015625,1273
0.140625,1274
0.234375,1275
0.111328125,1276
0.0625,1277
0.0859375,1278
0.037109375,1279
0.05859375,1280
0.056640625,1281
0.0546875,1282
0.013671875,1283
0.037109375,1284
0.162109375,1285
0.197265625,1286
0.123046875,1287
0.107421875,1288
0.044921875,1289
0.1796875,1290
0.1640625,1291
0.169921875,1292
0.177734375,1293
0.12890625,1294
0.017578125,1295
0.021484375,1296
0.0078125,1297
0.033203125,1298
0.005859375,1299
0.009765625,1300
0.017578125,1301
0.009765625,1302
0.09765625,1303
0.15625,1304
0.181640625,1305
0.072265625,1306
0.041015625,1307
0.021484375,1308
0.025390625,1309
0.013671875,1310
0.009765625,1311
0.048828125,1312
0.08984375,1313
0.0234375,1314
0.04296875,1315
0.0078125,1316
0.005859375,1317
0.017578125,1318
0.0078125,1319
0.005859375,1320
0.005859375,1321
0.146484375,1322
0.169921875,1323
0.1640625,1324
0.068359375,1325
0.037109375,1326
0.30078125,1327
0.1953125,1328
0.142578125,1329
0.158203125,1330
0.099609375,1331
0.037109375,1332
0.021484375,1333
0.005859375,1334
0.009765625,1335
0.0078125,1336
0.00390625,1337
0.009765625,1338
0.005859375,1339
0.115234375,1340
0.146484375,1341
0.220703125,1342
0.083984375,1343
0.048828125,1344
0.009765625,1345
0.017578125,1346
0.013671875,1347
0.009765625,1348
0.060546875,1349
0.109375,1350
0.02734375,1351
0.052734375,1352
0.015625,1353
0.005859375,1354
0.009765625,1355
0.005859375,1356
0.005859375,1357
0.0078125,1358
0.193359375,1359
0.21484375,1360
0.1953125,1361
0.052734375,1362
0.0390625,1363
0.326171875,1364
0.201171875,1365
0.201171875,1366
0.271484375,1367
0.109375,1368
0.04296875,1369
0.021484375,1370
0.005859375,1371
0.015625,1372
0.005859375,1373
0.005859375,1374
0.00390625,1375
0.005859375,1376
0.126953125,1377
0.150390625,1378
0.1953125,1379
0.099609375,1380
0.041015625,1381
0.009765625,1382
0.013671875,1383
0.017578125,1384
0.013671875,1385
0.0703125,1386
0.080078125,1387
0.01953125,1388
0.0546875,1389
0.005859375,1390
0.005859375,1391
0.009765625,1392
0.013671875,1393
0.005859375,1394
0.056640625,1395
0.130859375,1396
0.166015625,1397
0.189453125,1398
0.044921875,1399
0.029296875,1400
0.033203125,1401
0.0234375,1402
0.025390625,1403
0.017578125,1404
0.09765625,1405
0.025390625,1406
0.021484375,1407
0.0078125,1408
0.009765625,1409
0.005859375,1410
0.005859375,1411
0.005859375,1412
0.00390625,1413
0.138671875,1414
0.18359375,1415
0.1484375,1416
0.0625,1417
0.05078125,1418
0.0078125,1419
0.015625,1420
0.04296875,1421
0.033203125,1422
0.0625,1423
0.072265625,1424
0.0234375,1425
0.041015625,1426
0.0078125,1427
0.005859375,1428
0.0234375,1429
0.009765625,1430
0.009765625,1431
0.056640625,1432
0.162109375,1433
0.158203125,1434
0.166015625,1435
0.056640625,1436
0.119140625,1437
0.20703125,1438
0.125,1439
0.19140625,1440
0.1328125,1441
0.0859375,1442
0.03125,1443
0.015625,1444
0.0078125,1445
0.005859375,1446
0.013671875,1447
0.005859375,1448
0.009765625,1449
0.013671875,1450
0.150390625,1451
0.236328125,1452
0.171875,1453
0.119140625,1454
0.029296875,1455
0.021484375,1456
0.017578125,1457
0.025390625,1458
0.025390625,1459
0.076171875,1460
0.08203125,1461
0.0390625,1462
0.021484375,1463
0.0078125,1464
0.005859375,1465
0.017578125,1466
0.013671875,1467
0.00390625,1468
0.083984375,1469
0.166015625,1470
0.2109375,1471
0.1640625,1472
0.060546875,1473
0.119140625,1474
0.17578125,1475
0.17578125,1476
0.22265625,1477
0.16015625,1478
0.076171875,1479
0.041015625,1480
0.021484375,1481
0.005859375,1482
0.01171875,1483
0.009765625,1484
0.009765625,1485
0.0078125,1486
0.009765625,1487
0.142578125,1488
0.23828125,1489
0.126953125,1490
0.111328125,1491
0.037109375,1492
0.064453125,1493
0.029296875,1494
0.033203125,1495
0.021484375,1496
0.076171875,1497
0.083984375,1498
0.025390625,1499
0.01953125,1500
0.005859375,1501
0.021484375,1502
0.052734375,1503
0.017578125,1504
0.013671875,1505
0.08203125,1506
0.16015625,1507
0.212890625,1508
0.09375,1509
0.021484375,1510
0.099609375,1511
0.1328125,1512
0.12109375,1513
0.205078125,1514
0.173828125,1515
0.0703125,1516
0.01953125,1517
0.015625,1518
0.0078125,1519
0.005859375,1520
0.005859375,1521
0.013671875,1522
0.0078125,1523
0.013671875,1524
0.181640625,1525
0.193359375,1526
0.12890625,1527
0.0859375,1528
0.044921875,1529
0.044921875,1530
0.03515625,1531
0.0234375,1532
0.029296875,1533
0.0859375,1534
0.091796875,1535
0.03515625,1536
0.046875,1537
0.009765625,1538
0.1328125,1539
0.16015625,1540
0.060546875,1541
0.025390625,1542
0.017578125,1543
0.072265625,1544
0.087890625,1545
0.033203125,1546
0.009765625,1547
0.091796875,1548
0.078125,1549
0.033203125,1550
0.021484375,1551
0.0703125,1552
0.052734375,1553
0.033203125,1554
0.005859375,1555
0.015625,1556
0.005859375,1557
0.009765625,1558
0.013671875,1559
0.005859375,1560
0.015625,1561
0.212890625,1562
0.20703125,1563
0.173828125,1564
0.05078125,1565
0.01171875,1566
0.06640625,1567
0.04296875,1568
0.0234375,1569
0.029296875,1570
0.07421875,1571
0.09375,1572
0.03125,1573
0.03515625,1574
0.01171875,1575
0.029296875,1576
0.03125,1577
0.009765625,1578
0.005859375,1579
0.115234375,1580
0.177734375,1581
0.193359375,1582
0.087890625,1583
0.029296875,1584
0.1953125,1585
0.14453125,1586
0.134765625,1587
0.08984375,1588
0.099609375,1589
0.0625,1590
0.03515625,1591
0.0234375,1592
0.005859375,1593
0.005859375,1594
0.0234375,1595
0.021484375,1596
0.009765625,1597
0.0390625,1598
0.177734375,1599
0.193359375,1600
0.177734375,1601
0.052734375,1602
0.044921875,1603
0.044921875,1604
0.052734375,1605
0.025390625,1606
0.037109375,1607
0.06640625,1608
0.1015625,1609
0.04296875,1610
0.01171875,1611
0.009765625,1612
0.0234375,1613
0.02734375,1614
0.01171875,1615
0.005859375,1616
0.119140625,1617
0.220703125,1618
0.169921875,1619
0.09765625,1620
0.05859375,1621
0.197265625,1622
0.103515625,1623
0.1328125,1624
0.150390625,1625
0.1484375,1626
0.046875,1627
0.029296875,1628
0.013671875,1629
0.009765625,1630
0.015625,1631
0.017578125,1632
0.0078125,1633
0.013671875,1634
0.091796875,1635
0.18359375,1636
0.138671875,1637
0.146484375,1638
0.041015625,1639
0.037109375,1640
0.025390625,1641
0.046875,1642
0.01953125,1643
0.03125,1644
0.072265625,1645
0.05078125,1646
0.046875,1647
0.0078125,1648
0.005859375,1649
0.021484375,1650
0.009765625,1651
0.005859375,1652
0.00390625,1653
0.12890625,1654
0.27734375,1655
0.13671875,1656
0.091796875,1657
0.0390625,1658
0.16015625,1659
0.16015625,1660
0.08984375,1661
0.11328125,1662
0.14453125,1663
0.0390625,1664
0.02734375,1665
0.017578125,1666
0.0078125,1667
0.005859375,1668
0.009765625,1669
0.013671875,1670
0.00390625,1671
0.134765625,1672
0.138671875,1673
0.2109375,1674
0.119140625,1675
0.041015625,1676
0.044921875,1677
0.041015625,1678
0.017578125,1679
0.01953125,1680
0.04296875,1681
0.05859375,1682
0.03125,1683
0.05078125,1684
0.01171875,1685
0.01171875,1686
0.01171875,1687
0.013671875,1688
0.009765625,1689
0.005859375,1690
0.166015625,1691
0.22265625,1692
0.134765625,1693
0.099609375,1694
0.072265625,1695
0.06640625,1696
0.025390625,1697
0.021484375,1698
0.021484375,1699
0.08203125,1700
0.037109375,1701
0.021484375,1702
0.009765625,1703
0.0078125,1704
0.009765625,1705
0.025390625,1706
0.013671875,1707
0.00390625,1708
0.126953125,1709
0.1875,1710
0.16015625,1711
0.05859375,1712
0.015625,1713
0.05859375,1714
0.0234375,1715
0.03515625,1716
0.009765625,1717
0.046875,1718
0.078125,1719
0.02734375,1720
0.04296875,1721
0.009765625,1722
0.015625,1723
0.021484375,1724
0.00390625,1725
0.009765625,1726
0.009765625,1727
0.193359375,1728
0.201171875,1729
0.119140625,1730
0.099609375,1731
0.064453125,1732
0.1484375,1733
0.12890625,1734
0.115234375,1735
0.111328125,1736
0.125,1737
0.04296875,1738
0.041015625,1739
0.009765625,1740
0.013671875,1741
0.005859375,1742
0.005859375,1743
0.013671875,1744
0.009765625,1745
0.130859375,1746
0.19921875,1747
0.23828125,1748
0.099609375,1749
0.076171875,1750
0.048828125,1751
0.033203125,1752
0.033203125,1753
0.013671875,1754
0.0625,1755
0.09765625,1756
0.033203125,1757
0.0625,1758
0.01171875,1759
0.009765625,1760
0.041015625,1761
0.025390625,1762
0.00390625,1763
0.005859375,1764
0.208984375,1765
0.212890625,1766
0.150390625,1767
0.0703125,1768
0.072265625,1769
0.140625,1770
0.09765625,1771
0.09765625,1772
0.09765625,1773
0.115234375,1774
0.029296875,1775
0.025390625,1776
0.005859375,1777
0.0078125,1778
0.025390625,1779
0.0234375,1780
0.005859375,1781
0.013671875,1782
0.099609375,1783
0.185546875,1784
0.197265625,1785
0.087890625,1786
0.029296875,1787
0.021484375,1788
0.041015625,1789
0.017578125,1790
0.017578125,1791
0.052734375,1792
0.078125,1793
0.046875,1794
0.048828125,1795
0.01171875,1796
0.005859375,1797
0.025390625,1798
0.025390625,1799
0.013671875,1800
0.029296875,1801
0.1640625,1802
0.1640625,1803
0.125,1804
0.037109375,1805
0.05078125,1806
0.095703125,1807
0.06640625,1808
0.109375,1809
0.07421875,1810
0.1015625,1811
0.03515625,1812
0.025390625,1813
0.005859375,1814
0.01171875,1815
0.005859375,1816
0.009765625,1817
0.005859375,1818
0.00390625,1819
0.126953125,1820
0.201171875,1821
0.126953125,1822
0.060546875,1823
0.013671875,1824
0.03515625,1825
0.03125,1826
0.029296875,1827
0.02734375,1828
0.056640625,1829
0.080078125,1830
0.03125,1831
0.02734375,1832
0.005859375,1833
0.115234375,1834
0.125,1835
0.1015625,1836
0.017578125,1837
0.033203125,1838
0.056640625,1839
0.083984375,1840
0.041015625,1841
0.013671875,1842
0.083984375,1843
0.052734375,1844
0.04296875,1845
0.091796875,1846
0.037109375,1847
0.09375,1848
0.09375,1849
0.05078125,1850
0.0078125,1851
0.005859375,1852
0.005859375,1853
0.005859375,1854
0.013671875,1855
0.0078125,1856
0.150390625,1857
0.166015625,1858
0.12109375,1859
0.14453125,1860
0.099609375,1861
0.041015625,1862
0.021484375,1863
0.03125,1864
0.01953125,1865
0.080078125,1866
0.095703125,1867
0.0234375,1868
0.033203125,1869
0.01171875,1870
0.005859375,1871
0.033203125,1872
0.009765625,1873
0.015625,1874
0.111328125,1875
0.185546875,1876
0.248046875,1877
0.11328125,1878
0.134765625,1879
0.123046875,1880
0.1640625,1881
0.08203125,1882
0.123046875,1883
0.15234375,1884
0.056640625,1885
0.04296875,1886
0.0390625,1887
0.0078125,1888
0.005859375,1889
0.009765625,1890
0.005859375,1891
0.005859375,1892
0.005859375,1893
0.18359375,1894
0.177734375,1895
0.13671875,1896
0.12109375,1897
0.099609375,1898
0.064453125,1899
0.03125,1900
0.033203125,1901
0.015625,1902
0.0859375,1903
0.083984375,1904
0.033203125,1905
0.044921875,1906
0.0078125,1907
0.013671875,1908
0.021484375,1909
0.009765625,1910
0.0078125,1911
0.130859375,1912
0.212890625,1913
0.169921875,1914
0.11328125,1915
0.091796875,1916
0.16796875,1917
0.103515625,1918
0.080078125,1919
0.072265625,1920
0.107421875,1921
0.080078125,1922
0.0390625,1923
0.02734375,1924
0.0078125,1925
0.005859375,1926
0.017578125,1927
0.01171875,1928
0.009765625,1929
0.013671875,1930
0.181640625,1931
0.19140625,1932
0.166015625,1933
0.1953125,1934
0.123046875,1935
0.068359375,1936
0.04296875,1937
0.015625,1938
0.017578125,1939
0.08203125,1940
0.1171875,1941
0.060546875,1942
0.01953125,1943
0.013671875,1944
0.017578125,1945
0.01953125,1946
0.005859375,1947
0.00390625,1948
0.146484375,1949
0.193359375,1950
0.1796875,1951
0.158203125,1952
0.109375,1953
0.130859375,1954
0.080078125,1955
0.078125,1956
0.04296875,1957
0.10546875,1958
0.083984375,1959
0.021484375,1960
0.04296875,1961
0.0078125,1962
0.005859375,1963
0.009765625,1964
0.005859375,1965
0.0078125,1966
0.013671875,1967
0.173828125,1968
0.1875,1969
0.1640625,1970
0.123046875,1971
0.099609375,1972
0.03125,1973
0.048828125,1974
0.0078125,1975
0.009765625,1976
0.08984375,1977
0.044921875,1978
0.06640625,1979
0.02734375,1980
0.009765625,1981
0.017578125,1982
0.0078125,1983
0.009765625,1984
0.005859375,1985
0.1484375,1986
0.201171875,1987
0.19140625,1988
0.123046875,1989
0.11328125,1990
0.080078125,1991
0.02734375,1992
0.044921875,1993
0.0390625,1994
0.06640625,1995
0.1015625,1996
0.013671875,1997
0.02734375,1998
0.0078125,1999
0.005859375,2000
0.013671875,2001
0.009765625,2002
0.005859375,2003
0.0234375,2004
0.205078125,2005
0.16796875,2006
0.154296875,2007
0.095703125,2008
0.119140625,2009
0.041015625,2010
0.0234375,2011
0.017578125,2012
0.0234375,2013
0.080078125,2014
0.0859375,2015
0.060546875,2016
0.021484375,2017
0.0078125,2018
0.013671875,2019
0.013671875,2020
0.00390625,2021
0.009765625,2022
0.189453125,2023
0.16796875,2024
0.142578125,2025
0.1328125,2026
0.12109375,2027
0.125,2028
0.095703125,2029
0.09375,2030
0.099609375,2031
0.091796875,2032
0.068359375,2033
0.03515625,2034
0.01953125,2035
0.005859375,2036
0.01171875,2037
0.0078125,2038
0.013671875,2039
0.025390625,2040
0.044921875,2041
0.1875,2042
0.212890625,2043
0.09765625,2044
0.09765625,2045
0.119140625,2046
0.033203125,2047
0.03515625,2048
0.025390625,2049
0.017578125,2050
0.091796875,2051
0.05859375,2052
0.046875,2053
0.01953125,2054
0.009765625,2055
0.009765625,2056
0.017578125,2057
0.00390625,2058
0.013671875,2059
0.193359375,2060
0.146484375,2061
0.11328125,2062
0.08984375,2063
0.099609375,2064
0.11328125,2065
0.0625,2066
0.044921875,2067
0.046875,2068
0.09765625,2069
0.037109375,2070
0.02734375,2071
0.013671875,2072
0.0078125,2073
0.005859375,2074
0.005859375,2075
0.01953125,2076
0.009765625,2077
0.064453125,2078
0.177734375,2079
0.173828125,2080
0.099609375,2081
0.099609375,2082
0.119140625,2083
0.02734375,2084
0.041015625,2085
0.0390625,2086
0.0625,2087
0.08203125,2088
0.064453125,2089
0.06640625,2090
0.0078125,2091
0.025390625,2092
0.013671875,2093
0.013671875,2094
0.005859375,2095
0.0078125,2096
0.177734375,2097
0.224609375,2098
0.10546875,2099
0.111328125,2100
0.08984375,2101
0.1171875,2102
0.1015625,2103
0.09765625,2104
0.076171875,2105
0.09375,2106
0.072265625,2107
0.037109375,2108
0.0234375,2109
0.0078125,2110
0.005859375,2111
0.009765625,2112
0.009765625,2113
0.0078125,2114
0.099609375,2115
0.18359375,2116
0.1640625,2117
0.09375,2118
0.119140625,2119
0.064453125,2120
0.01171875,2121
0.013671875,2122
0.01171875,2123
0.048828125,2124
0.072265625,2125
0.068359375,2126
0.05859375,2127
0.013671875,2128
0.0703125,2129
0.099609375,2130
0.046875,2131
0.013671875,2132
0.064453125,2133
0.107421875,2134
0.0859375,2135
0.0625,2136
0.0546875,2137
0.119140625,2138
0.125,2139
0.107421875,2140
0.05859375,2141
0.046875,2142
0.087890625,2143
0.056640625,2144
0.02734375,2145
0.009765625,2146
0.005859375,2147
0.005859375,2148
0.009765625,2149
0.005859375,2150
0.0078125,2151
0.130859375,2152
0.212890625,2153
0.15234375,2154
0.115234375,2155
0.1015625,2156
0.130859375,2157
0.052734375,2158
0.03515625,2159
0.04296875,2160
0.052734375,2161
0.095703125,2162
0.044921875,2163
0.06640625,2164
0.015625,2165
0.017578125,2166
0.025390625,2167
0.005859375,2168
0.0078125,2169
0.009765625,2170
0.251953125,2171
0.171875,2172
0.119140625,2173
0.12109375,2174
0.08984375,2175
0.16796875,2176
0.1015625,2177
0.076171875,2178
0.068359375,2179
0.11328125,2180
0.0625,2181
0.048828125,2182
0.0234375,2183
0.005859375,2184
0.01953125,2185
0.0078125,2186
0.021484375,2187
0.009765625,2188
0.12890625,2189
0.224609375,2190
0.1640625,2191
0.126953125,2192
0.119140625,2193
0.115234375,2194
0.048828125,2195
0.025390625,2196
0.01953125,2197
0.0625,2198
0.08203125,2199
0.0234375,2200
0.048828125,2201
0.03125,2202
0.005859375,2203
0.025390625,2204
0.005859375,2205
0.00390625,2206
0.037109375,2207
0.212890625,2208
0.17578125,2209
0.20703125,2210
0.10546875,2211
0.064453125,2212
0.080078125,2213
0.0625,2214
0.06640625,2215
0.05078125,2216
0.083984375,2217
0.0625,2218
0.044921875,2219
0.005859375,2220
0.0078125,2221
0.009765625,2222
0.021484375,2223
0.00390625,2224
0.005859375,2225
0.1484375,2226
0.181640625,2227
0.150390625,2228
0.11328125,2229
0.189453125,2230
0.08984375,2231
0.0390625,2232
0.025390625,2233
0.015625,2234
0.0703125,2235
0.056640625,2236
0.05078125,2237
0.0703125,2238
0.013671875,2239
0.0078125,2240
0.015625,2241
0.013671875,2242
0.005859375,2243
0.044921875,2244
0.1875,2245
0.177734375,2246
0.130859375,2247
0.0703125,2248
0.083984375,2249
0.08203125,2250
0.04296875,2251
0.060546875,2252
0.05859375,2253
0.0859375,2254
0.0625,2255
0.0234375,2256
0.01171875,2257
0.005859375,2258
0.005859375,2259
0.017578125,2260
0.005859375,2261
0.00390625,2262
0.173828125,2263
0.162109375,2264
0.181640625,2265
0.12109375,2266
0.166015625,2267
0.068359375,2268
0.0390625,2269
0.0234375,2270
0.029296875,2271
0.072265625,2272
0.052734375,2273
0.037109375,2274
0.0625,2275
0.021484375,2276
0.0078125,2277
0.025390625,2278
0.0078125,2279
0.009765625,2280
0.080078125,2281
0.23046875,2282
0.240234375,2283
0.13671875,2284
0.126953125,2285
0.12890625,2286
0.060546875,2287
0.0390625,2288
0.046875,2289
0.02734375,2290
0.076171875,2291
0.0390625,2292
0.03515625,2293
0.0078125,2294
0.005859375,2295
0.013671875,2296
0.017578125,2297
0.005859375,2298
0.0078125,2299
0.173828125,2300
0.162109375,2301
0.14453125,2302
0.16015625,2303
0.126953125,2304
0.072265625,2305
0.03515625,2306
0.021484375,2307
0.01953125,2308
0.087890625,2309
0.068359375,2310
0.03515625,2311
0.041015625,2312
0.0078125,2313
0.013671875,2314
0.021484375,2315
0.009765625,2316
0.015625,2317
0.1171875,2318
0.201171875,2319
0.2109375,2320
0.10546875,2321
0.107421875,2322
0.12109375,2323
0.056640625,2324
0.048828125,2325
0.052734375,2326
0.103515625,2327
0.06640625,2328
0.056640625,2329
0.029296875,2330
0.0078125,2331
0.0078125,2332
0.005859375,2333
0.00390625,2334
0.009765625,2335
0.005859375,2336
0.1875,2337
0.177734375,2338
0.125,2339
0.1484375,2340
0.10546875,2341
0.0625,2342
0.029296875,2343
0.033203125,2344
0.013671875,2345
0.076171875,2346
0.083984375,2347
0.017578125,2348
0.037109375,2349
0.013671875,2350
0.015625,2351
0.01171875,2352
0.005859375,2353
0.0078125,2354
0.134765625,2355
0.20703125,2356
0.13671875,2357
0.126953125,2358
0.078125,2359
0.125,2360
0.154296875,2361
0.068359375,2362
0.068359375,2363
0.080078125,2364
0.072265625,2365
0.052734375,2366
0.03125,2367
0.0078125,2368
0.013671875,2369
0.005859375,2370
0.017578125,2371
0.0078125,2372
0.013671875,2373
0.244140625,2374
0.19140625,2375
0.115234375,2376
0.119140625,2377
0.103515625,2378
0.078125,2379
0.037109375,2380
0.03125,2381
0.064453125,2382
0.13671875,2383
0.08203125,2384
0.083984375,2385
0.078125,2386
0.037109375,2387
0.03125,2388
0.02734375,2389
0.021484375,2390
0.056640625,2391
0.2578125,2392
0.1953125,2393
0.21484375,2394
0.224609375,2395
0.4375,2396
0.29296875,2397
0.400390625,2398
0.396484375,2399
0.40234375,2400
0.365234375,2401
0.20703125,2402
0.1484375,2403
0.203125,2404
0.046875,2405
0.044921875,2406
0.056640625,2407
0.072265625,2408
0.099609375,2409
0.080078125,2410
0.173828125,2411
0.1953125,2412
0.197265625,2413
0.0859375,2414
0.1015625,2415
0.16015625,2416
0.16015625,2417
0.205078125,2418
0.298828125,2419
0.158203125,2420
0.146484375,2421
0.078125,2422
0.06640625,2423
0.05078125,2424
0.080078125,2425
0.041015625,2426
0.041015625,2427
0.025390625,2428
0.09765625,2429
0.13671875,2430
0.193359375,2431
0.171875,2432
0.2578125,2433
0.189453125,2434
0.083984375,2435
0.154296875,2436
0.0703125,2437
0.10546875,2438
0.21484375,2439
0.166015625,2440
0.130859375,2441
0.140625,2442
0.083984375,2443
0.099609375,2444
0.119140625,2445
0.138671875,2446
0.15234375,2447
0.232421875,2448
0.20703125,2449
0.263671875,2450
0.119140625,2451
0.083984375,2452
0.126953125,2453
0.173828125,2454
0.13671875,2455
0.177734375,2456
0.15234375,2457
0.171875,2458
0.169921875,2459
0.0703125,2460
0.037109375,2461
0.064453125,2462
0.078125,2463
0.01953125,2464
0.033203125,2465
0.123046875,2466
0.224609375,2467
0.171875,2468
0.12890625,2469
0.037109375,2470
0.19921875,2471
0.1328125,2472
0.1171875,2473
0.091796875,2474
0.173828125,2475
0.150390625,2476
0.09765625,2477
0.03125,2478
0.060546875,2479
0.02734375,2480
0.005859375,2481
0.017578125,2482
0.013671875,2483
0.109375,2484
0.19921875,2485
0.177734375,2486
0.111328125,2487
0.060546875,2488
0.033203125,2489
0.013671875,2490
0.029296875,2491
0.025390625,2492
0.021484375,2493
0.1484375,2494
0.1171875,2495
0.13671875,2496
0.0546875,2497
0.033203125,2498
0.041015625,2499
0.033203125,2500
0.025390625,2501
0.01171875,2502
0.123046875,2503
0.203125,2504
0.15625,2505
0.078125,2506
0.046875,2507
0.09375,2508
0.078125,2509
0.0859375,2510
0.05078125,2511
0.197265625,2512
0.0859375,2513
0.0625,2514
0.044921875,2515
0.0703125,2516
0.025390625,2517
0.041015625,2518
0.037109375,2519
0.01171875,2520
0.126953125,2521
0.146484375,2522
0.189453125,2523
0.095703125,2524
0.033203125,2525
0.048828125,2526
0.03125,2527
0.05078125,2528
0.021484375,2529
0.033203125,2530
0.162109375,2531
0.107421875,2532
0.15234375,2533
0.03125,2534
0.01953125,2535
0.03125,2536
0.041015625,2537
0.017578125,2538
0.033203125,2539
0.142578125,2540
0.232421875,2541
0.123046875,2542
0.111328125,2543
0.0703125,2544
0.115234375,2545
0.07421875,2546
0.1015625,2547
0.1328125,2548
0.220703125,2549
0.095703125,2550
0.052734375,2551
0.033203125,2552
0.06640625,2553
0.013671875,2554
0.037109375,2555
0.013671875,2556
0.0078125,2557
0.095703125,2558
0.220703125,2559
0.24609375,2560
0.12109375,2561
0.0390625,2562
0.015625,2563
0.0546875,2564
0.03515625,2565
0.021484375,2566
0.072265625,2567
0.154296875,2568
0.08203125,2569
0.11328125,2570
0.041015625,2571
0.03125,2572
0.072265625,2573
0.03515625,2574
0.044921875,2575
0.037109375,2576
0.158203125,2577
0.19921875,2578
0.09765625,2579
0.087890625,2580
0.044921875,2581
0.080078125,2582
0.025390625,2583
0.0234375,2584
0.037109375,2585
0.193359375,2586
0.08984375,2587
0.080078125,2588
0.0546875,2589
0.068359375,2590
0.013671875,2591
0.029296875,2592
0.037109375,2593
0.01953125,2594
0.115234375,2595
0.19921875,2596
0.240234375,2597
0.068359375,2598
0.052734375,2599
0.060546875,2600
0.072265625,2601
0.021484375,2602
0.037109375,2603
0.083984375,2604
0.197265625,2605
0.0859375,2606
0.12109375,2607
0.0625,2608
0.025390625,2609
0.048828125,2610
0.037109375,2611
0.005859375,2612
0.009765625,2613
0.162109375,2614
0.201171875,2615
0.1328125,2616
0.095703125,2617
0.05859375,2618
0.14453125,2619
0.091796875,2620
0.111328125,2621
0.109375,2622
0.234375,2623
0.130859375,2624
0.060546875,2625
0.021484375,2626
0.025390625,2627
0.0390625,2628
0.01171875,2629
0.029296875,2630
0.021484375,2631
0.158203125,2632
0.19140625,2633
0.267578125,2634
0.056640625,2635
0.099609375,2636
0.033203125,2637
0.060546875,2638
0.021484375,2639
0.029296875,2640
0.126953125,2641
0.20703125,2642
0.0859375,2643
0.142578125,2644
0.05078125,2645
0.060546875,2646
0.060546875,2647
0.037109375,2648
0.033203125,2649
0.01171875,2650
0.185546875,2651
0.30859375,2652
0.138671875,2653
0.044921875,2654
0.0703125,2655
0.14453125,2656
0.10546875,2657
0.109375,2658
0.109375,2659
0.162109375,2660
0.1640625,2661
0.103515625,2662
0.013671875,2663
0.08203125,2664
0.013671875,2665
0.052734375,2666
0.037109375,2667
0.01171875,2668
0.111328125,2669
0.1875,2670
0.197265625,2671
0.091796875,2672
0.029296875,2673
0.078125,2674
0.01953125,2675
0.029296875,2676
0.009765625,2677
0.1015625,2678
0.166015625,2679
0.046875,2680
0.13671875,2681
0.021484375,2682
0.017578125,2683
0.056640625,2684
0.048828125,2685
0.017578125,2686
0.048828125,2687
0.169921875,2688
0.154296875,2689
0.166015625,2690
0.029296875,2691
0.0625,2692
0.111328125,2693
0.109375,2694
0.107421875,2695
0.17578125,2696
0.173828125,2697
0.1328125,2698
0.052734375,2699
0.046875,2700
0.009765625,2701
0.017578125,2702
0.048828125,2703
0.041015625,2704
0.03125,2705
0.134765625,2706
0.22265625,2707
0.1328125,2708
0.05859375,2709
0.0625,2710
0.05078125,2711
0.01953125,2712
0.04296875,2713
0.0546875,2714
0.1640625,2715
0.197265625,2716
0.072265625,2717
0.0625,2718
0.0390625,2719
0.130859375,2720
0.150390625,2721
0.078125,2722
0.033203125,2723
0.017578125,2724
0.099609375,2725
0.076171875,2726
0.064453125,2727
0.021484375,2728
0.091796875,2729
0.083984375,2730
0.05859375,2731
0.052734375,2732
0.025390625,2733
0.16015625,2734
0.08984375,2735
0.0546875,2736
0.05078125,2737
0.005859375,2738
0.025390625,2739
0.017578125,2740
0.044921875,2741
0.025390625,2742
0.177734375,2743
0.251953125,2744
0.162109375,2745
0.111328125,2746
0.068359375,2747
0.044921875,2748
0.037109375,2749
0.060546875,2750
0.021484375,2751
0.142578125,2752
0.19140625,2753
0.0546875,2754
0.087890625,2755
0.03515625,2756
0.017578125,2757
0.041015625,2758
0.060546875,2759
0.01953125,2760
0.111328125,2761
0.185546875,2762
0.224609375,2763
0.14453125,2764
0.046875,2765
0.0859375,2766
0.130859375,2767
0.1015625,2768
0.099609375,2769
0.091796875,2770
0.177734375,2771
0.10546875,2772
0.046875,2773
0.064453125,2774
0.0234375,2775
0.029296875,2776
0.03515625,2777
0.021484375,2778
0.009765625,2779
0.201171875,2780
0.232421875,2781
0.138671875,2782
0.099609375,2783
0.041015625,2784
0.064453125,2785
0.044921875,2786
0.041015625,2787
0.033203125,2788
0.119140625,2789
0.166015625,2790
0.048828125,2791
0.103515625,2792
0.021484375,2793
0.021484375,2794
0.068359375,2795
0.041015625,2796
0.025390625,2797
0.10546875,2798
0.21484375,2799
0.201171875,2800
0.1171875,2801
0.048828125,2802
0.091796875,2803
0.08203125,2804
0.0390625,2805
0.0625,2806
0.140625,2807
0.158203125,2808
0.0703125,2809
0.0546875,2810
0.0390625,2811
0.021484375,2812
0.013671875,2813
0.041015625,2814
0.01171875,2815
0.052734375,2816
0.205078125,2817
0.216796875,2818
0.177734375,2819
0.11328125,2820
0.044921875,2821
0.044921875,2822
0.068359375,2823
0.068359375,2824
0.033203125,2825
0.109375,2826
0.115234375,2827
0.125,2828
0.099609375,2829
0.029296875,2830
0.01953125,2831
0.0390625,2832
0.033203125,2833
0.021484375,2834
0.107421875,2835
0.171875,2836
0.205078125,2837
0.091796875,2838
0.060546875,2839
0.16015625,2840
0.119140625,2841
0.11328125,2842
0.12109375,2843
0.12890625,2844
0.169921875,2845
0.154296875,2846
0.044921875,2847
0.0546875,2848
0.013671875,2849
0.037109375,2850
0.025390625,2851
0.029296875,2852
0.03125,2853
0.232421875,2854
0.2109375,2855
0.197265625,2856
0.05859375,2857
0.046875,2858
0.052734375,2859
0.064453125,2860
0.0234375,2861
0.033203125,2862
0.140625,2863
0.125,2864
0.103515625,2865
0.064453125,2866
0.0390625,2867
0.072265625,2868
0.037109375,2869
0.0234375,2870
0.013671875,2871
0.103515625,2872
0.193359375,2873
0.158203125,2874
0.103515625,2875
0.0703125,2876
0.083984375,2877
0.08203125,2878
0.046875,2879
0.017578125,2880
0.09375,2881
0.154296875,2882
0.07421875,2883
0.0234375,2884
0.037109375,2885
0.013671875,2886
0.01953125,2887
0.0390625,2888
0.025390625,2889
0.083984375,2890
0.21484375,2891
0.158203125,2892
0.166015625,2893
0.048828125,2894
0.056640625,2895
0.037109375,2896
0.064453125,2897
0.048828125,2898
0.029296875,2899
0.158203125,2900
0.14453125,2901
0.12890625,2902
0.0625,2903
0.021484375,2904
0.033203125,2905
0.013671875,2906
0.01171875,2907
0.017578125,2908
0.107421875,2909
0.259765625,2910
0.21484375,2911
0.12109375,2912
0.08203125,2913
0.138671875,2914
0.080078125,2915
0.099609375,2916
0.138671875,2917
0.189453125,2918
0.103515625,2919
0.0625,2920
0.064453125,2921
0.033203125,2922
0.03515625,2923
0.052734375,2924
0.01953125,2925
0.033203125,2926
0.0859375,2927
0.189453125,2928
0.193359375,2929
0.123046875,2930
0.056640625,2931
0.064453125,2932
0.072265625,2933
0.029296875,2934
0.068359375,2935
0.056640625,2936
0.18359375,2937
0.142578125,2938
0.171875,2939
0.03515625,2940
0.029296875,2941
0.056640625,2942
0.037109375,2943
0.021484375,2944
0.0078125,2945
0.14453125,2946
0.23046875,2947
0.16796875,2948
0.111328125,2949
0.076171875,2950
0.12890625,2951
0.095703125,2952
0.07421875,2953
0.0859375,2954
0.177734375,2955
0.1875,2956
0.119140625,2957
0.029296875,2958
0.046875,2959
0.025390625,2960
0.025390625,2961
0.017578125,2962
0.015625,2963
0.115234375,2964
0.162109375,2965
0.171875,2966
0.103515625,2967
0.044921875,2968
0.076171875,2969
0.095703125,2970
0.119140625,2971
0.107421875,2972
0.115234375,2973
0.169921875,2974
0.08203125,2975
0.142578125,2976
0.03515625,2977
0.046875,2978
0.0703125,2979
0.041015625,2980
0.029296875,2981
0.037109375,2982
0.162109375,2983
0.2578125,2984
0.197265625,2985
0.166015625,2986
0.083984375,2987
0.19140625,2988
0.1328125,2989
0.125,2990
0.12890625,2991
0.224609375,2992
0.126953125,2993
0.048828125,2994
0.033203125,2995
0.037109375,2996
0.033203125,2997
0.041015625,2998
0.033203125,2999
0.03125,3000
0.126953125,3001
0.16796875,3002
0.18359375,3003
0.1015625,3004
0.02734375,3005
0.076171875,3006
0.171875,3007
0.11328125,3008
0.134765625,3009
0.140625,3010
0.15234375,3011
0.14453125,3012
0.11328125,3013
0.041015625,3014
0.078125,3015
0.181640625,3016
0.09765625,3017
0.037109375,3018
0.037109375,3019
0.095703125,3020
0.166015625,3021
0.232421875,3022
0.140625,3023
0.123046875,3024
0.15234375,3025
0.052734375,3026
0.0625,3027
0.052734375,3028
0.146484375,3029
0.189453125,3030
0.14453125,3031
0.078125,3032
0.033203125,3033
0.015625,3034
0.03515625,3035
0.033203125,3036
0.025390625,3037
0.125,3038
0.205078125,3039
0.12890625,3040
0.111328125,3041
0.123046875,3042
0.142578125,3043
0.076171875,3044
0.111328125,3045
0.115234375,3046
0.154296875,3047
0.154296875,3048
0.06640625,3049
0.12890625,3050
0.04296875,3051
0.013671875,3052
0.041015625,3053
0.017578125,3054
0.03125,3055
0.037109375,3056
0.212890625,3057
0.220703125,3058
0.189453125,3059
0.16796875,3060
0.126953125,3061
0.09375,3062
0.08203125,3063
0.07421875,3064
0.064453125,3065
0.1796875,3066
0.11328125,3067
0.154296875,3068
0.0234375,3069
0.015625,3070
0.013671875,3071
0.017578125,3072
0.01953125,3073
0.037109375,3074
0.171875,3075
0.193359375,3076
0.169921875,3077
0.12109375,3078
0.11328125,3079
0.109375,3080
0.03515625,3081
0.052734375,3082
0.06640625,3083
0.119140625,3084
0.14453125,3085
0.0859375,3086
0.107421875,3087
0.037109375,3088
0.04296875,3089
0.046875,3090
0.009765625,3091
0.013671875,3092
0.03515625,3093
0.197265625,3094
0.228515625,3095
0.150390625,3096
0.06640625,3097
0.107421875,3098
0.072265625,3099
0.05859375,3100
0.083984375,3101
0.08984375,3102
0.181640625,3103
0.16015625,3104
0.158203125,3105
0.01953125,3106
0.029296875,3107
0.013671875,3108
0.021484375,3109
0.013671875,3110
0.01953125,3111
0.205078125,3112
0.15625,3113
0.150390625,3114
0.1328125,3115
0.1171875,3116
0.109375,3117
0.06640625,3118
0.0546875,3119
0.033203125,3120
0.10546875,3121
0.203125,3122
0.068359375,3123
0.16015625,3124
0.052734375,3125
0.0390625,3126
0.037109375,3127
0.01953125,3128
0.021484375,3129
0.091796875,3130
0.181640625,3131
0.1953125,3132
0.12890625,3133
0.07421875,3134
0.1171875,3135
0.14453125,3136
0.083984375,3137
0.087890625,3138
0.1328125,3139
0.1875,3140
0.12890625,3141
0.13671875,3142
0.03125,3143
0.029296875,3144
0.025390625,3145
0.041015625,3146
0.009765625,3147
0.01953125,3148
0.232421875,3149
0.203125,3150
0.15625,3151
0.140625,3152
0.08984375,3153
0.078125,3154
0.072265625,3155
0.041015625,3156
0.0234375,3157
0.130859375,3158
0.169921875,3159
0.0703125,3160
0.103515625,3161
0.03515625,3162
0.052734375,3163
0.037109375,3164
0.017578125,3165
0.015625,3166
0.119140625,3167
0.208984375,3168
0.20703125,3169
0.109375,3170
0.119140625,3171
0.12109375,3172
0.056640625,3173
0.04296875,3174
0.046875,3175
0.05078125,3176
0.201171875,3177
0.18359375,3178
0.1875,3179
0.03125,3180
0.044921875,3181
0.029296875,3182
0.021484375,3183
0.021484375,3184
0.037109375,3185
0.171875,3186
0.197265625,3187
0.09765625,3188
0.150390625,3189
0.076171875,3190
0.095703125,3191
0.078125,3192
0.025390625,3193
0.03125,3194
0.15234375,3195
0.177734375,3196
0.1171875,3197
0.09765625,3198
0.037109375,3199
0.029296875,3200
0.048828125,3201
0.037109375,3202
0.02734375,3203
0.134765625,3204
0.224609375,3205
0.16796875,3206
0.109375,3207
0.060546875,3208
0.1171875,3209
0.126953125,3210
0.072265625,3211
0.1015625,3212
0.126953125,3213
0.142578125,3214
0.12109375,3215
0.1953125,3216
0.03515625,3217
0.033203125,3218
0.037109375,3219
0.037109375,3220
0.0078125,3221
0.033203125,3222
0.193359375,3223
0.16015625,3224
0.154296875,3225
0.08984375,3226
0.095703125,3227
0.05078125,3228
0.068359375,3229
0.03125,3230
0.033203125,3231
0.171875,3232
0.15625,3233
0.080078125,3234
0.1015625,3235
0.017578125,3236
0.0390625,3237
0.0078125,3238
0.021484375,3239
0.0234375,3240
0.171875,3241
0.216796875,3242
0.1328125,3243
0.091796875,3244
0.09765625,3245
0.111328125,3246
0.083984375,3247
0.05859375,3248
0.068359375,3249
0.134765625,3250
0.12890625,3251
0.0859375,3252
0.14453125,3253
0.04296875,3254
0.013671875,3255
0.029296875,3256
0.060546875,3257
0.015625,3258
0.005859375,3259
0.185546875,3260
0.15625,3261
0.115234375,3262
0.12890625,3263
0.083984375,3264
0.064453125,3265
0.0390625,3266
0.05078125,3267
0.025390625,3268
0.16015625,3269
0.138671875,3270
0.0859375,3271
0.09375,3272
0.041015625,3273
0.015625,3274
0.0234375,3275
0.013671875,3276
0.037109375,3277
0.1484375,3278
0.234375,3279
0.1640625,3280
0.083984375,3281
0.12890625,3282
0.107421875,3283
0.09765625,3284
0.08203125,3285
0.083984375,3286
0.16015625,3287
0.140625,3288
0.130859375,3289
0.09375,3290
0.0234375,3291
0.033203125,3292
0.013671875,3293
0.017578125,3294
0.033203125,3295
0.01953125,3296
0.201171875,3297
0.19140625,3298
0.15625,3299
0.060546875,3300
0.10546875,3301
0.037109375,3302
0.03125,3303
0.044921875,3304
0.0390625,3305
0.181640625,3306
0.10546875,3307
0.126953125,3308
0.056640625,3309
0.0625,3310
0.119140625,3311
0.083984375,3312
0.01171875,3313
0.041015625,3314
0.134765625,3315
0.09375,3316
0.060546875,3317
0.06640625,3318
0.060546875,3319
0.185546875,3320
0.1015625,3321
0.10546875,3322
0.087890625,3323
0.146484375,3324
0.17578125,3325
0.060546875,3326
0.12109375,3327
0.037109375,3328
0.05078125,3329
0.01171875,3330
0.044921875,3331
0.033203125,3332
0.064453125,3333
0.181640625,3334
0.23828125,3335
0.123046875,3336
0.10546875,3337
0.123046875,3338
0.056640625,3339
0.037109375,3340
0.064453125,3341
0.041015625,3342
0.185546875,3343
0.14453125,3344
0.14453125,3345
0.02734375,3346
0.021484375,3347
0.052734375,3348
0.044921875,3349
0.0078125,3350
0.044921875,3351
0.201171875,3352
0.158203125,3353
0.11328125,3354
0.14453125,3355
0.1484375,3356
0.14453125,3357
0.09375,3358
0.048828125,3359
0.08203125,3360
0.15234375,3361
0.162109375,3362
0.1015625,3363
0.095703125,3364
0.04296875,3365
0.025390625,3366
0.021484375,3367
0.033203125,3368
0.017578125,3369
0.095703125,3370
0.19140625,3371
0.203125,3372
0.12109375,3373
0.095703125,3374
0.076171875,3375
0.08203125,3376
0.041015625,3377
0.04296875,3378
0.0703125,3379
0.146484375,3380
0.150390625,3381
0.140625,3382
0.05078125,3383
0.025390625,3384
0.048828125,3385
0.025390625,3386
0.021484375,3387
0.029296875,3388
0.19140625,3389
0.181640625,3390
0.09375,3391
0.115234375,3392
0.13671875,3393
0.091796875,3394
0.068359375,3395
0.11328125,3396
0.091796875,3397
0.15625,3398
0.13671875,3399
0.142578125,3400
0.07421875,3401
0.046875,3402
0.009765625,3403
0.021484375,3404
0.033203125,3405
0.01953125,3406
0.115234375,3407
0.20703125,3408
0.208984375,3409
0.099609375,3410
0.1015625,3411
0.146484375,3412
0.0703125,3413
0.037109375,3414
0.03515625,3415
0.083984375,3416
0.1875,3417
0.099609375,3418
0.14453125,3419
0.013671875,3420
0.03125,3421
0.052734375,3422
0.015625,3423
0.017578125,3424
0.033203125,3425
0.20703125,3426
0.203125,3427
0.103515625,3428
0.12109375,3429
0.13671875,3430
0.125,3431
0.080078125,3432
0.083984375,3433
0.115234375,3434
0.162109375,3435
0.119140625,3436
0.13671875,3437
0.064453125,3438
0.025390625,3439
0.033203125,3440
0.029296875,3441
0.021484375,3442
0.009765625,3443
0.1171875,3444
0.212890625,3445
0.203125,3446
0.126953125,3447
0.1015625,3448
0.1640625,3449
0.056640625,3450
0.06640625,3451
0.07421875,3452
0.099609375,3453
0.154296875,3454
0.1015625,3455
0.16015625,3456
0.04296875,3457
0.013671875,3458
0.029296875,3459
0.037109375,3460
0.02734375,3461
0.041015625,3462
0.173828125,3463
0.19140625,3464
0.158203125,3465
0.123046875,3466
0.125,3467
0.046875,3468
0.05859375,3469
0.041015625,3470
0.0390625,3471
0.150390625,3472
0.099609375,3473
0.154296875,3474
0.05078125,3475
0.04296875,3476
0.037109375,3477
0.0234375,3478
0.021484375,3479
0.029296875,3480
0.1484375,3481
0.236328125,3482
0.15625,3483
0.142578125,3484
0.125,3485
0.111328125,3486
0.091796875,3487
0.091796875,3488
0.09375,3489
0.115234375,3490
0.1953125,3491
0.08984375,3492
0.14453125,3493
0.0546875,3494
0.048828125,3495
0.025390625,3496
0.052734375,3497
0.01171875,3498
0.044921875,3499
0.208984375,3500
0.1953125,3501
0.158203125,3502
0.111328125,3503
0.140625,3504
0.138671875,3505
0.07421875,3506
0.0859375,3507
0.16015625,3508
0.232421875,3509
0.16796875,3510
0.16796875,3511
0.05078125,3512
0.04296875,3513
0.029296875,3514
0.025390625,3515
0.01953125,3516
0.025390625,3517
0.189453125,3518
0.150390625,3519
0.1015625,3520
0.0546875,3521
0.134765625,3522
0.146484375,3523
0.15625,3524
0.150390625,3525
0.134765625,3526
0.1875,3527
0.185546875,3528
0.109375,3529
0.12890625,3530
0.025390625,3531
0.0390625,3532
0.037109375,3533
0.044921875,3534
0.037109375,3535
0.0546875,3536
0.25390625,3537
0.26171875,3538
0.189453125,3539
0.18359375,3540
0.203125,3541
0.208984375,3542
0.12109375,3543
0.115234375,3544
0.087890625,3545
0.193359375,3546
0.15234375,3547
0.111328125,3548
0.033203125,3549
0.041015625,3550
0.025390625,3551
0.041015625,3552
0.037109375,3553
0.0234375,3554
0.212890625,3555
0.19921875,3556
0.154296875,3557
0.095703125,3558
0.15234375,3559
0.208984375,3560
0.177734375,3561
0.24609375,3562
0.224609375,3563
0.22265625,3564
0.185546875,3565
0.111328125,3566
0.14453125,3567
0.029296875,3568
0.03125,3569
0.052734375,3570
0.03515625,3571
0.064453125,3572
0.15625,3573
0.267578125,3574
0.279296875,3575
0.30859375,3576
0.3203125,3577
0.392578125,3578
0.36328125,3579
0.4296875,3580
0.5,3581
0.42578125,3582
0.212890625,3583
0.23046875,3584
0.28125,3585
0.0625,3586
0.044921875,3587
0.076171875,3588
0.091796875,3589
0.095703125,3590
0.181640625,3591
0.2265625,3592
0.185546875,3593
0.09375,3594
0.1171875,3595
0.162109375,3596
0.146484375,3597
0.18359375,3598
0.275390625,3599
0.216796875,3600
0.193359375,3601
0.203125,3602
0.08203125,3603
0.111328125,3604
0.0546875,3605
0.072265625,3606
0.087890625,3607
0.068359375,3608
0.07421875,3609
0.087890625,3610
0.17578125,3611
0.16796875,3612
0.27734375,3613
0.212890625,3614
0.21875,3615
0.162109375,3616
0.2109375,3617
0.1328125,3618
0.142578125,3619
0.154296875,3620
0.2734375,3621
0.283203125,3622
0.294921875,3623
0.376953125,3624
0.5078125,3625
0.5546875,3626
0.48828125,3627
0.453125,3628
0.265625,3629
0.142578125,3630
0.173828125,3631
0.244140625,3632
0.177734375,3633
0.158203125,3634
0.134765625,3635
0.181640625,3636
0.142578125,3637
0.23828125,3638
0.26953125,3639
0.32421875,3640
0.3828125,3641
0.3984375,3642
0.142578125,3643
0.076171875,3644
0.041015625,3645
0.091796875,3646
0.123046875,3647
0.05859375,3648
0.03515625,3649
0.03515625,3650
0.05078125,3651
0.107421875,3652
0.111328125,3653
0.1484375,3654
0.109375,3655
0.14453125,3656
0.0390625,3657
0.033203125,3658
0.037109375,3659
0.029296875,3660
0.060546875,3661
0.1484375,3662
0.1640625,3663
0.134765625,3664
0.140625,3665
0.02734375,3666
0.0078125,3667
0.005859375,3668
0.005859375,3669
0.015625,3670
0.009765625,3671
0.029296875,3672
0.025390625,3673
0.021484375,3674
0.06640625,3675
0.068359375,3676
0.109375,3677
0.095703125,3678
0.0859375,3679
0.01953125,3680
0.0078125,3681
0.005859375,3682
0.017578125,3683
0.017578125,3684
0.013671875,3685
0.037109375,3686
0.013671875,3687
0.029296875,3688
0.044921875,3689
0.111328125,3690
0.09765625,3691
0.076171875,3692
0.076171875,3693
0.021484375,3694
0.021484375,3695
0.025390625,3696
0.009765625,3697
0.041015625,3698
0.04296875,3699
0.080078125,3700
0.0859375,3701
0.080078125,3702
0.037109375,3703
0.0078125,3704
0.00390625,3705
0.01171875,3706
0.01171875,3707
0.01171875,3708
0.015625,3709
0.0234375,3710
0.0234375,3711
0.05078125,3712
0.06640625,3713
0.07421875,3714
0.08203125,3715
0.078125,3716
0.013671875,3717
0.005859375,3718
0.005859375,3719
0.005859375,3720
0.017578125,3721
0.009765625,3722
0.021484375,3723
0.021484375,3724
0.021484375,3725
0.060546875,3726
0.056640625,3727
0.0703125,3728
0.09765625,3729
0.072265625,3730
0.009765625,3731
0.017578125,3732
0.009765625,3733
0.005859375,3734
0.033203125,3735
0.076171875,3736
0.07421875,3737
0.05859375,3738
0.06640625,3739
0.021484375,3740
0.005859375,3741
0.005859375,3742
0.005859375,3743
0.037109375,3744
0.009765625,3745
0.017578125,3746
0.017578125,3747
0.037109375,3748
0.0703125,3749
0.083984375,3750
0.099609375,3751
0.10546875,3752
0.076171875,3753
0.01171875,3754
0.009765625,3755
0.017578125,3756
0.013671875,3757
0.029296875,3758
0.017578125,3759
0.009765625,3760
0.013671875,3761
0.009765625,3762
0.029296875,3763
0.029296875,3764
0.009765625,3765
0.025390625,3766
0.0390625,3767
0.0078125,3768
0.005859375,3769
0.013671875,3770
0.009765625,3771
0.08203125,3772
0.078125,3773
0.07421875,3774
0.07421875,3775
0.087890625,3776
0.013671875,3777
0.013671875,3778
0.005859375,3779
0.013671875,3780
0.029296875,3781
0.013671875,3782
0.017578125,3783
0.009765625,3784
0.017578125,3785
0.0703125,3786
0.056640625,3787
0.046875,3788
0.06640625,3789
0.060546875,3790
0.025390625,3791
0.017578125,3792
0.0234375,3793
0.02734375,3794
0.0234375,3795
0.013671875,3796
0.009765625,3797
0.017578125,3798
0.037109375,3799
0.076171875,3800
0.111328125,3801
0.09765625,3802
0.103515625,3803
0.0703125,3804
0.013671875,3805
0.029296875,3806
0.025390625,3807
0.037109375,3808
0.08203125,3809
0.07421875,3810
0.10546875,3811
0.11328125,3812
0.09765625,3813
0.02734375,3814
0.013671875,3815
0.013671875,3816
0.017578125,3817
0.029296875,3818
0.02734375,3819
0.0390625,3820
0.025390625,3821
0.033203125,3822
0.103515625,3823
0.154296875,3824
0.162109375,3825
0.09375,3826
0.076171875,3827
0.01953125,3828
0.037109375,3829
0.009765625,3830
0.017578125,3831
0.033203125,3832
0.029296875,3833
0.017578125,3834
0.021484375,3835
0.029296875,3836
0.14453125,3837
0.189453125,3838
0.193359375,3839
0.1953125,3840
0.06640625,3841
0.017578125,3842
0.017578125,3843
0.013671875,3844
0.03515625,3845
0.09765625,3846
0.0546875,3847
0.078125,3848
0.0859375,3849
0.076171875,3850
0.01953125,3851
0.01171875,3852
0.01171875,3853
0.00390625,3854
0.03515625,3855
0.015625,3856
0.01171875,3857
0.021484375,3858
0.013671875,3859
0.091796875,3860
0.08984375,3861
0.0859375,3862
0.130859375,3863
0.091796875,3864
0.013671875,3865
0.046875,3866
0.025390625,3867
0.017578125,3868
0.013671875,3869
0.009765625,3870
0.013671875,3871
0.021484375,3872
0.025390625,3873
0.06640625,3874
0.08203125,3875
0.083984375,3876
0.13671875,3877
0.0703125,3878
0.009765625,3879
0.017578125,3880
0.0234375,3881
0.03125,3882
0.041015625,3883
0.03515625,3884
0.060546875,3885
0.044921875,3886
0.06640625,3887
0.01171875,3888
0.013671875,3889
0.013671875,3890
0.017578125,3891
0.017578125,3892
0.029296875,3893
0.029296875,3894
0.041015625,3895
0.0390625,3896
0.095703125,3897
0.095703125,3898
0.09375,3899
0.201171875,3900
0.080078125,3901
0.033203125,3902
0.037109375,3903
0.017578125,3904
0.033203125,3905
0.02734375,3906
0.015625,3907
0.013671875,3908
0.0234375,3909
0.05078125,3910
0.017578125,3911
0.017578125,3912
0.03515625,3913
0.013671875,3914
0.03515625,3915
0.009765625,3916
0.0078125,3917
0.00390625,3918
0.021484375,3919
0.05859375,3920
0.046875,3921
0.052734375,3922
0.048828125,3923
0.056640625,3924
0.037109375,3925
0.029296875,3926
0.015625,3927
0.041015625,3928
0.037109375,3929
0.0234375,3930
0.029296875,3931
0.0625,3932
0.0390625,3933
0.0234375,3934
0.03125,3935
0.021484375,3936
0.05859375,3937
0.068359375,3938
0.01953125,3939
0.037109375,3940
0.03515625,3941
0.04296875,3942
0.04296875,3943
0.048828125,3944
0.0625,3945
0.033203125,3946
0.0390625,3947
0.060546875,3948
0.046875,3949
0.0546875,3950
0.11328125,3951
0.0546875,3952
0.015625,3953
0.033203125,3954
0.021484375,3955
0.041015625,3956
0.0859375,3957
0.072265625,3958
0.095703125,3959
0.072265625,3960
0.068359375,3961
0.0234375,3962
0.021484375,3963
0.03125,3964
0.0234375,3965
0.02734375,3966
0.05078125,3967
0.03125,3968
0.044921875,3969
0.0234375,3970
0.072265625,3971
0.068359375,3972
0.080078125,3973
0.072265625,3974
0.07421875,3975
0.025390625,3976
0.03515625,3977
0.046875,3978
0.03125,3979
0.02734375,3980
0.03125,3981
0.017578125,3982
0.02734375,3983
0.029296875,3984
0.05859375,3985
0.056640625,3986
0.078125,3987
0.0859375,3988
0.029296875,3989
0.02734375,3990
0.02734375,3991
0.02734375,3992
0.041015625,3993
0.05078125,3994
0.0546875,3995
0.0859375,3996
0.044921875,3997
0.060546875,3998
0.017578125,3999
0.0390625,4000
0.046875,4001
0.025390625,4002
0.033203125,4003
0.033203125,4004
0.021484375,4005
0.029296875,4006
0.037109375,4007
0.064453125,4008
0.048828125,4009
0.0625,4010
0.064453125,4011
0.03515625,4012
0.017578125,4013
0.0078125,4014
0.01953125,4015
0.02734375,4016
0.0234375,4017
0.017578125,4018
0.02734375,4019
0.029296875,4020
0.041015625,4021
0.046875,4022
0.083984375,4023
0.05078125,4024
0.0625,4025
0.0234375,4026
0.0390625,4027
0.04296875,4028
0.025390625,4029
0.04296875,4030
0.09375,4031
0.076171875,4032
0.080078125,4033
0.0703125,4034
0.048828125,4035
0.021484375,4036
0.015625,4037
0.01953125,4038
0.05078125,4039
0.04296875,4040
0.0234375,4041
0.033203125,4042
0.0234375,4043
0.0234375,4044
0.046875,4045
0.052734375,4046
0.060546875,4047
0.033203125,4048
0.03515625,4049
0.015625,4050
0.021484375,4051
0.03125,4052
0.025390625,4053
0.033203125,4054
0.02734375,4055
0.0234375,4056
0.033203125,4057
0.060546875,4058
0.015625,4059
0.015625,4060
0.02734375,4061
0.021484375,4062
0.0078125,4063
0.0234375,4064
0.021484375,4065
0.01953125,4066
0.05078125,4067
0.080078125,4068
0.064453125,4069
0.072265625,4070
0.060546875,4071
0.033203125,4072
0.02734375,4073
0.013671875,4074
0.03515625,4075
0.048828125,4076
0.009765625,4077
0.044921875,4078
0.029296875,4079
0.021484375,4080
0.041015625,4081
0.044921875,4082
0.05859375,4083
0.080078125,4084
0.08203125,4085
0.029296875,4086
0.029296875,4087
0.02734375,4088
0.033203125,4089
0.025390625,4090
0.017578125,4091
0.01953125,4092
0.037109375,4093
0.046875,4094
0.056640625,4095
0.060546875,4096
0.0625,4097
0.064453125,4098
0.08203125,4099
0.0234375,4100
0.044921875,4101
0.052734375,4102
0.0234375,4103
0.07421875,4104
0.13671875,4105
0.169921875,4106
0.15234375,4107
0.09375,4108
0.037109375,4109
0.025390625,4110
0.03515625,4111
0.037109375,4112
0.029296875,4113
0.02734375,4114
0.037109375,4115
0.0234375,4116
0.021484375,4117
0.064453125,4118
0.123046875,4119
0.142578125,4120
0.126953125,4121
0.107421875,4122
0.017578125,4123
0.017578125,4124
0.03515625,4125
0.0234375,4126
0.041015625,4127
0.0234375,4128
0.044921875,4129
0.04296875,4130
0.041015625,4131
0.103515625,4132
0.080078125,4133
0.119140625,4134
0.099609375,4135
0.0625,4136
0.025390625,4137
0.01953125,4138
0.0234375,4139
0.048828125,4140
0.037109375,4141
0.046875,4142
0.044921875,4143
0.0859375,4144
0.111328125,4145
0.017578125,4146
0.046875,4147
0.009765625,4148
0.015625,4149
0.015625,4150
0.02734375,4151
0.01953125,4152
0.021484375,4153
0.01953125,4154
0.041015625,4155
0.041015625,4156
0.046875,4157
0.05078125,4158
0.080078125,4159
0.021484375,4160
0.03125,4161
0.021484375,4162
0.03125,4163
0.037109375,4164
0.033203125,4165
0.021484375,4166
0.0234375,4167
0.03125,4168
0.05078125,4169
0.056640625,4170
0.08203125,4171
0.068359375,4172
0.095703125,4173
0.02734375,4174
0.0390625,4175
0.03515625,4176
0.025390625,4177
0.046875,4178
0.037109375,4179
0.05078125,4180
0.119140625,4181
0.1015625,4182
0.025390625,4183
0.041015625,4184
0.044921875,4185
0.0234375,4186
0.044921875,4187
0.044921875,4188
0.03125,4189
0.021484375,4190
0.03125,4191
0.07421875,4192
0.048828125,4193
0.041015625,4194
0.064453125,4195
0.048828125,4196
0.009765625,4197
0.02734375,4198
0.015625,4199
0.029296875,4200
0.041015625,4201
0.033203125,4202
0.04296875,4203
0.03515625,4204
0.048828125,4205
0.021484375,4206
0.01171875,4207
0.0234375,4208
0.03125,4209
0.03515625,4210
0.02734375,4211
0.013671875,4212
0.0390625,4213
0.03125,4214
0.09765625,4215
0.087890625,4216
0.07421875,4217
0.056640625,4218
0.076171875,4219
0.021484375,4220
0.03125,4221
0.04296875,4222
0.03515625,4223
0.0546875,4224
0.02734375,4225
0.03125,4226
0.041015625,4227
0.03515625,4228
0.0625,4229
0.095703125,4230
0.06640625,4231
0.046875,4232
0.078125,4233
0.0234375,4234
0.0234375,4235
0.03515625,4236
0.05859375,4237
0.0546875,4238
0.01953125,4239
0.037109375,4240
0.03125,4241
0.05859375,4242
0.080078125,4243
0.107421875,4244
0.099609375,4245
0.115234375,4246
0.087890625,4247
0.01171875,4248
0.0234375,4249
0.03515625,4250
0.03125,4251
0.044921875,4252
0.046875,4253
0.0859375,4254
0.09765625,4255
0.087890625,4256
0.0234375,4257
0.04296875,4258
0.029296875,4259
0.037109375,4260
0.046875,4261
0.037109375,4262
0.02734375,4263
0.03125,4264
0.041015625,4265
0.04296875,4266
0.05078125,4267
0.04296875,4268
0.083984375,4269
0.12890625,4270
0.01171875,4271
0.015625,4272
0.01953125,4273
0.01171875,4274
0.05078125,4275
0.03125,4276
0.0234375,4277
0.02734375,4278
0.046875,4279
0.0859375,4280
0.09375,4281
0.078125,4282
0.11328125,4283
0.060546875,4284
0.025390625,4285
0.025390625,4286
0.0234375,4287
0.029296875,4288
0.0390625,4289
0.02734375,4290
0.0546875,4291
0.0390625,4292
0.05859375,4293
0.0234375,4294
0.03125,4295
0.017578125,4296
0.025390625,4297
0.0546875,4298
0.02734375,4299
0.0390625,4300
0.015625,4301
0.033203125,4302
0.04296875,4303
0.01953125,4304
0.06640625,4305
0.09765625,4306
0.060546875,4307
0.015625,4308
0.01171875,4309
0.015625,4310
0.02734375,4311
0.037109375,4312
0.046875,4313
0.03125,4314
0.03125,4315
0.041015625,4316
0.060546875,4317
0.078125,4318
0.041015625,4319
0.072265625,4320
0.04296875,4321
0.037109375,4322
0.03125,4323
0.02734375,4324
0.0390625,4325
0.07421875,4326
0.080078125,4327
0.0703125,4328
0.080078125,4329
0.048828125,4330
0.01953125,4331
0.01953125,4332
0.02734375,4333
0.033203125,4334
0.060546875,4335
0.0234375,4336
0.0390625,4337
0.04296875,4338
0.07421875,4339
0.080078125,4340
0.04296875,4341
0.0703125,4342
0.1171875,4343
0.068359375,4344
0.0546875,4345
0.04296875,4346
0.03125,4347
0.0390625,4348
0.0625,4349
0.048828125,4350
0.0546875,4351
0.037109375,4352
0.0390625,4353
0.03125,4354
0.0234375,4355
0.03125,4356
0.013671875,4357
0.0390625,4358
0.015625,4359
0.02734375,4360
0.01171875,4361
0.0390625,4362
0.072265625,4363
0.0703125,4364
0.09375,4365
0.0859375,4366
0.08984375,4367
0.04296875,4368
0.02734375,4369
0.02734375,4370
0.04296875,4371
0.068359375,4372
0.04296875,4373
0.046875,4374
0.046875,4375
0.078125,4376
0.091796875,4377
0.06640625,4378
0.06640625,4379
0.0546875,4380
0.072265625,4381
0.03515625,4382
0.01953125,4383
0.0234375,4384
0.02734375,4385
0.017578125,4386
0.0390625,4387
0.04296875,4388
0.04296875,4389
0.076171875,4390
0.07421875,4391
0.0703125,4392
0.1015625,4393
0.0859375,4394
0.05078125,4395
0.0390625,4396
0.02734375,4397
0.033203125,4398
0.041015625,4399
0.06640625,4400
0.087890625,4401
0.08203125,4402
0.0859375,4403
0.05859375,4404
0.03515625,4405
0.01953125,4406
0.015625,4407
0.029296875,4408
0.033203125,4409
0.03125,4410
0.025390625,4411
0.04296875,4412
0.05859375,4413
0.08203125,4414
0.08203125,4415
0.0859375,4416
0.09375,4417
0.064453125,4418
0.0234375,4419
0.0234375,4420
0.01953125,4421
0.03515625,4422
0.033203125,4423
0.02734375,4424
0.037109375,4425
0.046875,4426
0.08984375,4427
0.0625,4428
0.0703125,4429
0.056640625,4430
0.05859375,4431
0.0546875,4432
0.04296875,4433
0.02734375,4434
0.0390625,4435
0.052734375,4436
0.03125,4437
0.03515625,4438
0.03125,4439
0.029296875,4440
0.0234375,4441
0.021484375,4442
0.015625,4443
0.02734375,4444
0.04296875,4445
0.041015625,4446
0.0390625,4447
0.02734375,4448
0.0234375,4449
0.0390625,4450
0.080078125,4451
0.072265625,4452
0.078125,4453
0.1015625,4454
0.041015625,4455
0.015625,4456
0.01953125,4457
0.015625,4458
0.04296875,4459
0.0234375,4460
0.046875,4461
0.056640625,4462
0.01953125,4463
0.02734375,4464
0.01953125,4465
0.02734375,4466
0.0390625,4467
0.0859375,4468
0.0546875,4469
0.046875,4470
0.03125,4471
0.03515625,4472
0.0390625,4473
0.056640625,4474
0.060546875,4475
0.041015625,4476
0.078125,4477
0.0546875,4478
0.03515625,4479
0.03515625,4480
0.01953125,4481
0.056640625,4482
0.044921875,4483
0.03515625,4484
0.04296875,4485
0.0546875,4486
0.046875,4487
0.0546875,4488
0.068359375,4489
0.0859375,4490
0.080078125,4491
0.0703125,4492
0.046875,4493
0.02734375,4494
0.02734375,4495
0.0546875,4496
0.05078125,4497
0.0390625,4498
0.044921875,4499
0.052734375,4500
0.064453125,4501
0.03515625,4502
0.021484375,4503
0.01953125,4504
0.046875,4505
0.017578125,4506
0.044921875,4507
0.0234375,4508
0.01953125,4509
0.041015625,4510
0.087890625,4511
0.078125,4512
0.091796875,4513
0.07421875,4514
0.060546875,4515
0.0390625,4516
0.0703125,4517
0.05859375,4518
0.09375,4519
0.0703125,4520
0.076171875,4521
0.05078125,4522
0.02734375,4523
0.064453125,4524
0.07421875,4525
0.15234375,4526
0.076171875,4527
0.06640625,4528
0.037109375,4529
0.05859375,4530
0.046875,4531
0.05078125,4532
0.04296875,4533
0.046875,4534
0.052734375,4535
0.05859375,4536
0.1015625,4537
0.09765625,4538
0.09375,4539
0.13671875,4540
0.099609375,4541
0.08984375,4542
0.080078125,4543
0.064453125,4544
0.056640625,4545
0.0859375,4546
0.0703125,4547
0.08203125,4548
0.091796875,4549
0.060546875,4550
0.087890625,4551
0.04296875,4552
0.05859375,4553
0.03515625,4554
0.06640625,4555
0.044921875,4556
0.076171875,4557
0.08984375,4558
0.060546875,4559
0.046875,4560
0.078125,4561
0.130859375,4562
0.12109375,4563
0.12890625,4564
0.142578125,4565
0.0390625,4566
0.01953125,4567
0.01953125,4568
0.029296875,4569
0.033203125,4570
0.091796875,4571
0.041015625,4572
0.05078125,4573
0.072265625,4574
0.095703125,4575
0.123046875,4576
0.123046875,4577
0.107421875,4578
0.111328125,4579
0.064453125,4580
0.07421875,4581
0.041015625,4582
0.09765625,4583
0.05859375,4584
0.123046875,4585
0.080078125,4586
0.109375,4587
0.1171875,4588
0.041015625,4589
0.08203125,4590
0.109375,4591
0.05859375,4592
0.06640625,4593
0.0546875,4594
0.064453125,4595
0.046875,4596
0.0390625,4597
0.083984375,4598
0.08984375,4599
0.078125,4600
0.091796875,4601
0.173828125,4602
0.05078125,4603
0.04296875,4604
0.03515625,4605
0.044921875,4606
0.052734375,4607
0.052734375,4608
0.046875,4609
0.064453125,4610
0.04296875,4611
0.05859375,4612
0.095703125,4613
0.111328125,4614
0.109375,4615
0.138671875,4616
0.048828125,4617
0.04296875,4618
0.052734375,4619
0.109375,4620
0.12109375,4621
0.12890625,4622
0.11328125,4623
0.08203125,4624
0.126953125,4625
0.056640625,4626
0.103515625,4627
0.13671875,4628
0.115234375,4629
0.044921875,4630
0.091796875,4631
0.0625,4632
0.072265625,4633
0.068359375,4634
0.119140625,4635
0.091796875,4636
0.130859375,4637
0.1640625,4638
0.15234375,4639
0.033203125,4640
0.0390625,4641
0.03125,4642
0.03125,4643
0.078125,4644
0.064453125,4645
0.052734375,4646
0.06640625,4647
0.083984375,4648
0.103515625,4649
0.03515625,4650
0.05078125,4651
0.0859375,4652
0.078125,4653
0.087890625,4654
0.064453125,4655
0.06640625,4656
0.052734375,4657
0.0859375,4658
0.158203125,4659
0.19140625,4660
0.166015625,4661
0.14453125,4662
0.072265625,4663
0.12109375,4664
0.109375,4665
0.107421875,4666
0.150390625,4667
0.091796875,4668
0.03125,4669
0.041015625,4670
0.05078125,4671
0.173828125,4672
0.16015625,4673
0.1875,4674
0.193359375,4675
0.177734375,4676
0.044921875,4677
0.095703125,4678
0.0703125,4679
0.0546875,4680
0.140625,4681
0.0625,4682
0.080078125,4683
0.09765625,4684
0.099609375,4685
0.138671875,4686
0.189453125,4687
0.150390625,4688
0.208984375,4689
0.138671875,4690
0.142578125,4691
0.10546875,4692
0.140625,4693
0.056640625,4694
0.13671875,4695
0.126953125,4696
0.130859375,4697
0.123046875,4698
0.076171875,4699
0.06640625,4700
0.09765625,4701
0.0859375,4702
0.109375,4703
0.15625,4704
0.10546875,4705
0.119140625,4706
0.125,4707
0.1171875,4708
0.173828125,4709
0.234375,4710
0.255859375,4711
0.330078125,4712
0.171875,4713
0.076171875,4714
0.046875,4715
0.0859375,4716
0.056640625,4717
0.119140625,4718
0.177734375,4719
0.12109375,4720
0.181640625,4721
0.15625,4722
0.19921875,4723
0.087890625,4724
0.1328125,4725
0.171875,4726
0.162109375,4727
0.09375,4728
0.189453125,4729
0.111328125,4730
0.130859375,4731
0.2109375,4732
0.3125,4733
0.30859375,4734
0.435546875,4735
0.310546875,4736
0.142578125,4737
0.134765625,4738
0.109375,4739
0.12890625,4740
0.1328125,4741
0.185546875,4742
0.169921875,4743
0.140625,4744
0.236328125,4745
0.232421875,4746
0.318359375,4747
0.2890625,4748
0.435546875,4749
0.36328125,4750
0.1875,4751
0.1640625,4752
0.228515625,4753
0.24609375,4754
0.216796875,4755
0.22265625,4756
0.19921875,4757
0.24609375,4758
0.16796875,4759
0.3125,4760
0.505859375,4761
0.49609375,4762
0.416015625,4763
0.380859375,4764
0.25,4765
0.283203125,4766
0.177734375,4767
0.13671875,4768
0.173828125,4769
0.271484375,4770
0.255859375,4771
0.16015625,4772
0.25,4773
0.17578125,4774
0.091796875,4775
0.09375,4776
0.12109375,4777
0.142578125,4778
0.125,4779
0.224609375,4780
0.1953125,4781
0.171875,4782
0.2265625,4783
0.283203125,4784
0.365234375,4785
0.263671875,4786
0.142578125,4787
0.0859375,4788
0.0703125,4789
0.091796875,4790
0.091796875,4791
0.09765625,4792
0.14453125,4793
0.203125,4794
0.23046875,4795
0.107421875,4796
0.16796875,4797
0.134765625,4798
0.087890625,4799
0.224609375,4800
0.255859375,4801
0.173828125,4802
0.181640625,4803
0.28125,4804
0.326171875,4805
0.4140625,4806
0.3828125,4807
0.359375,4808
0.4609375,4809
0.224609375,4810
0.115234375,4811
0.134765625,4812
0.19921875,4813
0.1640625,4814
0.12890625,4815
0.10546875,4816
0.123046875,4817
0.087890625,4818
0.193359375,4819
0.15625,4820
0.2265625,4821
0.251953125,4822
0.212890625,4823
0.111328125,4824
0.1015625,4825
0.0390625,4826
0.1015625,4827
0.078125,4828
0.072265625,4829
0.033203125,4830
0.111328125,4831
0.068359375,4832
0.07421875,4833
0.09375,4834
0.103515625,4835
0.107421875,4836
0.087890625,4837
0.05078125,4838
0.060546875,4839
0.044921875,4840
0.044921875,4841
0.056640625,4842
0.05859375,4843
0.087890625,4844
0.06640625,4845
0.060546875,4846
0.037109375,4847
0.041015625,4848
0.015625,4849
0.01171875,4850
0.04296875,4851
0.05078125,4852
0.0390625,4853
0.064453125,4854
0.033203125,4855
0.0390625,4856
0.046875,4857
0.056640625,4858
0.05859375,4859
0.0703125,4860
0.041015625,4861
0.041015625,4862
0.025390625,4863
0.037109375,4864
0.044921875,4865
0.044921875,4866
0.033203125,4867
0.052734375,4868
0.064453125,4869
0.05078125,4870
0.064453125,4871
0.0390625,4872
0.044921875,4873
0.048828125,4874
0.0625,4875
0.029296875,4876
0.044921875,4877
0.041015625,4878
0.046875,4879
0.06640625,4880
0.0859375,4881
0.08203125,4882
0.11328125,4883
0.044921875,4884
0.025390625,4885
0.009765625,4886
0.021484375,4887
0.0390625,4888
0.0546875,4889
0.056640625,4890
0.044921875,4891
0.037109375,4892
0.044921875,4893
0.072265625,4894
0.078125,4895
0.1015625,4896
0.091796875,4897
0.029296875,4898
0.017578125,4899
0.017578125,4900
0.029296875,4901
0.044921875,4902
0.048828125,4903
0.056640625,4904
0.046875,4905
0.05078125,4906
0.072265625,4907
0.0546875,4908
0.046875,4909
0.083984375,4910
0.068359375,4911
0.0703125,4912
0.03515625,4913
0.044921875,4914
0.044921875,4915
0.0625,4916
0.1015625,4917
0.119140625,4918
0.0859375,4919
0.056640625,4920
0.03515625,4921
0.033203125,4922
0.025390625,4923
0.021484375,4924
0.056640625,4925
0.060546875,4926
0.029296875,4927
0.052734375,4928
0.0546875,4929
0.0625,4930
0.0625,4931
0.04296875,4932
0.0546875,4933
0.0546875,4934
0.05859375,4935
0.072265625,4936
0.037109375,4937
0.0234375,4938
0.05859375,4939
0.04296875,4940
0.041015625,4941
0.048828125,4942
0.048828125,4943
0.048828125,4944
0.04296875,4945
0.052734375,4946
0.037109375,4947
0.08203125,4948
0.05078125,4949
0.029296875,4950
0.033203125,4951
0.017578125,4952
0.0625,4953
0.0625,4954
0.0546875,4955
0.083984375,4956
0.08984375,4957
0.06640625,4958
0.03125,4959
0.048828125,4960
0.029296875,4961
0.033203125,4962
0.021484375,4963
0.021484375,4964
0.033203125,4965
0.03515625,4966
0.07421875,4967
0.1015625,4968
0.0703125,4969
0.103515625,4970
0.08984375,4971
0.05859375,4972
0.0625,4973
0.056640625,4974
0.052734375,4975
0.048828125,4976
0.037109375,4977
0.041015625,4978
0.048828125,4979
0.052734375,4980
0.083984375,4981
0.08203125,4982
0.0390625,4983
0.07421875,4984
0.091796875,4985
0.048828125,4986
0.044921875,4987
0.037109375,4988
0.033203125,4989
0.06640625,4990
0.064453125,4991
0.05078125,4992
0.046875,4993
0.0546875,4994
0.052734375,4995
0.0390625,4996
0.04296875,4997
0.037109375,4998
0.056640625,4999
0.107421875,5000
0.060546875,5001
0.048828125,5002
0.068359375,5003
0.060546875,5004
0.080078125,5005
0.0625,5006
0.05859375,5007
0.044921875,5008
0.068359375,5009
0.025390625,5010
0.052734375,5011
0.037109375,5012
0.072265625,5013
0.048828125,5014
0.048828125,5015
0.048828125,5016
0.072265625,5017
0.064453125,5018
0.0703125,5019
0.06640625,5020
0.080078125,5021
0.0625,5022
0.05078125,5023
0.048828125,5024
0.046875,5025
0.060546875,5026
0.03515625,5027
0.046875,5028
0.068359375,5029
0.048828125,5030
0.056640625,5031
0.03125,5032
0.02734375,5033
0.033203125,5034
0.021484375,5035
0.072265625,5036
0.064453125,5037
0.0859375,5038
0.046875,5039
0.078125,5040
0.044921875,5041
0.05078125,5042
0.0546875,5043
0.0625,5044
0.060546875,5045
0.041015625,5046
0.029296875,5047
0.052734375,5048
0.041015625,5049
0.052734375,5050
0.068359375,5051
0.037109375,5052
0.046875,5053
0.05859375,5054
0.0546875,5055
0.05078125,5056
0.0625,5057
0.09375,5058
0.076171875,5059
0.03515625,5060
0.046875,5061
0.0390625,5062
0.0625,5063
0.091796875,5064
0.06640625,5065
0.056640625,5066
0.0625,5067
0.06640625,5068
0.044921875,5069
0.037109375,5070
0.029296875,5071
0.021484375,5072
0.076171875,5073
0.03515625,5074
0.064453125,5075
0.076171875,5076
0.068359375,5077
0.08203125,5078
0.06640625,5079
0.076171875,5080
0.05078125,5081
0.078125,5082
0.056640625,5083
0.044921875,5084
0.072265625,5085
0.046875,5086
0.0390625,5087
0.0625,5088
0.0390625,5089
0.06640625,5090
0.05859375,5091
0.05078125,5092
0.052734375,5093
0.048828125,5094
0.046875,5095
0.05078125,5096
0.025390625,5097
0.02734375,5098
0.029296875,5099
0.03515625,5100
0.078125,5101
0.076171875,5102
0.068359375,5103
0.044921875,5104
0.05859375,5105
0.0703125,5106
0.068359375,5107
0.046875,5108
0.0625,5109
0.076171875,5110
0.0234375,5111
0.029296875,5112
0.041015625,5113
0.048828125,5114
0.09765625,5115
0.1171875,5116
0.091796875,5117
0.099609375,5118
0.080078125,5119
0.03515625,5120
0.033203125,5121
0.037109375,5122
0.04296875,5123
0.076171875,5124
0.060546875,5125
0.06640625,5126
0.0546875,5127
0.068359375,5128
0.052734375,5129
0.04296875,5130
0.05078125,5131
0.044921875,5132
0.095703125,5133
0.03515625,5134
0.048828125,5135
0.046875,5136
0.046875,5137
0.09765625,5138
0.05078125,5139
0.078125,5140
0.107421875,5141
0.076171875,5142
0.033203125,5143
0.029296875,5144
0.037109375,5145
0.02734375,5146
0.083984375,5147
0.041015625,5148
0.048828125,5149
0.037109375,5150
0.0390625,5151
0.06640625,5152
0.0703125,5153
0.056640625,5154
0.056640625,5155
0.06640625,5156
0.033203125,5157
0.0390625,5158
0.025390625,5159
0.046875,5160
0.0703125,5161
0.03515625,5162
0.068359375,5163
0.03515625,5164
0.044921875,5165
0.056640625,5166
0.0703125,5167
0.068359375,5168
0.0546875,5169
0.05859375,5170
0.04296875,5171
0.033203125,5172
0.056640625,5173
0.083984375,5174
0.072265625,5175
0.046875,5176
0.056640625,5177
0.05859375,5178
0.09765625,5179
0.025390625,5180
0.015625,5181
0.037109375,5182
0.037109375,5183
0.07421875,5184
0.037109375,5185
0.05859375,5186
0.05859375,5187
0.048828125,5188
0.0859375,5189
0.080078125,5190
0.037109375,5191
0.095703125,5192
0.0703125,5193
0.041015625,5194
0.041015625,5195
0.033203125,5196
0.052734375,5197
0.109375,5198
0.048828125,5199
0.080078125,5200
0.056640625,5201
0.05859375,5202
0.09375,5203
0.08203125,5204
0.0625,5205
0.068359375,5206
0.0703125,5207
0.056640625,5208
0.046875,5209
0.04296875,5210
0.048828125,5211
0.078125,5212
0.0703125,5213
0.060546875,5214
0.078125,5215
0.083984375,5216
0.041015625,5217
0.041015625,5218
0.03125,5219
0.048828125,5220
0.07421875,5221
0.0703125,5222
0.076171875,5223
0.05859375,5224
0.048828125,5225
0.078125,5226
0.060546875,5227
0.068359375,5228
0.08203125,5229
0.080078125,5230
0.03515625,5231
0.033203125,5232
0.037109375,5233
0.05859375,5234
0.064453125,5235
0.080078125,5236
0.083984375,5237
0.060546875,5238
0.072265625,5239
0.078125,5240
0.033203125,5241
0.078125,5242
0.033203125,5243
0.03125,5244
0.037109375,5245
0.037109375,5246
0.044921875,5247
0.044921875,5248
0.08984375,5249
0.048828125,5250
0.07421875,5251
0.064453125,5252
0.12109375,5253
0.09765625,5254
0.095703125,5255
0.078125,5256
0.052734375,5257
0.087890625,5258
0.060546875,5259
0.04296875,5260
0.0625,5261
0.056640625,5262
0.119140625,5263
0.06640625,5264
0.078125,5265
0.06640625,5266
0.0859375,5267
0.056640625,5268
0.0390625,5269
0.05859375,5270
0.083984375,5271
0.123046875,5272
0.125,5273
0.0703125,5274
0.078125,5275
0.083984375,5276
0.08203125,5277
0.072265625,5278
0.03515625,5279
0.0703125,5280
0.072265625,5281
0.068359375,5282
0.07421875,5283
0.04296875,5284
0.05078125,5285
0.09375,5286
0.111328125,5287
0.12109375,5288
0.107421875,5289
0.072265625,5290
0.048828125,5291
0.037109375,5292
0.04296875,5293
0.046875,5294
0.134765625,5295
0.11328125,5296
0.1484375,5297
0.10546875,5298
0.068359375,5299
0.11328125,5300
0.072265625,5301
0.08984375,5302
0.08203125,5303
0.04296875,5304
0.05078125,5305
0.0546875,5306
0.06640625,5307
0.072265625,5308
0.177734375,5309
0.080078125,5310
0.08203125,5311
0.09765625,5312
0.09375,5313
0.126953125,5314
0.123046875,5315
0.076171875,5316
0.08203125,5317
0.091796875,5318
0.08984375,5319
0.080078125,5320
0.08203125,5321
0.0703125,5322
0.076171875,5323
0.07421875,5324
0.111328125,5325
0.15625,5326
0.072265625,5327
0.029296875,5328
0.033203125,5329
0.03515625,5330
0.05859375,5331
0.138671875,5332
0.1484375,5333
0.185546875,5334
0.109375,5335
0.130859375,5336
0.107421875,5337
0.064453125,5338
0.083984375,5339
0.10546875,5340
0.037109375,5341
0.03515625,5342
0.029296875,5343
0.03515625,5344
0.095703125,5345
0.189453125,5346
0.16015625,5347
0.19140625,5348
0.16015625,5349
0.1328125,5350
0.087890625,5351
0.07421875,5352
0.072265625,5353
0.078125,5354
0.056640625,5355
0.05078125,5356
0.0546875,5357
0.05078125,5358
0.099609375,5359
0.15625,5360
0.119140625,5361
0.11328125,5362
0.1015625,5363
0.048828125,5364
0.03125,5365
0.03515625,5366
0.03515625,5367
0.05859375,5368
0.13671875,5369
0.17578125,5370
0.15625,5371
0.134765625,5372
0.150390625,5373
0.14453125,5374
0.080078125,5375
0.103515625,5376
0.123046875,5377
0.0546875,5378
0.05078125,5379
0.03515625,5380
0.017578125,5381
0.099609375,5382
0.181640625,5383
0.216796875,5384
0.2421875,5385
0.19921875,5386
0.138671875,5387
0.03515625,5388
0.0390625,5389
0.044921875,5390
0.0390625,5391
0.03125,5392
0.03515625,5393
0.01953125,5394
0.03515625,5395
0.087890625,5396
0.158203125,5397
0.1875,5398
0.171875,5399
0.140625,5400
0.123046875,5401
0.05078125,5402
0.06640625,5403
0.03515625,5404
0.0546875,5405
0.162109375,5406
0.173828125,5407
0.158203125,5408
0.125,5409
0.12109375,5410
0.150390625,5411
0.119140625,5412
0.1171875,5413
0.109375,5414
0.052734375,5415
0.046875,5416
0.04296875,5417
0.015625,5418
0.05078125,5419
0.14453125,5420
0.08203125,5421
0.109375,5422
0.111328125,5423
0.10546875,5424
0.158203125,5425
0.12890625,5426
0.10546875,5427
0.11328125,5428
0.07421875,5429
0.0859375,5430
0.080078125,5431
0.07421875,5432
0.09375,5433
0.0859375,5434
0.109375,5435
0.078125,5436
0.103515625,5437
0.060546875,5438
0.03515625,5439
0.0390625,5440
0.0234375,5441
0.060546875,5442
0.087890625,5443
0.064453125,5444
0.0546875,5445
0.0390625,5446
0.0703125,5447
0.07421875,5448
0.0625,5449
0.05078125,5450
0.09765625,5451
0.044921875,5452
0.03515625,5453
0.02734375,5454
0.01953125,5455
0.08984375,5456
0.08984375,5457
0.060546875,5458
0.0703125,5459
0.08984375,5460
0.07421875,5461
0.07421875,5462
0.068359375,5463
0.083984375,5464
0.056640625,5465
0.048828125,5466
0.0546875,5467
0.037109375,5468
0.02734375,5469
0.0859375,5470
0.1015625,5471
0.083984375,5472
0.10546875,5473
0.078125,5474
0.05078125,5475
0.0390625,5476
0.0390625,5477
0.04296875,5478
0.07421875,5479
0.05859375,5480
0.076171875,5481
0.05859375,5482
0.0625,5483
0.052734375,5484
0.05859375,5485
0.06640625,5486
0.072265625,5487
0.05859375,5488
0.041015625,5489
0.041015625,5490
0.033203125,5491
0.03125,5492
0.0859375,5493
0.078125,5494
0.03125,5495
0.04296875,5496
0.056640625,5497
0.060546875,5498
0.0625,5499
0.0703125,5500
0.087890625,5501
0.08203125,5502
0.06640625,5503
0.0390625,5504
0.04296875,5505
0.046875,5506
0.076171875,5507
0.06640625,5508
0.056640625,5509
0.0625,5510
0.0625,5511
0.044921875,5512
0.0390625,5513
0.03125,5514
0.0390625,5515
0.09765625,5516
0.060546875,5517
0.052734375,5518
0.046875,5519
0.05859375,5520
0.068359375,5521
0.046875,5522
0.060546875,5523
0.05859375,5524
0.09375,5525
0.02734375,5526
0.03125,5527
0.0390625,5528
0.0390625,5529
0.08203125,5530
0.0703125,5531
0.08984375,5532
0.05078125,5533
0.0546875,5534
0.064453125,5535
0.060546875,5536
0.037109375,5537
0.0234375,5538
0.044921875,5539
0.0390625,5540
0.0390625,5541
0.02734375,5542
0.0390625,5543
0.076171875,5544
0.060546875,5545
0.080078125,5546
0.078125,5547
0.056640625,5548
0.0625,5549
0.05859375,5550
0.06640625,5551
0.05078125,5552
0.0703125,5553
0.044921875,5554
0.05078125,5555
0.0390625,5556
0.03125,5557
0.076171875,5558
0.08984375,5559
0.0859375,5560
0.064453125,5561
0.0625,5562
0.056640625,5563
0.0546875,5564
0.04296875,5565
0.048828125,5566
0.095703125,5567
0.0625,5568
0.0625,5569
0.046875,5570
0.068359375,5571
0.095703125,5572
0.083984375,5573
0.064453125,5574
0.056640625,5575
0.087890625,5576
0.103515625,5577
0.052734375,5578
0.0625,5579
0.078125,5580
0.091796875,5581
0.142578125,5582
0.08984375,5583
0.0703125,5584
0.0625,5585
0.04296875,5586
0.021484375,5587
0.029296875,5588
0.0390625,5589
0.10546875,5590
0.0625,5591
0.05859375,5592
0.0546875,5593
0.046875,5594
0.083984375,5595
0.07421875,5596
0.076171875,5597
0.07421875,5598
0.060546875,5599
0.04296875,5600
0.03125,5601
0.048828125,5602
0.033203125,5603
0.103515625,5604
0.06640625,5605
0.046875,5606
0.05078125,5607
0.0546875,5608
0.080078125,5609
0.091796875,5610
0.09375,5611
0.103515625,5612
0.048828125,5613
0.099609375,5614
0.0546875,5615
0.0546875,5616
0.05078125,5617
0.10546875,5618
0.09765625,5619
0.06640625,5620
0.056640625,5621
0.068359375,5622
0.03125,5623
0.03125,5624
0.046875,5625
0.05859375,5626
0.0546875,5627
0.044921875,5628
0.060546875,5629
0.060546875,5630
0.05078125,5631
0.048828125,5632
0.068359375,5633
0.04296875,5634
0.04296875,5635
0.068359375,5636
0.03125,5637
0.046875,5638
0.04296875,5639
0.04296875,5640
0.044921875,5641
0.03125,5642
0.044921875,5643
0.0390625,5644
0.05078125,5645
0.05859375,5646
0.078125,5647
0.05859375,5648
0.0234375,5649
0.119140625,5650
0.08203125,5651
0.07421875,5652
0.05078125,5653
0.07421875,5654
0.044921875,5655
0.04296875,5656
0.0390625,5657
0.076171875,5658
0.064453125,5659
0.046875,5660
0.0546875,5661
0.05078125,5662
0.03515625,5663
0.09375,5664
0.0859375,5665
0.06640625,5666
0.04296875,5667
0.046875,5668
0.05859375,5669
0.046875,5670
0.037109375,5671
0.046875,5672
0.056640625,5673
0.0703125,5674
0.06640625,5675
0.05078125,5676
0.0703125,5677
0.095703125,5678
0.09375,5679
0.078125,5680
0.0703125,5681
0.087890625,5682
0.05859375,5683
0.0703125,5684
0.076171875,5685
0.07421875,5686
0.052734375,5687
0.041015625,5688
0.0546875,5689
0.05078125,5690
0.095703125,5691
0.091796875,5692
0.076171875,5693
0.064453125,5694
0.06640625,5695
0.134765625,5696
0.0546875,5697
0.068359375,5698
0.068359375,5699
0.072265625,5700
0.048828125,5701
0.05078125,5702
0.03125,5703
0.0703125,5704
0.07421875,5705
0.140625,5706
0.11328125,5707
0.076171875,5708
0.09765625,5709
0.11328125,5710
0.064453125,5711
0.0625,5712
0.05078125,5713
0.0703125,5714
0.0625,5715
0.07421875,5716
0.07421875,5717
0.044921875,5718
0.06640625,5719
0.046875,5720
0.087890625,5721
0.0859375,5722
0.087890625,5723
0.119140625,5724
0.0546875,5725
0.07421875,5726
0.06640625,5727
0.0625,5728
0.087890625,5729
0.06640625,5730
0.068359375,5731
0.07421875,5732
0.103515625,5733
0.05859375,5734
0.052734375,5735
0.0625,5736
0.08984375,5737
0.09765625,5738
0.07421875,5739
0.052734375,5740
0.052734375,5741
0.068359375,5742
0.119140625,5743
0.14453125,5744
0.123046875,5745
0.1484375,5746
0.0859375,5747
0.060546875,5748
0.05078125,5749
0.046875,5750
0.08984375,5751
0.056640625,5752
0.072265625,5753
0.068359375,5754
0.06640625,5755
0.091796875,5756
0.13671875,5757
0.107421875,5758
0.13671875,5759
0.07421875,5760
0.076171875,5761
0.06640625,5762
0.06640625,5763
0.076171875,5764
0.087890625,5765
0.119140625,5766
0.091796875,5767
0.064453125,5768
0.10546875,5769
0.107421875,5770
0.068359375,5771
0.06640625,5772
0.046875,5773
0.05078125,5774
0.048828125,5775
0.107421875,5776
0.0703125,5777
0.07421875,5778
0.08984375,5779
0.09765625,5780
0.130859375,5781
0.16796875,5782
0.1796875,5783
0.091796875,5784
0.046875,5785
0.05078125,5786
0.03125,5787
0.048828125,5788
0.048828125,5789
0.07421875,5790
0.064453125,5791
0.07421875,5792
0.103515625,5793
0.115234375,5794
0.064453125,5795
0.087890625,5796
0.1015625,5797
0.05859375,5798
0.087890625,5799
0.08203125,5800
0.083984375,5801
0.0859375,5802
0.107421875,5803
0.115234375,5804
0.10546875,5805
0.09765625,5806
0.08203125,5807
0.041015625,5808
0.06640625,5809
0.080078125,5810
0.09375,5811
0.1171875,5812
0.1015625,5813
0.08203125,5814
0.078125,5815
0.078125,5816
0.09765625,5817
0.146484375,5818
0.1953125,5819
0.248046875,5820
0.083984375,5821
0.078125,5822
0.060546875,5823
0.064453125,5824
0.0546875,5825
0.078125,5826
0.048828125,5827
0.0625,5828
0.072265625,5829
0.091796875,5830
0.0625,5831
0.07421875,5832
0.0625,5833
0.095703125,5834
0.052734375,5835
0.080078125,5836
0.052734375,5837
0.115234375,5838
0.09375,5839
0.115234375,5840
0.11328125,5841
0.109375,5842
0.12109375,5843
0.07421875,5844
0.0703125,5845
0.103515625,5846
0.076171875,5847
0.083984375,5848
0.1015625,5849
0.1171875,5850
0.08203125,5851
0.078125,5852
0.06640625,5853
0.12109375,5854
0.126953125,5855
0.150390625,5856
0.126953125,5857
0.0859375,5858
0.044921875,5859
0.052734375,5860
0.021484375,5861
0.078125,5862
0.13671875,5863
0.1171875,5864
0.109375,5865
0.099609375,5866
0.130859375,5867
0.083984375,5868
0.13671875,5869
0.099609375,5870
0.087890625,5871
0.095703125,5872
0.037109375,5873
0.072265625,5874
0.05859375,5875
0.115234375,5876
0.1796875,5877
0.19140625,5878
0.185546875,5879
0.193359375,5880
0.07421875,5881
0.08984375,5882
0.15625,5883
0.1015625,5884
0.103515625,5885
0.142578125,5886
0.150390625,5887
0.14453125,5888
0.15234375,5889
0.201171875,5890
0.306640625,5891
0.28515625,5892
0.392578125,5893
0.408203125,5894
0.146484375,5895
0.1328125,5896
0.16796875,5897
0.205078125,5898
0.25390625,5899
0.166015625,5900
0.220703125,5901
0.220703125,5902
0.220703125,5903
0.341796875,5904
0.3515625,5905
0.37109375,5906
0.49609375,5907
0.375,5908
0.177734375,5909
0.099609375,5910
0.123046875,5911
0.064453125,5912
0.0390625,5913
0.06640625,5914
0.025390625,5915
0.072265625,5916
0.0625,5917
0.0859375,5918
0.111328125,5919
0.142578125,5920
0.158203125,5921
0.1484375,5922
0.16015625,5923
0.078125,5924
0.099609375,5925
0.05078125,5926
0.033203125,5927
0.076171875,5928
0.015625,5929
0.06640625,5930
0.068359375,5931
0.087890625,5932
0.1015625,5933
0.169921875,5934
0.16015625,5935
0.130859375,5936
0.185546875,5937
0.16015625,5938
0.171875,5939
0.060546875,5940
0.060546875,5941
0.0390625,5942
0.052734375,5943
0.107421875,5944
0.06640625,5945
0.064453125,5946
0.0234375,5947
0.091796875,5948
0.0625,5949
0.037109375,5950
0.072265625,5951
0.052734375,5952
0.05078125,5953
0.103515625,5954
0.1015625,5955
0.12890625,5956
0.0859375,5957
0.16015625,5958
0.109375,5959
0.119140625,5960
0.052734375,5961
0.08203125,5962
0.033203125,5963
0.052734375,5964
0.068359375,5965
0.029296875,5966
0.05078125,5967
0.11328125,5968
0.091796875,5969
0.134765625,5970
0.181640625,5971
0.169921875,5972
0.140625,5973
0.087890625,5974
0.068359375,5975
0.095703125,5976
0.03515625,5977
0.025390625,5978
0.0546875,5979
0.072265625,5980
0.03515625,5981
0.142578125,5982
0.212890625,5983
0.19140625,5984
0.166015625,5985
0.125,5986
0.119140625,5987
0.119140625,5988
0.111328125,5989
0.12890625,5990
0.244140625,5991
0.154296875,5992
0.251953125,5993
0.224609375,5994
0.1796875,5995
0.17578125,5996
0.150390625,5997
0.16015625,5998
0.15625,5999
0.203125,6000
0.248046875,6001
0.10546875,6002
0.1953125,6003
0.05078125,6004
0.0859375,6005
0.0859375,6006
0.115234375,6007
0.037109375,6008
0.044921875,6009
0.189453125,6010
0.22265625,6011
0.146484375,6012
0.2109375,6013
0.1484375,6014
0.154296875,6015
0.087890625,6016
0.185546875,6017
0.193359375,6018
0.208984375,6019
0.181640625,6020
0.146484375,6021
0.1171875,6022
0.044921875,6023
0.029296875,6024
0.041015625,6025
0.033203125,6026
0.033203125,6027
0.1171875,6028
0.09765625,6029
0.193359375,6030
0.064453125,6031
0.099609375,6032
0.14453125,6033
0.09375,6034
0.123046875,6035
0.232421875,6036
0.2109375,6037
0.16015625,6038
0.0703125,6039
0.140625,6040
0.046875,6041
0.052734375,6042
0.048828125,6043
0.044921875,6044
0.0234375,6045
0.037109375,6046
0.162109375,6047
0.23046875,6048
0.212890625,6049
0.138671875,6050
0.166015625,6051
0.09375,6052
0.109375,6053
0.109375,6054
0.142578125,6055
0.1796875,6056
0.154296875,6057
0.125,6058
0.064453125,6059
0.048828125,6060
0.03125,6061
0.025390625,6062
0.02734375,6063
0.037109375,6064
0.123046875,6065
0.111328125,6066
0.171875,6067
0.068359375,6068
0.025390625,6069
0.087890625,6070
0.115234375,6071
0.166015625,6072
0.1796875,6073
0.154296875,6074
0.12109375,6075
0.07421875,6076
0.111328125,6077
0.03125,6078
0.029296875,6079
0.048828125,6080
0.080078125,6081
0.033203125,6082
0.037109375,6083
0.185546875,6084
0.1875,6085
0.1796875,6086
0.142578125,6087
0.140625,6088
0.13671875,6089
0.078125,6090
0.119140625,6091
0.11328125,6092
0.20703125,6093
0.12890625,6094
0.158203125,6095
0.041015625,6096
0.05859375,6097
0.029296875,6098
0.044921875,6099
0.0078125,6100
0.013671875,6101
0.146484375,6102
0.16015625,6103
0.16796875,6104
0.091796875,6105
0.068359375,6106
0.181640625,6107
0.150390625,6108
0.13671875,6109
0.1796875,6110
0.220703125,6111
0.146484375,6112
0.046875,6113
0.1015625,6114
0.017578125,6115
0.041015625,6116
0.048828125,6117
0.044921875,6118
0.009765625,6119
0.048828125,6120
0.173828125,6121
0.19921875,6122
0.212890625,6123
0.236328125,6124
0.107421875,6125
0.041015625,6126
0.0234375,6127
0.056640625,6128
0.041015625,6129
0.16796875,6130
0.1015625,6131
0.064453125,6132
0.041015625,6133
0.056640625,6134
0.009765625,6135
0.033203125,6136
0.041015625,6137
0.01953125,6138
0.15625,6139
0.16796875,6140
0.1484375,6141
0.16796875,6142
0.162109375,6143
0.060546875,6144
0.046875,6145
0.048828125,6146
0.025390625,6147
0.115234375,6148
0.23828125,6149
0.1171875,6150
0.193359375,6151
0.0703125,6152
0.08203125,6153
0.07421875,6154
0.03515625,6155
0.017578125,6156
0.068359375,6157
0.166015625,6158
0.162109375,6159
0.162109375,6160
0.212890625,6161
0.15234375,6162
0.083984375,6163
0.109375,6164
0.115234375,6165
0.134765625,6166
0.2421875,6167
0.12109375,6168
0.126953125,6169
0.08984375,6170
0.037109375,6171
0.033203125,6172
0.029296875,6173
0.025390625,6174
0.033203125,6175
0.166015625,6176
0.294921875,6177
0.181640625,6178
0.103515625,6179
0.044921875,6180
0.17578125,6181
0.1328125,6182
0.193359375,6183
0.19140625,6184
0.2109375,6185
0.197265625,6186
0.08984375,6187
0.091796875,6188
0.05078125,6189
0.044921875,6190
0.064453125,6191
0.025390625,6192
0.00390625,6193
0.076171875,6194
0.236328125,6195
0.24609375,6196
0.24609375,6197
0.142578125,6198
0.095703125,6199
0.11328125,6200
0.095703125,6201
0.08203125,6202
0.13671875,6203
0.177734375,6204
0.15625,6205
0.19921875,6206
0.08203125,6207
0.037109375,6208
0.037109375,6209
0.01171875,6210
0.060546875,6211
0.037109375,6212
0.189453125,6213
0.251953125,6214
0.126953125,6215
0.080078125,6216
0.05859375,6217
0.134765625,6218
0.1171875,6219
0.177734375,6220
0.212890625,6221
0.1875,6222
0.169921875,6223
0.068359375,6224
0.11328125,6225
0.029296875,6226
0.056640625,6227
0.056640625,6228
0.037109375,6229
0.021484375,6230
0.09765625,6231
0.1640625,6232
0.240234375,6233
0.1640625,6234
0.185546875,6235
0.109375,6236
0.078125,6237
0.05078125,6238
0.083984375,6239
0.12109375,6240
0.16796875,6241
0.134765625,6242
0.171875,6243
0.08984375,6244
0.041015625,6245
0.021484375,6246
0.044921875,6247
0.015625,6248
0.033203125,6249
0.205078125,6250
0.177734375,6251
0.119140625,6252
0.080078125,6253
0.12890625,6254
0.140625,6255
0.0703125,6256
0.1875,6257
0.205078125,6258
0.16796875,6259
0.19140625,6260
0.076171875,6261
0.109375,6262
0.033203125,6263
0.1484375,6264
0.171875,6265
0.037109375,6266
0.021484375,6267
0.099609375,6268
0.0859375,6269
0.16015625,6270
0.123046875,6271
0.1484375,6272
0.076171875,6273
0.11328125,6274
0.052734375,6275
0.041015625,6276
0.10546875,6277
0.11328125,6278
0.099609375,6279
0.1484375,6280
0.04296875,6281
0.017578125,6282
0.025390625,6283
0.021484375,6284
0.037109375,6285
0.05078125,6286
0.220703125,6287
0.1875,6288
0.142578125,6289
0.16796875,6290
0.13671875,6291
0.0546875,6292
0.041015625,6293
0.056640625,6294
0.056640625,6295
0.193359375,6296
0.12890625,6297
0.158203125,6298
0.103515625,6299
0.07421875,6300
0.048828125,6301
0.037109375,6302
0.00390625,6303
0.05078125,6304
0.1953125,6305
0.171875,6306
0.203125,6307
0.1640625,6308
0.193359375,6309
0.123046875,6310
0.0859375,6311
0.080078125,6312
0.09375,6313
0.15234375,6314
0.1953125,6315
0.123046875,6316
0.111328125,6317
0.08203125,6318
0.025390625,6319
0.013671875,6320
0.017578125,6321
0.041015625,6322
0.0234375,6323
0.185546875,6324
0.189453125,6325
0.10546875,6326
0.07421875,6327
0.115234375,6328
0.1171875,6329
0.146484375,6330
0.173828125,6331
0.17578125,6332
0.173828125,6333
0.197265625,6334
0.095703125,6335
0.046875,6336
0.044921875,6337
0.021484375,6338
0.064453125,6339
0.00390625,6340
0.021484375,6341
0.212890625,6342
0.13671875,6343
0.189453125,6344
0.169921875,6345
0.255859375,6346
0.12109375,6347
0.11328125,6348
0.08203125,6349
0.130859375,6350
0.193359375,6351
0.197265625,6352
0.13671875,6353
0.162109375,6354
0.076171875,6355
0.0390625,6356
0.005859375,6357
0.0390625,6358
0.037109375,6359
0.083984375,6360
0.150390625,6361
0.17578125,6362
0.09765625,6363
0.068359375,6364
0.10546875,6365
0.197265625,6366
0.142578125,6367
0.16796875,6368
0.15234375,6369
0.234375,6370
0.1328125,6371
0.13671875,6372
0.0625,6373
0.068359375,6374
0.017578125,6375
0.033203125,6376
0.037109375,6377
0.0234375,6378
0.173828125,6379
0.220703125,6380
0.15234375,6381
0.142578125,6382
0.162109375,6383
0.1171875,6384
0.138671875,6385
0.1015625,6386
0.09765625,6387
0.134765625,6388
0.126953125,6389
0.12109375,6390
0.154296875,6391
0.1015625,6392
0.041015625,6393
0.005859375,6394
0.021484375,6395
0.03515625,6396
0.111328125,6397
0.16796875,6398
0.126953125,6399
0.0625,6400
0.080078125,6401
0.162109375,6402
0.1796875,6403
0.173828125,6404
0.19140625,6405
0.1640625,6406
0.216796875,6407
0.150390625,6408
0.130859375,6409
0.03515625,6410
0.0546875,6411
0.03125,6412
0.02734375,6413
0.005859375,6414
0.017578125,6415
0.205078125,6416
0.177734375,6417
0.19140625,6418
0.162109375,6419
0.134765625,6420
0.0625,6421
0.076171875,6422
0.03515625,6423
0.06640625,6424
0.162109375,6425
0.150390625,6426
0.099609375,6427
0.068359375,6428
0.02734375,6429
0.005859375,6430
0.017578125,6431
0.025390625,6432
0.02734375,6433
0.134765625,6434
0.197265625,6435
0.173828125,6436
0.171875,6437
0.2109375,6438
0.107421875,6439
0.072265625,6440
0.05859375,6441
0.076171875,6442
0.103515625,6443
0.208984375,6444
0.1328125,6445
0.25,6446
0.068359375,6447
0.048828125,6448
0.03515625,6449
0.025390625,6450
0.00390625,6451
0.03515625,6452
0.23046875,6453
0.197265625,6454
0.1875,6455
0.17578125,6456
0.185546875,6457
0.123046875,6458
0.083984375,6459
0.08984375,6460
0.13671875,6461
0.162109375,6462
0.173828125,6463
0.21484375,6464
0.126953125,6465
0.107421875,6466
0.033203125,6467
0.04296875,6468
0.017578125,6469
0.025390625,6470
0.142578125,6471
0.248046875,6472
0.15234375,6473
0.111328125,6474
0.09375,6475
0.16015625,6476
0.197265625,6477
0.216796875,6478
0.216796875,6479
0.197265625,6480
0.234375,6481
0.09765625,6482
0.08984375,6483
0.02734375,6484
0.021484375,6485
0.048828125,6486
0.009765625,6487
0.0078125,6488
0.056640625,6489
0.21484375,6490
0.197265625,6491
0.1640625,6492
0.216796875,6493
0.177734375,6494
0.109375,6495
0.109375,6496
0.107421875,6497
0.1484375,6498
0.169921875,6499
0.1484375,6500
0.189453125,6501
0.091796875,6502
0.08203125,6503
0.013671875,6504
0.029296875,6505
0.009765625,6506
0.044921875,6507
0.16015625,6508
0.1875,6509
0.138671875,6510
0.12109375,6511
0.09765625,6512
0.15625,6513
0.16015625,6514
0.169921875,6515
0.205078125,6516
0.220703125,6517
0.173828125,6518
0.08984375,6519
0.150390625,6520
0.044921875,6521
0.025390625,6522
0.037109375,6523
0.017578125,6524
0.033203125,6525
0.068359375,6526
0.189453125,6527
0.203125,6528
0.173828125,6529
0.2109375,6530
0.193359375,6531
0.158203125,6532
0.099609375,6533
0.095703125,6534
0.16015625,6535
0.1796875,6536
0.15625,6537
0.21484375,6538
0.08984375,6539
0.1171875,6540
0.029296875,6541
0.029296875,6542
0.015625,6543
0.048828125,6544
0.216796875,6545
0.17578125,6546
0.134765625,6547
0.12890625,6548
0.15625,6549
0.16015625,6550
0.251953125,6551
0.228515625,6552
0.1796875,6553
0.1875,6554
0.25,6555
0.072265625,6556
0.109375,6557
0.025390625,6558
0.078125,6559
0.099609375,6560
0.01953125,6561
0.044921875,6562
0.091796875,6563
0.115234375,6564
0.22265625,6565
0.1953125,6566
0.29296875,6567
0.236328125,6568
0.115234375,6569
0.0859375,6570
0.04296875,6571
0.046875,6572
0.1484375,6573
0.095703125,6574
0.134765625,6575
0.056640625,6576
0.029296875,6577
0.013671875,6578
0.056640625,6579
0.029296875,6580
0.015625,6581
0.244140625,6582
0.21875,6583
0.25390625,6584
0.177734375,6585
0.095703125,6586
0.162109375,6587
0.18359375,6588
0.14453125,6589
0.1328125,6590
0.171875,6591
0.197265625,6592
0.125,6593
0.158203125,6594
0.09375,6595
0.044921875,6596
0.029296875,6597
0.052734375,6598
0.03515625,6599
0.076171875,6600
0.29296875,6601
0.287109375,6602
0.21875,6603
0.20703125,6604
0.123046875,6605
0.0859375,6606
0.11328125,6607
0.091796875,6608
0.091796875,6609
0.173828125,6610
0.109375,6611
0.140625,6612
0.140625,6613
0.041015625,6614
0.009765625,6615
0.017578125,6616
0.052734375,6617
0.044921875,6618
0.265625,6619
0.25,6620
0.1953125,6621
0.060546875,6622
0.083984375,6623
0.177734375,6624
0.115234375,6625
0.185546875,6626
0.173828125,6627
0.177734375,6628
0.255859375,6629
0.087890625,6630
0.08984375,6631
0.03125,6632
0.029296875,6633
0.025390625,6634
0.021484375,6635
0.02734375,6636
0.07421875,6637
0.22265625,6638
0.1875,6639
0.177734375,6640
0.177734375,6641
0.083984375,6642
0.15234375,6643
0.09375,6644
0.07421875,6645
0.111328125,6646
0.1484375,6647
0.111328125,6648
0.185546875,6649
0.09375,6650
0.03515625,6651
0.025390625,6652
0.015625,6653
0.021484375,6654
0.048828125,6655
0.265625,6656
0.1875,6657
0.12109375,6658
0.05859375,6659
0.087890625,6660
0.123046875,6661
0.189453125,6662
0.1953125,6663
0.2109375,6664
0.140625,6665
0.14453125,6666
0.095703125,6667
0.0625,6668
0.041015625,6669
0.029296875,6670
0.021484375,6671
0.041015625,6672
0.025390625,6673
0.119140625,6674
0.236328125,6675
0.205078125,6676
0.1640625,6677
0.15234375,6678
0.087890625,6679
0.056640625,6680
0.0859375,6681
0.0625,6682
0.125,6683
0.1484375,6684
0.142578125,6685
0.140625,6686
0.0859375,6687
0.01953125,6688
0.025390625,6689
0.029296875,6690
0.009765625,6691
0.03515625,6692
0.28515625,6693
0.28125,6694
0.16796875,6695
0.078125,6696
0.15234375,6697
0.173828125,6698
0.15234375,6699
0.205078125,6700
0.177734375,6701
0.177734375,6702
0.138671875,6703
0.07421875,6704
0.0859375,6705
0.037109375,6706
0.017578125,6707
0.015625,6708
0.01171875,6709
0.01953125,6710
0.140625,6711
0.19921875,6712
0.255859375,6713
0.197265625,6714
0.16796875,6715
0.115234375,6716
0.048828125,6717
0.06640625,6718
0.0390625,6719
0.115234375,6720
0.1484375,6721
0.09765625,6722
0.126953125,6723
0.06640625,6724
0.033203125,6725
0.025390625,6726
0.017578125,6727
0.029296875,6728
0.01171875,6729
0.271484375,6730
0.2109375,6731
0.220703125,6732
0.17578125,6733
0.138671875,6734
0.0546875,6735
0.046875,6736
0.05859375,6737
0.05078125,6738
0.162109375,6739
0.19921875,6740
0.1953125,6741
0.09765625,6742
0.06640625,6743
0.033203125,6744
0.048828125,6745
0.021484375,6746
0.0234375,6747
0.205078125,6748
0.263671875,6749
0.255859375,6750
0.18359375,6751
0.15234375,6752
0.13671875,6753
0.0703125,6754
0.06640625,6755
0.0625,6756
0.12890625,6757
0.16015625,6758
0.107421875,6759
0.16015625,6760
0.056640625,6761
0.0390625,6762
0.0234375,6763
0.021484375,6764
0.013671875,6765
0.087890625,6766
0.26171875,6767
0.302734375,6768
0.16796875,6769
0.0859375,6770
0.103515625,6771
0.1328125,6772
0.154296875,6773
0.2109375,6774
0.21484375,6775
0.203125,6776
0.15234375,6777
0.12109375,6778
0.05078125,6779
0.037109375,6780
0.013671875,6781
0.013671875,6782
0.033203125,6783
0.0234375,6784
0.189453125,6785
0.169921875,6786
0.177734375,6787
0.15234375,6788
0.224609375,6789
0.0859375,6790
0.076171875,6791
0.0859375,6792
0.0625,6793
0.123046875,6794
0.193359375,6795
0.087890625,6796
0.146484375,6797
0.072265625,6798
0.021484375,6799
0.013671875,6800
0.01171875,6801
0.029296875,6802
0.052734375,6803
0.265625,6804
0.17578125,6805
0.0859375,6806
0.07421875,6807
0.16796875,6808
0.142578125,6809
0.181640625,6810
0.1953125,6811
0.16796875,6812
0.21875,6813
0.123046875,6814
0.1328125,6815
0.06640625,6816
0.025390625,6817
0.013671875,6818
0.009765625,6819
0.044921875,6820
0.013671875,6821
0.193359375,6822
0.23046875,6823
0.234375,6824
0.14453125,6825
0.10546875,6826
0.09765625,6827
0.07421875,6828
0.0859375,6829
0.072265625,6830
0.142578125,6831
0.228515625,6832
0.12109375,6833
0.142578125,6834
0.07421875,6835
0.044921875,6836
0.025390625,6837
0.021484375,6838
0.0078125,6839
0.08984375,6840
0.2109375,6841
0.25,6842
0.138671875,6843
0.046875,6844
0.130859375,6845
0.1328125,6846
0.19140625,6847
0.16796875,6848
0.23828125,6849
0.177734375,6850
0.15625,6851
0.130859375,6852
0.0703125,6853
0.12109375,6854
0.056640625,6855
0.0625,6856
0.076171875,6857
0.021484375,6858
0.11328125,6859
0.14453125,6860
0.18359375,6861
0.1875,6862
0.185546875,6863
0.1640625,6864
0.1015625,6865
0.095703125,6866
0.0546875,6867
0.12890625,6868
0.142578125,6869
0.080078125,6870
0.103515625,6871
0.02734375,6872
0.044921875,6873
0.029296875,6874
0.025390625,6875
0.015625,6876
0.119140625,6877
0.2109375,6878
0.208984375,6879
0.1796875,6880
0.1875,6881
0.12890625,6882
0.060546875,6883
0.05078125,6884
0.04296875,6885
0.083984375,6886
0.205078125,6887
0.126953125,6888
0.1875,6889
0.08984375,6890
0.037109375,6891
0.041015625,6892
0.0234375,6893
0.08203125,6894
0.076171875,6895
0.287109375,6896
0.1796875,6897
0.150390625,6898
0.212890625,6899
0.177734375,6900
0.166015625,6901
0.09375,6902
0.076171875,6903
0.103515625,6904
0.185546875,6905
0.142578125,6906
0.09375,6907
0.138671875,6908
0.033203125,6909
0.0546875,6910
0.02734375,6911
0.009765625,6912
0.029296875,6913
0.16796875,6914
0.173828125,6915
0.1171875,6916
0.08203125,6917
0.076171875,6918
0.197265625,6919
0.138671875,6920
0.123046875,6921
0.216796875,6922
0.146484375,6923
0.13671875,6924
0.0859375,6925
0.177734375,6926
0.05078125,6927
0.029296875,6928
0.033203125,6929
0.025390625,6930
0.078125,6931
0.095703125,6932
0.232421875,6933
0.19921875,6934
0.25390625,6935
0.1796875,6936
0.154296875,6937
0.169921875,6938
0.095703125,6939
0.107421875,6940
0.21484375,6941
0.169921875,6942
0.12890625,6943
0.076171875,6944
0.142578125,6945
0.02734375,6946
0.080078125,6947
0.017578125,6948
0.0234375,6949
0.056640625,6950
0.150390625,6951
0.189453125,6952
0.125,6953
0.107421875,6954
0.046875,6955
0.12890625,6956
0.091796875,6957
0.130859375,6958
0.158203125,6959
0.1640625,6960
0.162109375,6961
0.08984375,6962
0.171875,6963
0.025390625,6964
0.02734375,6965
0.00390625,6966
0.021484375,6967
0.052734375,6968
0.140625,6969
0.158203125,6970
0.142578125,6971
0.173828125,6972
0.203125,6973
0.123046875,6974
0.103515625,6975
0.13671875,6976
0.10546875,6977
0.12109375,6978
0.2109375,6979
0.138671875,6980
0.10546875,6981
0.15234375,6982
0.033203125,6983
0.017578125,6984
0.029296875,6985
0.021484375,6986
0.01953125,6987
0.173828125,6988
0.1875,6989
0.134765625,6990
0.119140625,6991
0.109375,6992
0.16796875,6993
0.140625,6994
0.16796875,6995
0.1875,6996
0.193359375,6997
0.150390625,6998
0.052734375,6999
0.17578125,7000
0.021484375,7001
0.0390625,7002
0.044921875,7003
0.03515625,7004
0.044921875,7005
0.150390625,7006
0.25390625,7007
0.162109375,7008
0.169921875,7009
0.271484375,7010
0.169921875,7011
0.06640625,7012
0.06640625,7013
0.0625,7014
0.044921875,7015
0.166015625,7016
0.14453125,7017
0.02734375,7018
0.08984375,7019
0.013671875,7020
0.033203125,7021
0.033203125,7022
0.029296875,7023
0.015625,7024
0.208984375,7025
0.16015625,7026
0.197265625,7027
0.203125,7028
0.203125,7029
0.10546875,7030
0.083984375,7031
0.087890625,7032
0.091796875,7033
0.173828125,7034
0.158203125,7035
0.11328125,7036
0.212890625,7037
0.08203125,7038
0.029296875,7039
0.017578125,7040
0.044921875,7041
0.046875,7042
0.1484375,7043
0.171875,7044
0.234375,7045
0.203125,7046
0.255859375,7047
0.125,7048
0.115234375,7049
0.09765625,7050
0.095703125,7051
0.103515625,7052
0.154296875,7053
0.123046875,7054
0.109375,7055
0.111328125,7056
0.0390625,7057
0.056640625,7058
0.046875,7059
0.013671875,7060
0.041015625,7061
0.2109375,7062
0.201171875,7063
0.146484375,7064
0.158203125,7065
0.087890625,7066
0.1796875,7067
0.173828125,7068
0.189453125,7069
0.205078125,7070
0.21484375,7071
0.18359375,7072
0.119140625,7073
0.099609375,7074
0.02734375,7075
0.033203125,7076
0.033203125,7077
0.025390625,7078
0.0546875,7079
0.150390625,7080
0.2265625,7081
0.21484375,7082
0.232421875,7083
0.2109375,7084
0.11328125,7085
0.0625,7086
0.083984375,7087
0.130859375,7088
0.13671875,7089
0.13671875,7090
0.080078125,7091
0.1171875,7092
0.11328125,7093
0.029296875,7094
0.033203125,7095
0.021484375,7096
0.0234375,7097
0.044921875,7098
0.185546875,7099
0.185546875,7100
0.146484375,7101
0.0859375,7102
0.109375,7103
0.169921875,7104
0.19140625,7105
0.232421875,7106
0.236328125,7107
0.21484375,7108
0.203125,7109
0.044921875,7110
0.0703125,7111
0.041015625,7112
0.0625,7113
0.015625,7114
0.037109375,7115
0.052734375,7116
0.19921875,7117
0.265625,7118
0.216796875,7119
0.2734375,7120
0.197265625,7121
0.162109375,7122
0.166015625,7123
0.107421875,7124
0.119140625,7125
0.154296875,7126
0.1171875,7127
0.09765625,7128
0.1328125,7129
0.08203125,7130
0.013671875,7131
0.087890625,7132
0.037109375,7133
0.0703125,7134
0.033203125,7135
0.224609375,7136
0.16015625,7137
0.083984375,7138
0.076171875,7139
0.126953125,7140
0.1953125,7141
0.18359375,7142
0.1640625,7143
0.1796875,7144
0.123046875,7145
0.181640625,7146
0.11328125,7147
0.072265625,7148
0.091796875,7149
0.078125,7150
0.052734375,7151
0.021484375,7152
0.072265625,7153
0.1171875,7154
0.119140625,7155
0.13671875,7156
0.185546875,7157
0.150390625,7158
0.158203125,7159
0.14453125,7160
0.0625,7161
0.06640625,7162
0.181640625,7163
0.20703125,7164
0.216796875,7165
0.091796875,7166
0.10546875,7167
0.068359375,7168
0.150390625,7169
0.087890625,7170
0.177734375,7171
0.185546875,7172
0.275390625,7173
0.259765625,7174
0.263671875,7175
0.267578125,7176
0.16015625,7177
0.0703125,7178
0.177734375,7179
0.154296875,7180
0.150390625,7181
0.166015625,7182
0.166015625,7183
0.189453125,7184
0.162109375,7185
0.06640625,7186
0.087890625,7187
0.0859375,7188
0.046875,7189
0.025390625,7190
0.130859375,7191
0.208984375,7192
0.1484375,7193
0.193359375,7194
0.14453125,7195
0.173828125,7196
0.087890625,7197
0.16015625,7198
0.158203125,7199
0.15234375,7200
0.15234375,7201
0.115234375,7202
0.1015625,7203
0.119140625,7204
0.05078125,7205
0.015625,7206
0.025390625,7207
0.021484375,7208
0.099609375,7209
0.18359375,7210
0.130859375,7211
0.103515625,7212
0.048828125,7213
0.138671875,7214
0.111328125,7215
0.126953125,7216
0.185546875,7217
0.212890625,7218
0.1484375,7219
0.1015625,7220
0.109375,7221
0.04296875,7222
0.037109375,7223
0.076171875,7224
0.048828125,7225
0.029296875,7226
0.0078125,7227
0.12890625,7228
0.16015625,7229
0.1328125,7230
0.125,7231
0.1328125,7232
0.11328125,7233
0.107421875,7234
0.1171875,7235
0.140625,7236
0.23828125,7237
0.140625,7238
0.14453125,7239
0.091796875,7240
0.09375,7241
0.029296875,7242
0.048828125,7243
0.041015625,7244
0.0234375,7245
0.083984375,7246
0.189453125,7247
0.15625,7248
0.162109375,7249
0.08203125,7250
0.140625,7251
0.13671875,7252
0.1640625,7253
0.185546875,7254
0.169921875,7255
0.18359375,7256
0.130859375,7257
0.1484375,7258
0.02734375,7259
0.03515625,7260
0.05078125,7261
0.052734375,7262
0.033203125,7263
0.041015625,7264
0.185546875,7265
0.193359375,7266
0.203125,7267
0.13671875,7268
0.115234375,7269
0.123046875,7270
0.123046875,7271
0.15625,7272
0.125,7273
0.22265625,7274
0.169921875,7275
0.119140625,7276
0.107421875,7277
0.078125,7278
0.041015625,7279
0.033203125,7280
0.017578125,7281
0.0234375,7282
0.103515625,7283
0.14453125,7284
0.208984375,7285
0.076171875,7286
0.052734375,7287
0.1328125,7288
0.16015625,7289
0.208984375,7290
0.197265625,7291
0.166015625,7292
0.240234375,7293
0.09375,7294
0.171875,7295
0.033203125,7296
0.0390625,7297
0.076171875,7298
0.041015625,7299
0.017578125,7300
0.013671875,7301
0.146484375,7302
0.150390625,7303
0.13671875,7304
0.181640625,7305
0.134765625,7306
0.1171875,7307
0.041015625,7308
0.05078125,7309
0.04296875,7310
0.162109375,7311
0.12109375,7312
0.072265625,7313
0.0703125,7314
0.037109375,7315
0.025390625,7316
0.02734375,7317
0.037109375,7318
0.017578125,7319
0.162109375,7320
0.212890625,7321
0.212890625,7322
0.162109375,7323
0.142578125,7324
0.056640625,7325
0.068359375,7326
0.044921875,7327
0.041015625,7328
0.119140625,7329
0.19140625,7330
0.109375,7331
0.171875,7332
0.1015625,7333
0.041015625,7334
0.056640625,7335
0.060546875,7336
0.00390625,7337
0.005859375,7338
0.208984375,7339
0.208984375,7340
0.20703125,7341
0.17578125,7342
0.169921875,7343
0.150390625,7344
0.12890625,7345
0.103515625,7346
0.10546875,7347
0.16796875,7348
0.220703125,7349
0.083984375,7350
0.060546875,7351
0.060546875,7352
0.04296875,7353
0.03125,7354
0.021484375,7355
0.037109375,7356
0.14453125,7357
0.18359375,7358
0.244140625,7359
0.083984375,7360
0.087890625,7361
0.126953125,7362
0.1015625,7363
0.1484375,7364
0.248046875,7365
0.189453125,7366
0.16015625,7367
0.1015625,7368
0.181640625,7369
0.0390625,7370
0.052734375,7371
0.029296875,7372
0.068359375,7373
0.033203125,7374
0.0390625,7375
0.16796875,7376
0.2265625,7377
0.275390625,7378
0.185546875,7379
0.123046875,7380
0.12109375,7381
0.126953125,7382
0.099609375,7383
0.142578125,7384
0.134765625,7385
0.1484375,7386
0.119140625,7387
0.087890625,7388
0.06640625,7389
0.037109375,7390
0.056640625,7391
0.025390625,7392
0.025390625,7393
0.111328125,7394
0.205078125,7395
0.189453125,7396
0.1015625,7397
0.087890625,7398
0.11328125,7399
0.115234375,7400
0.150390625,7401
0.166015625,7402
0.177734375,7403
0.173828125,7404
0.048828125,7405
0.13671875,7406
0.025390625,7407
0.041015625,7408
0.048828125,7409
0.029296875,7410
0.013671875,7411
0.0703125,7412
0.18359375,7413
0.185546875,7414
0.173828125,7415
0.138671875,7416
0.138671875,7417
0.126953125,7418
0.087890625,7419
0.078125,7420
0.1640625,7421
0.197265625,7422
0.134765625,7423
0.12109375,7424
0.078125,7425
0.044921875,7426
0.025390625,7427
0.068359375,7428
0.01953125,7429
0.029296875,7430
0.14453125,7431
0.216796875,7432
0.1015625,7433
0.0625,7434
0.0546875,7435
0.1171875,7436
0.1328125,7437
0.1484375,7438
0.15234375,7439
0.228515625,7440
0.130859375,7441
0.07421875,7442
0.107421875,7443
0.04296875,7444
0.154296875,7445
0.158203125,7446
0.08984375,7447
0.076171875,7448
0.072265625,7449
0.07421875,7450
0.10546875,7451
0.146484375,7452
0.119140625,7453
0.181640625,7454
0.099609375,7455
0.083984375,7456
0.078125,7457
0.064453125,7458
0.13671875,7459
0.1171875,7460
0.15625,7461
0.0390625,7462
0.025390625,7463
0.005859375,7464
0.033203125,7465
0.025390625,7466
0.052734375,7467
0.18359375,7468
0.169921875,7469
0.1640625,7470
0.177734375,7471
0.126953125,7472
0.05859375,7473
0.0546875,7474
0.052734375,7475
0.04296875,7476
0.1875,7477
0.181640625,7478
0.1484375,7479
0.166015625,7480
0.0859375,7481
0.048828125,7482
0.044921875,7483
0.017578125,7484
0.02734375,7485
0.103515625,7486
0.181640625,7487
0.171875,7488
0.1640625,7489
0.169921875,7490
0.115234375,7491
0.10546875,7492
0.080078125,7493
0.09765625,7494
0.123046875,7495
0.111328125,7496
0.123046875,7497
0.13671875,7498
0.083984375,7499
0.03125,7500
0.013671875,7501
0.02734375,7502
0.025390625,7503
0.060546875,7504
0.177734375,7505
0.1484375,7506
0.16015625,7507
0.123046875,7508
0.1015625,7509
0.1015625,7510
0.130859375,7511
0.138671875,7512
0.1953125,7513
0.173828125,7514
0.201171875,7515
0.083984375,7516
0.08984375,7517
0.025390625,7518
0.052734375,7519
0.033203125,7520
0.017578125,7521
0.03125,7522
0.126953125,7523
0.205078125,7524
0.18359375,7525
0.201171875,7526
0.19140625,7527
0.099609375,7528
0.1015625,7529
0.09765625,7530
0.130859375,7531
0.166015625,7532
0.169921875,7533
0.10546875,7534
0.1796875,7535
0.09765625,7536
0.037109375,7537
0.033203125,7538
0.041015625,7539
0.013671875,7540
0.05078125,7541
0.177734375,7542
0.21875,7543
0.220703125,7544
0.103515625,7545
0.1015625,7546
0.1015625,7547
0.1328125,7548
0.1484375,7549
0.146484375,7550
0.1484375,7551
0.173828125,7552
0.083984375,7553
0.109375,7554
0.029296875,7555
0.05078125,7556
0.0078125,7557
0.025390625,7558
0.029296875,7559
0.14453125,7560
0.099609375,7561
0.1484375,7562
0.146484375,7563
0.203125,7564
0.140625,7565
0.09375,7566
0.080078125,7567
0.080078125,7568
0.19140625,7569
0.15625,7570
0.11328125,7571
0.111328125,7572
0.08203125,7573
0.033203125,7574
0.021484375,7575
0.041015625,7576
0.029296875,7577
0.01953125,7578
0.197265625,7579
0.275390625,7580
0.220703125,7581
0.099609375,7582
0.12109375,7583
0.142578125,7584
0.119140625,7585
0.140625,7586
0.138671875,7587
0.14453125,7588
0.12890625,7589
0.115234375,7590
0.033203125,7591
0.03125,7592
0.037109375,7593
0.009765625,7594
0.02734375,7595
0.025390625,7596
0.162109375,7597
0.154296875,7598
0.236328125,7599
0.15625,7600
0.18359375,7601
0.111328125,7602
0.03125,7603
0.05078125,7604
0.03515625,7605
0.173828125,7606
0.091796875,7607
0.099609375,7608
0.087890625,7609
0.048828125,7610
0.029296875,7611
0.017578125,7612
0.044921875,7613
0.048828125,7614
0.0703125,7615
0.23046875,7616
0.19921875,7617
0.2109375,7618
0.18359375,7619
0.134765625,7620
0.052734375,7621
0.05078125,7622
0.068359375,7623
0.07421875,7624
0.16015625,7625
0.1328125,7626
0.158203125,7627
0.103515625,7628
0.064453125,7629
0.029296875,7630
0.029296875,7631
0.01171875,7632
0.056640625,7633
0.208984375,7634
0.109375,7635
0.154296875,7636
0.16796875,7637
0.1953125,7638
0.138671875,7639
0.126953125,7640
0.07421875,7641
0.15234375,7642
0.18359375,7643
0.13671875,7644
0.19921875,7645
0.119140625,7646
0.138671875,7647
0.02734375,7648
0.033203125,7649
0.01171875,7650
0.03515625,7651
0.091796875,7652
0.201171875,7653
0.166015625,7654
0.109375,7655
0.09375,7656
0.130859375,7657
0.181640625,7658
0.123046875,7659
0.158203125,7660
0.2109375,7661
0.173828125,7662
0.154296875,7663
0.12109375,7664
0.046875,7665
0.060546875,7666
0.033203125,7667
0.033203125,7668
0.029296875,7669
0.03125,7670
0.259765625,7671
0.166015625,7672
0.17578125,7673
0.224609375,7674
0.18359375,7675
0.146484375,7676
0.12109375,7677
0.140625,7678
0.162109375,7679
0.146484375,7680
0.154296875,7681
0.1640625,7682
0.134765625,7683
0.0625,7684
0.009765625,7685
0.033203125,7686
0.041015625,7687
0.02734375,7688
0.099609375,7689
0.189453125,7690
0.142578125,7691
0.09765625,7692
0.064453125,7693
0.189453125,7694
0.15625,7695
0.166015625,7696
0.171875,7697
0.177734375,7698
0.177734375,7699
0.12890625,7700
0.17578125,7701
0.01953125,7702
0.03515625,7703
0.025390625,7704
0.01171875,7705
0.013671875,7706
0.017578125,7707
0.234375,7708
0.228515625,7709
0.255859375,7710
0.220703125,7711
0.240234375,7712
0.23828125,7713
0.150390625,7714
0.103515625,7715
0.126953125,7716
0.138671875,7717
0.15234375,7718
0.158203125,7719
0.107421875,7720
0.103515625,7721
0.048828125,7722
0.056640625,7723
0.037109375,7724
0.02734375,7725
0.162109375,7726
0.1796875,7727
0.123046875,7728
0.083984375,7729
0.07421875,7730
0.228515625,7731
0.185546875,7732
0.234375,7733
0.216796875,7734
0.23828125,7735
0.15625,7736
0.078125,7737
0.140625,7738
0.041015625,7739
0.09375,7740
0.099609375,7741
0.064453125,7742
0.03125,7743
0.037109375,7744
0.197265625,7745
0.146484375,7746
0.2421875,7747
0.27734375,7748
0.193359375,7749
0.138671875,7750
0.126953125,7751
0.05078125,7752
0.072265625,7753
0.12890625,7754
0.107421875,7755
0.05078125,7756
0.07421875,7757
0.021484375,7758
0.0390625,7759
0.0234375,7760
0.037109375,7761
0.025390625,7762
0.19921875,7763
0.205078125,7764
0.232421875,7765
0.16796875,7766
0.166015625,7767
0.16796875,7768
0.16015625,7769
0.15625,7770
0.1484375,7771
0.134765625,7772
0.193359375,7773
0.099609375,7774
0.21875,7775
0.09375,7776
0.048828125,7777
0.009765625,7778
0.021484375,7779
0.04296875,7780
0.033203125,7781
0.30859375,7782
0.24609375,7783
0.18359375,7784
0.19921875,7785
0.12890625,7786
0.12890625,7787
0.134765625,7788
0.13671875,7789
0.0859375,7790
0.173828125,7791
0.125,7792
0.1875,7793
0.12890625,7794
0.03125,7795
0.013671875,7796
0.01953125,7797
0.017578125,7798
0.025390625,7799
0.21875,7800
0.19921875,7801
0.2109375,7802
0.05859375,7803
0.099609375,7804
0.171875,7805
0.1640625,7806
0.125,7807
0.22265625,7808
0.197265625,7809
0.21484375,7810
0.08203125,7811
0.095703125,7812
0.048828125,7813
0.041015625,7814
0.033203125,7815
0.033203125,7816
0.025390625,7817
0.05859375,7818
0.224609375,7819
0.2265625,7820
0.1953125,7821
0.19140625,7822
0.140625,7823
0.115234375,7824
0.09765625,7825
0.10546875,7826
0.125,7827
0.140625,7828
0.08984375,7829
0.14453125,7830
0.109375,7831
0.07421875,7832
0.037109375,7833
0.021484375,7834
0.01953125,7835
0.029296875,7836
0.248046875,7837
0.197265625,7838
0.20703125,7839
0.0703125,7840
0.06640625,7841
0.1484375,7842
0.1328125,7843
0.16015625,7844
0.125,7845
0.1328125,7846
0.19921875,7847
0.064453125,7848
0.10546875,7849
0.025390625,7850
0.0234375,7851
0.01171875,7852
0.01953125,7853
0.068359375,7854
0.048828125,7855
0.1953125,7856
0.25390625,7857
0.20703125,7858
0.14453125,7859
0.15234375,7860
0.146484375,7861
0.1328125,7862
0.078125,7863
0.0703125,7864
0.115234375,7865
0.103515625,7866
0.142578125,7867
0.076171875,7868
0.033203125,7869
0.021484375,7870
0.021484375,7871
0.029296875,7872
0.0078125,7873
0.287109375,7874
0.18359375,7875
0.119140625,7876
0.08203125,7877
0.078125,7878
0.115234375,7879
0.11328125,7880
0.1796875,7881
0.150390625,7882
0.216796875,7883
0.224609375,7884
0.0546875,7885
0.076171875,7886
0.015625,7887
0.025390625,7888
0.017578125,7889
0.044921875,7890
0.03125,7891
0.072265625,7892
0.265625,7893
0.25390625,7894
0.185546875,7895
0.1484375,7896
0.09765625,7897
0.072265625,7898
0.052734375,7899
0.013671875,7900
0.05859375,7901
0.197265625,7902
0.06640625,7903
0.15234375,7904
0.0234375,7905
0.048828125,7906
0.0234375,7907
0.021484375,7908
0.029296875,7909
0.017578125,7910
0.212890625,7911
0.18359375,7912
0.1484375,7913
0.16796875,7914
0.130859375,7915
0.052734375,7916
0.05078125,7917
0.0390625,7918
0.0234375,7919
0.150390625,7920
0.205078125,7921
0.095703125,7922
0.111328125,7923
0.048828125,7924
0.041015625,7925
0.021484375,7926
0.029296875,7927
0.02734375,7928
0.078125,7929
0.267578125,7930
0.2578125,7931
0.208984375,7932
0.16015625,7933
0.111328125,7934
0.10546875,7935
0.10546875,7936
0.080078125,7937
0.103515625,7938
0.228515625,7939
0.103515625,7940
0.193359375,7941
0.125,7942
0.046875,7943
0.044921875,7944
0.02734375,7945
0.013671875,7946
0.013671875,7947
0.263671875,7948
0.232421875,7949
0.15625,7950
0.091796875,7951
0.14453125,7952
0.16796875,7953
0.109375,7954
0.109375,7955
0.14453125,7956
0.19140625,7957
0.21484375,7958
0.064453125,7959
0.0625,7960
0.025390625,7961
0.03125,7962
0.03125,7963
0.029296875,7964
0.048828125,7965
0.134765625,7966
0.251953125,7967
0.236328125,7968
0.16015625,7969
0.15234375,7970
0.12890625,7971
0.109375,7972
0.083984375,7973
0.091796875,7974
0.138671875,7975
0.1875,7976
0.095703125,7977
0.1640625,7978
0.0703125,7979
0.037109375,7980
0.005859375,7981
0.013671875,7982
0.015625,7983
0.017578125,7984
0.22265625,7985
0.302734375,7986
0.16796875,7987
0.0546875,7988
0.125,7989
0.1328125,7990
0.16015625,7991
0.205078125,7992
0.17578125,7993
0.1953125,7994
0.205078125,7995
0.10546875,7996
0.06640625,7997
0.041015625,7998
0.033203125,7999
0.01171875,8000
0.03125,8001
0.03125,8002
0.13671875,8003
0.25,8004
0.232421875,8005
0.22265625,8006
0.16796875,8007
0.087890625,8008
0.068359375,8009
0.06640625,8010
0.08984375,8011
0.220703125,8012
0.166015625,8013
0.11328125,8014
0.181640625,8015
0.107421875,8016
0.013671875,8017
0.013671875,8018
0.009765625,8019
0.033203125,8020
0.03515625,8021
0.263671875,8022
0.1640625,8023
0.12109375,8024
0.0859375,8025
0.134765625,8026
0.1875,8027
0.140625,8028
0.15234375,8029
0.13671875,8030
0.193359375,8031
0.1640625,8032
0.1484375,8033
0.06640625,8034
0.0546875,8035
0.080078125,8036
0.064453125,8037
0.068359375,8038
0.01171875,8039
0.1328125,8040
0.11328125,8041
0.17578125,8042
0.158203125,8043
0.123046875,8044
0.16796875,8045
0.08203125,8046
0.048828125,8047
0.072265625,8048
0.119140625,8049
0.162109375,8050
0.0859375,8051
0.060546875,8052
0.02734375,8053
0.05859375,8054
0.015625,8055
0.009765625,8056
0.021484375,8057
0.056640625,8058
0.201171875,8059
0.216796875,8060
0.19140625,8061
0.21875,8062
0.146484375,8063
0.087890625,8064
0.02734375,8065
0.04296875,8066
0.0703125,8067
0.302734375,8068
0.1171875,8069
0.171875,8070
0.107421875,8071
0.033203125,8072
0.052734375,8073
0.025390625,8074
0.083984375,8075
0.083984375,8076
0.23828125,8077
0.21484375,8078
0.220703125,8079
0.203125,8080
0.189453125,8081
0.0703125,8082
0.091796875,8083
0.134765625,8084
0.125,8085
0.162109375,8086
0.146484375,8087
0.10546875,8088
0.158203125,8089
0.10546875,8090
0.013671875,8091
0.041015625,8092
0.044921875,8093
0.0234375,8094
0.095703125,8095
0.21875,8096
0.189453125,8097
0.162109375,8098
0.154296875,8099
0.126953125,8100
0.203125,8101
0.11328125,8102
0.197265625,8103
0.17578125,8104
0.1796875,8105
0.1328125,8106
0.1328125,8107
0.0703125,8108
0.048828125,8109
0.029296875,8110
0.015625,8111
0.064453125,8112
0.048828125,8113
0.21484375,8114
0.232421875,8115
0.171875,8116
0.236328125,8117
0.203125,8118
0.140625,8119
0.12890625,8120
0.109375,8121
0.119140625,8122
0.166015625,8123
0.146484375,8124
0.0859375,8125
0.115234375,8126
0.06640625,8127
0.013671875,8128
0.048828125,8129
0.025390625,8130
0.03125,8131
0.140625,8132
0.177734375,8133
0.1796875,8134
0.12890625,8135
0.09375,8136
0.140625,8137
0.072265625,8138
0.064453125,8139
0.123046875,8140
0.1328125,8141
0.15234375,8142
0.091796875,8143
0.15234375,8144
0.052734375,8145
0.05078125,8146
0.033203125,8147
0.01953125,8148
0.08984375,8149
0.04296875,8150
0.234375,8151
0.150390625,8152
0.169921875,8153
0.220703125,8154
0.169921875,8155
0.134765625,8156
0.15234375,8157
0.138671875,8158
0.068359375,8159
0.216796875,8160
0.181640625,8161
0.078125,8162
0.173828125,8163
0.05078125,8164
0.041015625,8165
0.041015625,8166
0.009765625,8167
0.08203125,8168
0.14453125,8169
0.22265625,8170
0.181640625,8171
0.10546875,8172
0.125,8173
0.15625,8174
0.08984375,8175
0.107421875,8176
0.171875,8177
0.158203125,8178
0.16015625,8179
0.109375,8180
0.1953125,8181
0.05078125,8182
0.017578125,8183
0.029296875,8184
0.009765625,8185
0.04296875,8186
0.025390625,8187
0.228515625,8188
0.107421875,8189
0.16015625,8190
0.205078125,8191
0.1796875,8192
0.091796875,8193
0.072265625,8194
0.046875,8195
0.056640625,8196
0.1875,8197
0.12109375,8198
0.0625,8199
0.041015625,8200
0.033203125,8201
0.0390625,8202
0.02734375,8203
0.017578125,8204
0.025390625,8205
0.154296875,8206
0.197265625,8207
0.185546875,8208
0.19140625,8209
0.150390625,8210
0.12109375,8211
0.103515625,8212
0.05859375,8213
0.06640625,8214
0.140625,8215
0.189453125,8216
0.13671875,8217
0.140625,8218
0.068359375,8219
0.044921875,8220
0.029296875,8221
0.029296875,8222
0.078125,8223
0.091796875,8224
0.248046875,8225
0.203125,8226
0.205078125,8227
0.24609375,8228
0.23046875,8229
0.140625,8230
0.103515625,8231
0.068359375,8232
0.0859375,8233
0.234375,8234
0.17578125,8235
0.103515625,8236
0.158203125,8237
0.02734375,8238
0.029296875,8239
0.052734375,8240
0.04296875,8241
0.041015625,8242
0.193359375,8243
0.203125,8244
0.125,8245
0.130859375,8246
0.09765625,8247
0.21484375,8248
0.1796875,8249
0.208984375,8250
0.17578125,8251
0.2109375,8252
0.201171875,8253
0.09375,8254
0.1875,8255
0.044921875,8256
0.046875,8257
0.05078125,8258
0.041015625,8259
0.146484375,8260
0.240234375,8261
0.224609375,8262
0.265625,8263
0.298828125,8264
0.283203125,8265
0.26171875,8266
0.404296875,8267
0.44921875,8268
0.55078125,8269
0.576171875,8270
0.26171875,8271
0.1953125,8272
0.17578125,8273
0.18359375,8274
0.041015625,8275
0.041015625,8276
0.052734375,8277
0.052734375,8278
0.06640625,8279
0.208984375,8280
0.203125,8281
0.216796875,8282
0.234375,8283
0.26171875,8284
0.16015625,8285
0.12890625,8286
0.1484375,8287
0.13671875,8288
0.060546875,8289
0.11328125,8290
0.03515625,8291
0.083984375,8292
0.076171875,8293
0.08984375,8294
0.083984375,8295
0.0859375,8296
0.1015625,8297
0.17578125,8298
0.2265625,8299
0.130859375,8300
0.20703125,8301
0.19921875,8302
0.017578125,8303
0.048828125,8304
0.029296875,8305
0.04296875,8306
0.068359375,8307
0.201171875,8308
0.125,8309
0.09765625,8310
0.16015625,8311
0.021484375,8312
0.041015625,8313
0.013671875,8314
0.083984375,8315
0.103515625,8316
0.248046875,8317
0.18359375,8318
0.201171875,8319
0.1484375,8320
0.23828125,8321
0.138671875,8322
0.0859375,8323
0.119140625,8324
0.09765625,8325
0.015625,8326
0.052734375,8327
0.099609375,8328
0.0703125,8329
0.208984375,8330
0.24609375,8331
0.244140625,8332
0.1875,8333
0.197265625,8334
0.228515625,8335
0.09765625,8336
0.107421875,8337
0.115234375,8338
0.09375,8339
0.041015625,8340
0.044921875,8341
0.060546875,8342
0.095703125,8343
0.07421875,8344
0.263671875,8345
0.48828125,8346
0.580078125,8347
0.52734375,8348
0.4921875,8349
0.470703125,8350
0.43359375,8351
0.4609375,8352
0.515625,8353
0.4609375,8354
0.482421875,8355
0.521484375,8356
0.48828125,8357
0.48046875,8358
0.3671875,8359
0.29296875,8360
0.41796875,8361
0.5078125,8362
0.4609375,8363
0.375,8364
0.337890625,8365
0.34375,8366
0.421875,8367
0.228515625,8368
0.265625,8369
0.25,8370
0.388671875,8371
0.310546875,8372
0.26953125,8373
0.251953125,8374
0.263671875,8375
0.27734375,8376
0.154296875,8377
0.091796875,8378
0.095703125,8379
0.19140625,8380
0.166015625,8381
0.138671875,8382
0.126953125,8383
0.09375,8384
0.15625,8385
0.115234375,8386
0.109375,8387
0.09375,8388
0.119140625,8389
0.1328125,8390
0.06640625,8391
0.140625,8392
0.09375,8393
0.0703125,8394
0.068359375,8395
0.080078125,8396
0.0703125,8397
0.08203125,8398
0.099609375,8399
0.05078125,8400
0.095703125,8401
0.0703125,8402
0.04296875,8403
0.0546875,8404
0.083984375,8405
0.0859375,8406
0.0546875,8407
0.046875,8408
0.052734375,8409
0.111328125,8410
0.103515625,8411
0.0625,8412
0.07421875,8413
0.033203125,8414
0.044921875,8415
0.044921875,8416
0.029296875,8417
0.0390625,8418
0.060546875,8419
0.064453125,8420
0.05078125,8421
0.0390625,8422
0.05078125,8423
0.0390625,8424
0.041015625,8425
0.02734375,8426
0.064453125,8427
0.06640625,8428
0.12109375,8429
0.083984375,8430
0.072265625,8431
0.095703125,8432
0.02734375,8433
0.0234375,8434
0.05859375,8435
0.05859375,8436
0.041015625,8437
0.09375,8438
0.05078125,8439
0.03125,8440
0.04296875,8441
0.064453125,8442
0.0703125,8443
0.052734375,8444
0.064453125,8445
0.064453125,8446
0.14453125,8447
0.1015625,8448
0.0703125,8449
0.099609375,8450
0.041015625,8451
0.046875,8452
0.0390625,8453
0.09375,8454
0.068359375,8455
0.0703125,8456
0.072265625,8457
0.044921875,8458
0.078125,8459
0.068359375,8460
0.0625,8461
0.068359375,8462
0.0703125,8463
0.05859375,8464
0.091796875,8465
0.099609375,8466
0.060546875,8467
0.03125,8468
0.02734375,8469
0.052734375,8470
0.072265625,8471
0.044921875,8472
0.03515625,8473
0.0390625,8474
0.0703125,8475
0.041015625,8476
0.05859375,8477
0.04296875,8478
0.03515625,8479
0.05859375,8480
0.052734375,8481
0.046875,8482
0.06640625,8483
0.142578125,8484
0.099609375,8485
0.107421875,8486
0.056640625,8487
0.056640625,8488
0.0546875,8489
0.07421875,8490
0.0625,8491
0.072265625,8492
0.056640625,8493
0.048828125,8494
0.037109375,8495
0.052734375,8496
0.068359375,8497
0.087890625,8498
0.095703125,8499
0.083984375,8500
0.052734375,8501
0.099609375,8502
0.080078125,8503
0.046875,8504
0.0546875,8505
0.07421875,8506
0.04296875,8507
0.0625,8508
0.0703125,8509
0.095703125,8510
0.09375,8511
0.09375,8512
0.091796875,8513
0.078125,8514
0.056640625,8515
0.078125,8516
0.06640625,8517
0.0703125,8518
0.056640625,8519
0.068359375,8520
0.140625,8521
0.10546875,8522
0.08984375,8523
0.080078125,8524
0.068359375,8525
0.060546875,8526
0.072265625,8527
0.048828125,8528
0.076171875,8529
0.107421875,8530
0.048828125,8531
0.083984375,8532
0.07421875,8533
0.072265625,8534
0.06640625,8535
0.0703125,8536
0.05078125,8537
0.041015625,8538
0.12890625,8539
0.123046875,8540
0.0625,8541
0.11328125,8542
0.08203125,8543
0.046875,8544
0.05078125,8545
0.0390625,8546
0.04296875,8547
0.1015625,8548
0.09765625,8549
0.080078125,8550
0.05859375,8551
0.0234375,8552
0.033203125,8553
0.0390625,8554
0.015625,8555
0.0234375,8556
0.076171875,8557
0.1171875,8558
0.072265625,8559
0.056640625,8560
0.076171875,8561
0.078125,8562
0.0546875,8563
0.060546875,8564
0.068359375,8565
0.0625,8566
0.0859375,8567
0.0234375,8568
0.03125,8569
0.048828125,8570
0.037109375,8571
0.076171875,8572
0.05078125,8573
0.04296875,8574
0.048828125,8575
0.109375,8576
0.12109375,8577
0.0625,8578
0.087890625,8579
0.041015625,8580
0.0390625,8581
0.05078125,8582
0.072265625,8583
0.048828125,8584
0.072265625,8585
0.04296875,8586
0.0390625,8587
0.052734375,8588
0.046875,8589
0.0625,8590
0.0234375,8591
0.01953125,8592
0.025390625,8593
0.080078125,8594
0.181640625,8595
0.08203125,8596
0.044921875,8597
0.078125,8598
0.064453125,8599
0.060546875,8600
0.03515625,8601
0.0625,8602
0.05078125,8603
0.056640625,8604
0.044921875,8605
0.025390625,8606
0.037109375,8607
0.052734375,8608
0.091796875,8609
0.041015625,8610
0.04296875,8611
0.0546875,8612
0.14453125,8613
0.12890625,8614
0.080078125,8615
0.10546875,8616
0.068359375,8617
0.064453125,8618
0.052734375,8619
0.0703125,8620
0.072265625,8621
0.068359375,8622
0.078125,8623
0.046875,8624
0.0546875,8625
0.060546875,8626
0.078125,8627
0.056640625,8628
0.056640625,8629
0.033203125,8630
0.1171875,8631
0.138671875,8632
0.091796875,8633
0.09765625,8634
0.08203125,8635
0.09375,8636
0.099609375,8637
0.09375,8638
0.091796875,8639
0.076171875,8640
0.080078125,8641
0.04296875,8642
0.0625,8643
0.0546875,8644
0.072265625,8645
0.1015625,8646
0.080078125,8647
0.091796875,8648
0.08203125,8649
0.23046875,8650
0.15234375,8651
0.17578125,8652
0.150390625,8653
0.08984375,8654
0.09765625,8655
0.125,8656
0.09375,8657
0.03515625,8658
0.09765625,8659
0.044921875,8660
0.05859375,8661
0.04296875,8662
0.076171875,8663
0.15625,8664
0.095703125,8665
0.072265625,8666
0.080078125,8667
0.15625,8668
0.205078125,8669
0.140625,8670
0.19921875,8671
0.11328125,8672
0.0625,8673
0.119140625,8674
0.060546875,8675
0.0546875,8676
0.064453125,8677
0.056640625,8678
0.0546875,8679
0.0625,8680
0.046875,8681
0.0859375,8682
0.078125,8683
0.0703125,8684
0.08203125,8685
0.087890625,8686
0.212890625,8687
0.15234375,8688
0.140625,8689
0.15234375,8690
0.091796875,8691
0.08203125,8692
0.07421875,8693
0.05859375,8694
0.056640625,8695
0.08984375,8696
0.064453125,8697
0.029296875,8698
0.05078125,8699
0.04296875,8700
0.12890625,8701
0.068359375,8702
0.041015625,8703
0.029296875,8704
0.1171875,8705
0.16015625,8706
0.09375,8707
0.09765625,8708
0.08203125,8709
0.06640625,8710
0.07421875,8711
0.0546875,8712
0.0703125,8713
0.0546875,8714
0.083984375,8715
0.03515625,8716
0.048828125,8717
0.0390625,8718
0.08984375,8719
0.05859375,8720
0.06640625,8721
0.115234375,8722
0.0859375,8723
0.197265625,8724
0.126953125,8725
0.14453125,8726
0.17578125,8727
0.0625,8728
0.0703125,8729
0.06640625,8730
0.07421875,8731
0.064453125,8732
0.0703125,8733
0.08203125,8734
0.05078125,8735
0.03515625,8736
0.046875,8737
0.125,8738
0.04296875,8739
0.060546875,8740
0.060546875,8741
0.166015625,8742
0.17578125,8743
0.13671875,8744
0.15625,8745
0.03515625,8746
0.05859375,8747
0.04296875,8748
0.04296875,8749
0.052734375,8750
0.0546875,8751
0.072265625,8752
0.056640625,8753
0.076171875,8754
0.048828125,8755
0.10546875,8756
0.078125,8757
0.072265625,8758
0.0703125,8759
0.091796875,8760
0.21875,8761
0.12109375,8762
0.14453125,8763
0.126953125,8764
0.109375,8765
0.087890625,8766
0.10546875,8767
0.06640625,8768
0.08203125,8769
0.0703125,8770
0.0546875,8771
0.083984375,8772
0.076171875,8773
0.0859375,8774
0.1171875,8775
0.0859375,8776
0.111328125,8777
0.123046875,8778
0.19921875,8779
0.1640625,8780
0.140625,8781
0.1953125,8782
0.091796875,8783
0.095703125,8784
0.08984375,8785
0.1171875,8786
0.06640625,8787
0.083984375,8788
0.046875,8789
0.04296875,8790
0.0546875,8791
0.078125,8792
0.126953125,8793
0.08984375,8794
0.109375,8795
0.05859375,8796
0.12890625,8797
0.15625,8798
0.103515625,8799
0.11328125,8800
0.09375,8801
0.078125,8802
0.064453125,8803
0.072265625,8804
0.076171875,8805
0.083984375,8806
0.076171875,8807
0.068359375,8808
0.076171875,8809
0.078125,8810
0.060546875,8811
0.103515625,8812
0.080078125,8813
0.0546875,8814
0.0625,8815
0.16015625,8816
0.134765625,8817
0.068359375,8818
0.09375,8819
0.07421875,8820
0.09375,8821
0.0390625,8822
0.0625,8823
0.05859375,8824
0.064453125,8825
0.076171875,8826
0.05859375,8827
0.03515625,8828
0.083984375,8829
0.07421875,8830
0.0546875,8831
0.05859375,8832
0.07421875,8833
0.107421875,8834
0.140625,8835
0.111328125,8836
0.09375,8837
0.1328125,8838
0.07421875,8839
0.0703125,8840
0.09375,8841
0.072265625,8842
0.048828125,8843
0.0703125,8844
0.046875,8845
0.037109375,8846
0.0234375,8847
0.04296875,8848
0.0546875,8849
0.05859375,8850
0.05859375,8851
0.0625,8852
0.16015625,8853
0.134765625,8854
0.083984375,8855
0.1328125,8856
0.064453125,8857
0.05078125,8858
0.044921875,8859
0.056640625,8860
0.068359375,8861
0.0546875,8862
0.0546875,8863
0.05078125,8864
0.029296875,8865
0.044921875,8866
0.09765625,8867
0.0390625,8868
0.060546875,8869
0.0703125,8870
0.12890625,8871
0.16796875,8872
0.09375,8873
0.076171875,8874
0.052734375,8875
0.078125,8876
0.07421875,8877
0.044921875,8878
0.048828125,8879
0.052734375,8880
0.080078125,8881
0.064453125,8882
0.078125,8883
0.05859375,8884
0.046875,8885
0.07421875,8886
0.068359375,8887
0.0546875,8888
0.033203125,8889
0.1953125,8890
0.13671875,8891
0.080078125,8892
0.087890625,8893
0.0859375,8894
0.08203125,8895
0.052734375,8896
0.072265625,8897
0.041015625,8898
0.060546875,8899
0.05078125,8900
0.05078125,8901
0.072265625,8902
0.060546875,8903
0.080078125,8904
0.080078125,8905
0.0859375,8906
0.076171875,8907
0.154296875,8908
0.234375,8909
0.16015625,8910
0.12890625,8911
0.107421875,8912
0.0546875,8913
0.02734375,8914
0.068359375,8915
0.0625,8916
0.076171875,8917
0.0859375,8918
0.07421875,8919
0.07421875,8920
0.0546875,8921
0.11328125,8922
0.119140625,8923
0.12890625,8924
0.115234375,8925
0.109375,8926
0.1875,8927
0.125,8928
0.091796875,8929
0.119140625,8930
0.083984375,8931
0.0703125,8932
0.10546875,8933
0.080078125,8934
0.087890625,8935
0.0703125,8936
0.068359375,8937
0.0703125,8938
0.0546875,8939
0.052734375,8940
0.083984375,8941
0.060546875,8942
0.068359375,8943
0.072265625,8944
0.19921875,8945
0.197265625,8946
0.126953125,8947
0.162109375,8948
0.06640625,8949
0.048828125,8950
0.068359375,8951
0.064453125,8952
0.044921875,8953
0.064453125,8954
0.04296875,8955
0.0390625,8956
0.033203125,8957
0.052734375,8958
0.1015625,8959
0.09375,8960
0.041015625,8961
0.0546875,8962
0.103515625,8963
0.212890625,8964
0.146484375,8965
0.1328125,8966
0.115234375,8967
0.0390625,8968
0.025390625,8969
0.03515625,8970
0.04296875,8971
0.060546875,8972
0.037109375,8973
0.041015625,8974
0.048828125,8975
0.05859375,8976
0.078125,8977
0.099609375,8978
0.037109375,8979
0.0546875,8980
0.0625,8981
0.158203125,8982
0.154296875,8983
0.107421875,8984
0.171875,8985
0.078125,8986
0.068359375,8987
0.078125,8988
0.060546875,8989
0.05078125,8990
0.064453125,8991
0.0390625,8992
0.072265625,8993
0.0546875,8994
0.033203125,8995
0.08203125,8996
0.044921875,8997
0.03515625,8998
0.06640625,8999
0.119140625,9000
0.220703125,9001
0.1484375,9002
0.12890625,9003
0.115234375,9004
0.05859375,9005
0.037109375,9006
0.0390625,9007
0.0390625,9008
0.048828125,9009
0.05078125,9010
0.033203125,9011
0.048828125,9012
0.064453125,9013
0.078125,9014
0.09375,9015
0.033203125,9016
0.056640625,9017
0.05859375,9018
0.18359375,9019
0.150390625,9020
0.125,9021
0.115234375,9022
0.060546875,9023
0.078125,9024
0.0625,9025
0.041015625,9026
0.056640625,9027
0.0625,9028
0.033203125,9029
0.04296875,9030
0.04296875,9031
0.0546875,9032
0.09375,9033
0.072265625,9034
0.05859375,9035
0.083984375,9036
0.17578125,9037
0.193359375,9038
0.1484375,9039
0.16796875,9040
0.11328125,9041
0.033203125,9042
0.048828125,9043
0.064453125,9044
0.060546875,9045
0.0859375,9046
0.09765625,9047
0.056640625,9048
0.10546875,9049
0.107421875,9050
0.1015625,9051
0.115234375,9052
0.103515625,9053
0.078125,9054
0.087890625,9055
0.228515625,9056
0.162109375,9057
0.15234375,9058
0.158203125,9059
0.091796875,9060
0.064453125,9061
0.05859375,9062
0.0703125,9063
0.068359375,9064
0.06640625,9065
0.052734375,9066
0.03515625,9067
0.0625,9068
0.06640625,9069
0.125,9070
0.06640625,9071
0.068359375,9072
0.068359375,9073
0.16015625,9074
0.18359375,9075
0.154296875,9076
0.1171875,9077
0.09765625,9078
0.052734375,9079
0.03515625,9080
0.048828125,9081
0.03515625,9082
0.068359375,9083
0.06640625,9084
0.064453125,9085
0.064453125,9086
0.046875,9087
0.0703125,9088
0.07421875,9089
0.041015625,9090
0.03515625,9091
0.052734375,9092
0.126953125,9093
0.107421875,9094
0.076171875,9095
0.107421875,9096
0.060546875,9097
0.029296875,9098
0.037109375,9099
0.025390625,9100
0.025390625,9101
0.056640625,9102
0.025390625,9103
0.01953125,9104
0.03125,9105
0.033203125,9106
0.087890625,9107
0.0234375,9108
0.029296875,9109
0.05078125,9110
0.125,9111
0.13671875,9112
0.078125,9113
0.10546875,9114
0.08984375,9115
0.046875,9116
0.04296875,9117
0.037109375,9118
0.0546875,9119
0.068359375,9120
0.052734375,9121
0.033203125,9122
0.0390625,9123
0.037109375,9124
0.068359375,9125
0.076171875,9126
0.052734375,9127
0.04296875,9128
0.072265625,9129
0.146484375,9130
0.12109375,9131
0.064453125,9132
0.109375,9133
0.041015625,9134
0.029296875,9135
0.02734375,9136
0.0390625,9137
0.041015625,9138
0.0703125,9139
0.076171875,9140
0.060546875,9141
0.056640625,9142
0.0234375,9143
0.052734375,9144
0.025390625,9145
0.013671875,9146
0.01953125,9147
0.12890625,9148
0.1171875,9149
0.087890625,9150
0.091796875,9151
0.072265625,9152
0.060546875,9153
0.052734375,9154
0.05078125,9155
0.041015625,9156
0.048828125,9157
0.048828125,9158
0.02734375,9159
0.048828125,9160
0.03125,9161
0.048828125,9162
0.052734375,9163
0.041015625,9164
0.0546875,9165
0.0859375,9166
0.169921875,9167
0.119140625,9168
0.08203125,9169
0.1171875,9170
0.0390625,9171
0.0390625,9172
0.033203125,9173
0.03515625,9174
0.0546875,9175
0.05859375,9176
0.072265625,9177
0.046875,9178
0.05078125,9179
0.1015625,9180
0.12890625,9181
0.0859375,9182
0.0625,9183
0.041015625,9184
0.130859375,9185
0.15234375,9186
0.083984375,9187
0.0625,9188
0.05078125,9189
0.064453125,9190
0.044921875,9191
0.080078125,9192
0.052734375,9193
0.044921875,9194
0.0390625,9195
0.037109375,9196
0.037109375,9197
0.03515625,9198
0.134765625,9199
0.09375,9200
0.0703125,9201
0.06640625,9202
0.10546875,9203
0.1640625,9204
0.126953125,9205
0.10546875,9206
0.1015625,9207
0.072265625,9208
0.052734375,9209
0.056640625,9210
0.068359375,9211
0.07421875,9212
0.0625,9213
0.03515625,9214
0.037109375,9215
0.0546875,9216
0.08203125,9217
0.10546875,9218
0.064453125,9219
0.05859375,9220
0.068359375,9221
0.181640625,9222
0.126953125,9223
0.09765625,9224
0.05078125,9225
0.05078125,9226
0.052734375,9227
0.041015625,9228
0.041015625,9229
0.056640625,9230
0.0703125,9231
0.0546875,9232
0.060546875,9233
0.107421875,9234
0.060546875,9235
0.126953125,9236
0.0703125,9237
0.06640625,9238
0.041015625,9239
0.146484375,9240
0.201171875,9241
0.140625,9242
0.185546875,9243
0.1328125,9244
0.072265625,9245
0.046875,9246
0.033203125,9247
0.05078125,9248
0.083984375,9249
0.048828125,9250
0.025390625,9251
0.072265625,9252
0.1015625,9253
0.048828125,9254
0.103515625,9255
0.048828125,9256
0.0546875,9257
0.109375,9258
0.224609375,9259
0.20703125,9260
0.138671875,9261
0.185546875,9262
0.05078125,9263
0.048828125,9264
0.03515625,9265
0.033203125,9266
0.07421875,9267
0.0703125,9268
0.080078125,9269
0.0546875,9270
0.08984375,9271
0.09375,9272
0.1328125,9273
0.109375,9274
0.060546875,9275
0.068359375,9276
0.1328125,9277
0.19140625,9278
0.130859375,9279
0.146484375,9280
0.123046875,9281
0.095703125,9282
0.0546875,9283
0.021484375,9284
0.03515625,9285
0.052734375,9286
0.0546875,9287
0.048828125,9288
0.0546875,9289
0.068359375,9290
0.138671875,9291
0.125,9292
0.080078125,9293
0.048828125,9294
0.12890625,9295
0.193359375,9296
0.166015625,9297
0.158203125,9298
0.142578125,9299
0.060546875,9300
0.03515625,9301
0.0234375,9302
0.017578125,9303
0.091796875,9304
0.109375,9305
0.07421875,9306
0.0859375,9307
0.123046875,9308
0.0703125,9309
0.150390625,9310
0.11328125,9311
0.103515625,9312
0.06640625,9313
0.1796875,9314
0.197265625,9315
0.1484375,9316
0.19140625,9317
0.162109375,9318
0.0859375,9319
0.072265625,9320
0.052734375,9321
0.041015625,9322
0.09375,9323
0.0625,9324
0.080078125,9325
0.12109375,9326
0.123046875,9327
0.1484375,9328
0.115234375,9329
0.0859375,9330
0.138671875,9331
0.134765625,9332
0.244140625,9333
0.205078125,9334
0.216796875,9335
0.23828125,9336
0.087890625,9337
0.109375,9338
0.06640625,9339
0.099609375,9340
0.10546875,9341
0.111328125,9342
0.052734375,9343
0.107421875,9344
0.166015625,9345
0.123046875,9346
0.177734375,9347
0.103515625,9348
0.09765625,9349
0.13671875,9350
0.177734375,9351
0.2265625,9352
0.2421875,9353
0.216796875,9354
0.142578125,9355
0.126953125,9356
0.072265625,9357
0.15234375,9358
0.126953125,9359
0.078125,9360
0.056640625,9361
0.07421875,9362
0.08984375,9363
0.12109375,9364
0.189453125,9365
0.12890625,9366
0.123046875,9367
0.146484375,9368
0.12890625,9369
0.2265625,9370
0.236328125,9371
0.25390625,9372
0.2421875,9373
0.091796875,9374
0.095703125,9375
0.052734375,9376
0.142578125,9377
0.087890625,9378
0.080078125,9379
0.08984375,9380
0.076171875,9381
0.154296875,9382
0.1015625,9383
0.13671875,9384
0.056640625,9385
0.12109375,9386
0.142578125,9387
0.171875,9388
0.205078125,9389
0.185546875,9390
0.23828125,9391
0.162109375,9392
0.083984375,9393
0.0703125,9394
0.08203125,9395
0.087890625,9396
0.12890625,9397
0.166015625,9398
0.142578125,9399
0.14453125,9400
0.12890625,9401
0.119140625,9402
0.08203125,9403
0.04296875,9404
0.064453125,9405
0.134765625,9406
0.19921875,9407
0.205078125,9408
0.232421875,9409
0.244140625,9410
0.158203125,9411
0.111328125,9412
0.140625,9413
0.1015625,9414
0.087890625,9415
0.109375,9416
0.1484375,9417
0.138671875,9418
0.21484375,9419
0.126953125,9420
0.087890625,9421
0.111328125,9422
0.076171875,9423
0.177734375,9424
0.220703125,9425
0.220703125,9426
0.2265625,9427
0.34765625,9428
0.197265625,9429
0.19921875,9430
0.158203125,9431
0.283203125,9432
0.33984375,9433
0.2265625,9434
0.220703125,9435
0.392578125,9436
0.427734375,9437
0.455078125,9438
0.31640625,9439
0.330078125,9440
0.388671875,9441
0.5078125,9442
0.427734375,9443
0.357421875,9444
0.423828125,9445
0.4921875,9446
0.5625,9447
0.5234375,9448
0.525390625,9449
0.56640625,9450
0.58203125,9451
0.361328125,9452
0.234375,9453
0.12109375,9454
0.150390625,9455
0.021484375,9456
0.033203125,9457
0.021484375,9458
0.01953125,9459
0.060546875,9460
0.05078125,9461
0.203125,9462
0.248046875,9463
0.265625,9464
0.32421875,9465
0.166015625,9466
0.1015625,9467
0.044921875,9468
0.046875,9469
0.03515625,9470
0.052734375,9471
0.029296875,9472
0.0234375,9473
0.052734375,9474
0.052734375,9475
0.181640625,9476
0.17578125,9477
0.24609375,9478
0.283203125,9479
0.119140625,9480
0.13671875,9481
0.10546875,9482
0.03125,9483
0.025390625,9484
0.021484375,9485
0.025390625,9486
0.052734375,9487
0.0390625,9488
0.083984375,9489
0.119140625,9490
0.064453125,9491
0.0546875,9492
0.05078125,9493
0.037109375,9494
0.0390625,9495
0.033203125,9496
0.087890625,9497
0.083984375,9498
0.181640625,9499
0.228515625,9500
0.25,9501
0.33203125,9502
0.126953125,9503
0.103515625,9504
0.0625,9505
0.05859375,9506
0.033203125,9507
0.041015625,9508
0.052734375,9509
0.009765625,9510
0.05078125,9511
0.1171875,9512
0.19140625,9513
0.240234375,9514
0.328125,9515
0.3984375,9516
0.095703125,9517
0.125,9518
0.10546875,9519
0.0390625,9520
0.060546875,9521
0.0234375,9522
0.0625,9523
0.033203125,9524
0.033203125,9525
0.1171875,9526
0.146484375,9527
0.220703125,9528
0.083984375,9529
0.12890625,9530
0.087890625,9531
0.134765625,9532
0.08984375,9533
0.166015625,9534
0.220703125,9535
0.244140625,9536
0.234375,9537
0.189453125,9538
0.107421875,9539
0.109375,9540
0.154296875,9541
0.16015625,9542
0.095703125,9543
0.1953125,9544
0.142578125,9545
0.08203125,9546
0.1484375,9547
0.029296875,9548
0.021484375,9549
0.080078125,9550
0.068359375,9551
0.033203125,9552
0.08203125,9553
0.205078125,9554
0.208984375,9555
0.185546875,9556
0.048828125,9557
0.091796875,9558
0.142578125,9559
0.14453125,9560
0.162109375,9561
0.166015625,9562
0.1953125,9563
0.08203125,9564
0.083984375,9565
0.048828125,9566
0.03515625,9567
0.021484375,9568
0.044921875,9569
0.029296875,9570
0.02734375,9571
0.166015625,9572
0.234375,9573
0.140625,9574
0.0546875,9575
0.033203125,9576
0.04296875,9577
0.0390625,9578
0.05078125,9579
0.01953125,9580
0.09765625,9581
0.169921875,9582
0.0546875,9583
0.103515625,9584
0.02734375,9585
0.01953125,9586
0.04296875,9587
0.029296875,9588
0.017578125,9589
0.080078125,9590
0.169921875,9591
0.16015625,9592
0.185546875,9593
0.076171875,9594
0.14453125,9595
0.14453125,9596
0.130859375,9597
0.140625,9598
0.130859375,9599
0.1875,9600
0.10546875,9601
0.0546875,9602
0.046875,9603
0.025390625,9604
0.025390625,9605
0.044921875,9606
0.037109375,9607
0.025390625,9608
0.150390625,9609
0.234375,9610
0.1328125,9611
0.095703125,9612
0.037109375,9613
0.060546875,9614
0.021484375,9615
0.025390625,9616
0.025390625,9617
0.126953125,9618
0.1484375,9619
0.064453125,9620
0.126953125,9621
0.0234375,9622
0.017578125,9623
0.0703125,9624
0.033203125,9625
0.03515625,9626
0.107421875,9627
0.166015625,9628
0.201171875,9629
0.11328125,9630
0.060546875,9631
0.154296875,9632
0.14453125,9633
0.07421875,9634
0.123046875,9635
0.181640625,9636
0.189453125,9637
0.109375,9638
0.0625,9639
0.0390625,9640
0.03125,9641
0.041015625,9642
0.0234375,9643
0.013671875,9644
0.009765625,9645
0.162109375,9646
0.208984375,9647
0.111328125,9648
0.06640625,9649
0.029296875,9650
0.064453125,9651
0.013671875,9652
0.025390625,9653
0.009765625,9654
0.166015625,9655
0.138671875,9656
0.056640625,9657
0.1171875,9658
0.048828125,9659
0.013671875,9660
0.037109375,9661
0.025390625,9662
0.01953125,9663
0.078125,9664
0.203125,9665
0.248046875,9666
0.1015625,9667
0.072265625,9668
0.060546875,9669
0.04296875,9670
0.037109375,9671
0.013671875,9672
0.064453125,9673
0.140625,9674
0.1015625,9675
0.0546875,9676
0.021484375,9677
0.04296875,9678
0.044921875,9679
0.041015625,9680
0.015625,9681
0.013671875,9682
0.18359375,9683
0.224609375,9684
0.119140625,9685
0.076171875,9686
0.037109375,9687
0.025390625,9688
0.033203125,9689
0.025390625,9690
0.009765625,9691
0.140625,9692
0.130859375,9693
0.123046875,9694
0.078125,9695
0.025390625,9696
0.04296875,9697
0.06640625,9698
0.021484375,9699
0.005859375,9700
0.1015625,9701
0.232421875,9702
0.224609375,9703
0.068359375,9704
0.056640625,9705
0.146484375,9706
0.08984375,9707
0.05078125,9708
0.02734375,9709
0.12109375,9710
0.154296875,9711
0.111328125,9712
0.033203125,9713
0.0546875,9714
0.037109375,9715
0.033203125,9716
0.013671875,9717
0.00390625,9718
0.052734375,9719
0.197265625,9720
0.26171875,9721
0.13671875,9722
0.078125,9723
0.0390625,9724
0.03515625,9725
0.060546875,9726
0.037109375,9727
0.033203125,9728
0.13671875,9729
0.14453125,9730
0.12109375,9731
0.0703125,9732
0.0625,9733
0.041015625,9734
0.01953125,9735
0.013671875,9736
0.005859375,9737
0.142578125,9738
0.169921875,9739
0.212890625,9740
0.056640625,9741
0.091796875,9742
0.162109375,9743
0.15234375,9744
0.13671875,9745
0.15234375,9746
0.14453125,9747
0.13671875,9748
0.09765625,9749
0.041015625,9750
0.0546875,9751
0.025390625,9752
0.033203125,9753
0.033203125,9754
0.029296875,9755
0.048828125,9756
0.19921875,9757
0.14453125,9758
0.173828125,9759
0.052734375,9760
0.021484375,9761
0.025390625,9762
0.048828125,9763
0.017578125,9764
0.013671875,9765
0.1484375,9766
0.13671875,9767
0.126953125,9768
0.05859375,9769
0.025390625,9770
0.05859375,9771
0.072265625,9772
0.015625,9773
0.017578125,9774
0.107421875,9775
0.216796875,9776
0.181640625,9777
0.06640625,9778
0.072265625,9779
0.0703125,9780
0.08203125,9781
0.046875,9782
0.091796875,9783
0.16796875,9784
0.140625,9785
0.07421875,9786
0.02734375,9787
0.033203125,9788
0.015625,9789
0.0078125,9790
0.021484375,9791
0.037109375,9792
0.091796875,9793
0.181640625,9794
0.203125,9795
0.12109375,9796
0.056640625,9797
0.083984375,9798
0.029296875,9799
0.041015625,9800
0.013671875,9801
0.091796875,9802
0.140625,9803
0.138671875,9804
0.13671875,9805
0.04296875,9806
0.056640625,9807
0.197265625,9808
0.099609375,9809
0.068359375,9810
0.0234375,9811
0.02734375,9812
0.10546875,9813
0.08203125,9814
0.044921875,9815
0.029296875,9816
0.109375,9817
0.044921875,9818
0.056640625,9819
0.02734375,9820
0.126953125,9821
0.103515625,9822
0.09375,9823
0.025390625,9824
0.03125,9825
0.017578125,9826
0.033203125,9827
0.048828125,9828
0.01953125,9829
0.123046875,9830
0.189453125,9831
0.162109375,9832
0.14453125,9833
0.064453125,9834
0.025390625,9835
0.06640625,9836
0.06640625,9837
0.03515625,9838
0.0625,9839
0.15234375,9840
0.1015625,9841
0.140625,9842
0.02734375,9843
0.01953125,9844
0.03125,9845
0.029296875,9846
0.025390625,9847
0.021484375,9848
0.169921875,9849
0.240234375,9850
0.150390625,9851
0.123046875,9852
0.048828125,9853
0.125,9854
0.1015625,9855
0.107421875,9856
0.09765625,9857
0.193359375,9858
0.138671875,9859
0.056640625,9860
0.056640625,9861
0.05078125,9862
0.025390625,9863
0.025390625,9864
0.056640625,9865
0.015625,9866
0.130859375,9867
0.158203125,9868
0.23046875,9869
0.171875,9870
0.0390625,9871
0.0625,9872
0.0625,9873
0.0390625,9874
0.037109375,9875
0.076171875,9876
0.177734375,9877
0.09765625,9878
0.1328125,9879
0.048828125,9880
0.0390625,9881
0.048828125,9882
0.0546875,9883
0.033203125,9884
0.013671875,9885
0.216796875,9886
0.181640625,9887
0.162109375,9888
0.052734375,9889
0.111328125,9890
0.12890625,9891
0.111328125,9892
0.111328125,9893
0.12890625,9894
0.201171875,9895
0.125,9896
0.060546875,9897
0.056640625,9898
0.033203125,9899
0.029296875,9900
0.021484375,9901
0.041015625,9902
0.021484375,9903
0.10546875,9904
0.1875,9905
0.216796875,9906
0.123046875,9907
0.037109375,9908
0.021484375,9909
0.068359375,9910
0.025390625,9911
0.029296875,9912
0.078125,9913
0.166015625,9914
0.041015625,9915
0.13671875,9916
0.04296875,9917
0.025390625,9918
0.048828125,9919
0.037109375,9920
0.01953125,9921
0.029296875,9922
0.173828125,9923
0.228515625,9924
0.201171875,9925
0.052734375,9926
0.064453125,9927
0.15625,9928
0.08203125,9929
0.07421875,9930
0.0625,9931
0.19140625,9932
0.130859375,9933
0.048828125,9934
0.029296875,9935
0.0625,9936
0.017578125,9937
0.04296875,9938
0.015625,9939
0.033203125,9940
0.138671875,9941
0.1953125,9942
0.173828125,9943
0.083984375,9944
0.044921875,9945
0.033203125,9946
0.041015625,9947
0.052734375,9948
0.048828125,9949
0.095703125,9950
0.1640625,9951
0.0625,9952
0.150390625,9953
0.0546875,9954
0.033203125,9955
0.033203125,9956
0.033203125,9957
0.025390625,9958
0.03125,9959
0.21484375,9960
0.24609375,9961
0.15625,9962
0.052734375,9963
0.05078125,9964
0.029296875,9965
0.052734375,9966
0.044921875,9967
0.029296875,9968
0.1640625,9969
0.11328125,9970
0.080078125,9971
0.013671875,9972
0.046875,9973
0.009765625,9974
0.033203125,9975
0.048828125,9976
0.02734375,9977
0.146484375,9978
0.224609375,9979
0.134765625,9980
0.076171875,9981
0.044921875,9982
0.072265625,9983
0.056640625,9984
0.044921875,9985
0.02734375,9986
0.099609375,9987
0.1640625,9988
0.044921875,9989
0.15625,9990
0.009765625,9991
0.021484375,9992
0.025390625,9993
0.033203125,9994
0.017578125,9995
0.078125,9996
0.162109375,9997
0.150390625,9998
0.134765625,9999
0.041015625,10000
0.126953125,10001
0.138671875,10002
0.107421875,10003
0.095703125,10004
0.150390625,10005
0.1796875,10006
0.11328125,10007
0.0625,10008
0.03125,10009
0.052734375,10010
0.025390625,10011
0.037109375,10012
0.017578125,10013
0.03515625,10014
0.193359375,10015
0.234375,10016
0.16015625,10017
0.11328125,10018
0.05859375,10019
0.0625,10020
0.0703125,10021
0.099609375,10022
0.072265625,10023
0.15625,10024
0.138671875,10025
0.08203125,10026
0.13671875,10027
0.01953125,10028
0.025390625,10029
0.095703125,10030
0.046875,10031
0.029296875,10032
0.052734375,10033
0.193359375,10034
0.201171875,10035
0.158203125,10036
0.107421875,10037
0.162109375,10038
0.109375,10039
0.09765625,10040
0.080078125,10041
0.15234375,10042
0.201171875,10043
0.08984375,10044
0.1015625,10045
0.0625,10046
0.025390625,10047
0.021484375,10048
0.029296875,10049
0.029296875,10050
0.037109375,10051
0.142578125,10052
0.234375,10053
0.15625,10054
0.068359375,10055
0.044921875,10056
0.087890625,10057
0.064453125,10058
0.103515625,10059
0.068359375,10060
0.126953125,10061
0.142578125,10062
0.056640625,10063
0.12890625,10064
0.03125,10065
0.017578125,10066
0.025390625,10067
0.056640625,10068
0.02734375,10069
0.095703125,10070
0.154296875,10071
0.259765625,10072
0.142578125,10073
0.08203125,10074
0.1171875,10075
0.1171875,10076
0.142578125,10077
0.09765625,10078
0.15625,10079
0.169921875,10080
0.0859375,10081
0.05078125,10082
0.029296875,10083
0.03515625,10084
0.052734375,10085
0.01953125,10086
0.021484375,10087
0.025390625,10088
0.185546875,10089
0.158203125,10090
0.169921875,10091
0.072265625,10092
0.021484375,10093
0.1328125,10094
0.150390625,10095
0.181640625,10096
0.1484375,10097
0.201171875,10098
0.1484375,10099
0.08984375,10100
0.10546875,10101
0.017578125,10102
0.111328125,10103
0.185546875,10104
0.080078125,10105
0.021484375,10106
0.05078125,10107
0.16796875,10108
0.224609375,10109
0.130859375,10110
0.111328125,10111
0.154296875,10112
0.076171875,10113
0.056640625,10114
0.041015625,10115
0.0703125,10116
0.1953125,10117
0.076171875,10118
0.1640625,10119
0.04296875,10120
0.033203125,10121
0.017578125,10122
0.025390625,10123
0.02734375,10124
0.056640625,10125
0.154296875,10126
0.208984375,10127
0.158203125,10128
0.103515625,10129
0.109375,10130
0.09375,10131
0.107421875,10132
0.1015625,10133
0.107421875,10134
0.15625,10135
0.169921875,10136
0.12890625,10137
0.06640625,10138
0.029296875,10139
0.03125,10140
0.01171875,10141
0.017578125,10142
0.013671875,10143
0.162109375,10144
0.244140625,10145
0.140625,10146
0.1328125,10147
0.130859375,10148
0.16796875,10149
0.158203125,10150
0.126953125,10151
0.115234375,10152
0.166015625,10153
0.1484375,10154
0.056640625,10155
0.1171875,10156
0.04296875,10157
0.013671875,10158
0.029296875,10159
0.041015625,10160
0.017578125,10161
0.01953125,10162
0.205078125,10163
0.18359375,10164
0.166015625,10165
0.1171875,10166
0.162109375,10167
0.048828125,10168
0.03125,10169
0.04296875,10170
0.05859375,10171
0.142578125,10172
0.15625,10173
0.150390625,10174
0.046875,10175
0.03515625,10176
0.044921875,10177
0.037109375,10178
0.00390625,10179
0.025390625,10180
0.17578125,10181
0.171875,10182
0.162109375,10183
0.1015625,10184
0.087890625,10185
0.158203125,10186
0.0546875,10187
0.08203125,10188
0.060546875,10189
0.1484375,10190
0.169921875,10191
0.099609375,10192
0.10546875,10193
0.017578125,10194
0.02734375,10195
0.03515625,10196
0.025390625,10197
0.017578125,10198
0.06640625,10199
0.177734375,10200
0.23046875,10201
0.16796875,10202
0.09375,10203
0.142578125,10204
0.044921875,10205
0.01953125,10206
0.025390625,10207
0.0390625,10208
0.1796875,10209
0.1875,10210
0.16796875,10211
0.0546875,10212
0.029296875,10213
0.029296875,10214
0.013671875,10215
0.0078125,10216
0.025390625,10217
0.177734375,10218
0.15234375,10219
0.1484375,10220
0.09375,10221
0.14453125,10222
0.078125,10223
0.044921875,10224
0.044921875,10225
0.0390625,10226
0.15625,10227
0.150390625,10228
0.1171875,10229
0.076171875,10230
0.03515625,10231
0.017578125,10232
0.005859375,10233
0.01953125,10234
0.025390625,10235
0.087890625,10236
0.146484375,10237
0.205078125,10238
0.13671875,10239
0.099609375,10240
0.134765625,10241
0.048828125,10242
0.037109375,10243
0.0625,10244
0.05078125,10245
0.1796875,10246
0.09765625,10247
0.17578125,10248
0.03515625,10249
0.037109375,10250
0.021484375,10251
0.029296875,10252
0.013671875,10253
0.01953125,10254
0.193359375,10255
0.236328125,10256
0.166015625,10257
0.13671875,10258
0.16015625,10259
0.0625,10260
0.05078125,10261
0.044921875,10262
0.060546875,10263
0.1171875,10264
0.17578125,10265
0.134765625,10266
0.076171875,10267
0.03515625,10268
0.021484375,10269
0.013671875,10270
0.037109375,10271
0.0078125,10272
0.099609375,10273
0.193359375,10274
0.140625,10275
0.09375,10276
0.080078125,10277
0.083984375,10278
0.046875,10279
0.037109375,10280
0.0390625,10281
0.072265625,10282
0.138671875,10283
0.119140625,10284
0.154296875,10285
0.01953125,10286
0.0390625,10287
0.025390625,10288
0.02734375,10289
0.013671875,10290
0.033203125,10291
0.220703125,10292
0.142578125,10293
0.119140625,10294
0.134765625,10295
0.0859375,10296
0.11328125,10297
0.087890625,10298
0.08984375,10299
0.087890625,10300
0.1484375,10301
0.16796875,10302
0.125,10303
0.078125,10304
0.0390625,10305
0.021484375,10306
0.044921875,10307
0.03125,10308
0.01171875,10309
0.103515625,10310
0.232421875,10311
0.09375,10312
0.09375,10313
0.078125,10314
0.111328125,10315
0.044921875,10316
0.033203125,10317
0.0625,10318
0.09765625,10319
0.125,10320
0.091796875,10321
0.12890625,10322
0.0546875,10323
0.009765625,10324
0.013671875,10325
0.009765625,10326
0.01953125,10327
0.048828125,10328
0.208984375,10329
0.1640625,10330
0.125,10331
0.1484375,10332
0.072265625,10333
0.1015625,10334
0.078125,10335
0.072265625,10336
0.060546875,10337
0.13671875,10338
0.123046875,10339
0.068359375,10340
0.083984375,10341
0.017578125,10342
0.03125,10343
0.013671875,10344
0.041015625,10345
0.013671875,10346
0.1484375,10347
0.197265625,10348
0.09765625,10349
0.068359375,10350
0.064453125,10351
0.107421875,10352
0.05859375,10353
0.048828125,10354
0.037109375,10355
0.1171875,10356
0.205078125,10357
0.068359375,10358
0.091796875,10359
0.046875,10360
0.021484375,10361
0.029296875,10362
0.041015625,10363
0.013671875,10364
0.03125,10365
0.232421875,10366
0.2109375,10367
0.154296875,10368
0.091796875,10369
0.1328125,10370
0.048828125,10371
0.03515625,10372
0.044921875,10373
0.07421875,10374
0.1640625,10375
0.16796875,10376
0.13671875,10377
0.044921875,10378
0.060546875,10379
0.009765625,10380
0.029296875,10381
0.02734375,10382
0.013671875,10383
0.2109375,10384
0.212890625,10385
0.142578125,10386
0.09765625,10387
0.173828125,10388
0.041015625,10389
0.0390625,10390
0.0546875,10391
0.029296875,10392
0.126953125,10393
0.142578125,10394
0.078125,10395
0.12890625,10396
0.025390625,10397
0.1015625,10398
0.08984375,10399
0.072265625,10400
0.041015625,10401
0.048828125,10402
0.103515625,10403
0.10546875,10404
0.095703125,10405
0.07421875,10406
0.126953125,10407
0.10546875,10408
0.087890625,10409
0.06640625,10410
0.0390625,10411
0.1328125,10412
0.16796875,10413
0.130859375,10414
0.0546875,10415
0.017578125,10416
0.013671875,10417
0.025390625,10418
0.017578125,10419
0.01171875,10420
0.189453125,10421
0.19921875,10422
0.115234375,10423
0.1171875,10424
0.154296875,10425
0.083984375,10426
0.025390625,10427
0.052734375,10428
0.044921875,10429
0.126953125,10430
0.1875,10431
0.041015625,10432
0.15625,10433
0.041015625,10434
0.03515625,10435
0.033203125,10436
0.015625,10437
0.029296875,10438
0.099609375,10439
0.18359375,10440
0.24609375,10441
0.119140625,10442
0.08984375,10443
0.13671875,10444
0.09765625,10445
0.072265625,10446
0.103515625,10447
0.09765625,10448
0.16796875,10449
0.12890625,10450
0.14453125,10451
0.03125,10452
0.009765625,10453
0.033203125,10454
0.064453125,10455
0.017578125,10456
0.021484375,10457
0.197265625,10458
0.193359375,10459
0.15234375,10460
0.16015625,10461
0.08984375,10462
0.09375,10463
0.068359375,10464
0.05078125,10465
0.0390625,10466
0.11328125,10467
0.185546875,10468
0.05078125,10469
0.134765625,10470
0.0234375,10471
0.029296875,10472
0.064453125,10473
0.017578125,10474
0.015625,10475
0.138671875,10476
0.216796875,10477
0.1796875,10478
0.13671875,10479
0.095703125,10480
0.087890625,10481
0.07421875,10482
0.060546875,10483
0.0546875,10484
0.08984375,10485
0.146484375,10486
0.119140625,10487
0.125,10488
0.0234375,10489
0.017578125,10490
0.02734375,10491
0.03515625,10492
0.017578125,10493
0.041015625,10494
0.16015625,10495
0.208984375,10496
0.15234375,10497
0.10546875,10498
0.0859375,10499
0.06640625,10500
0.0625,10501
0.029296875,10502
0.015625,10503
0.1796875,10504
0.126953125,10505
0.103515625,10506
0.115234375,10507
0.033203125,10508
0.025390625,10509
0.044921875,10510
0.013671875,10511
0.02734375,10512
0.162109375,10513
0.25,10514
0.150390625,10515
0.111328125,10516
0.1015625,10517
0.10546875,10518
0.056640625,10519
0.0625,10520
0.0390625,10521
0.09375,10522
0.154296875,10523
0.08984375,10524
0.125,10525
0.03515625,10526
0.021484375,10527
0.021484375,10528
0.01953125,10529
0.029296875,10530
0.021484375,10531
0.201171875,10532
0.201171875,10533
0.1953125,10534
0.06640625,10535
0.142578125,10536
0.0703125,10537
0.080078125,10538
0.05859375,10539
0.064453125,10540
0.189453125,10541
0.109375,10542
0.158203125,10543
0.0625,10544
0.021484375,10545
0.0546875,10546
0.015625,10547
0.013671875,10548
0.0390625,10549
0.11328125,10550
0.236328125,10551
0.12890625,10552
0.099609375,10553
0.11328125,10554
0.087890625,10555
0.02734375,10556
0.056640625,10557
0.05078125,10558
0.111328125,10559
0.162109375,10560
0.12890625,10561
0.13671875,10562
0.0234375,10563
0.044921875,10564
0.041015625,10565
0.013671875,10566
0.0234375,10567
0.0390625,10568
0.208984375,10569
0.17578125,10570
0.205078125,10571
0.169921875,10572
0.115234375,10573
0.087890625,10574
0.076171875,10575
0.068359375,10576
0.06640625,10577
0.171875,10578
0.193359375,10579
0.13671875,10580
0.07421875,10581
0.0234375,10582
0.025390625,10583
0.03125,10584
0.025390625,10585
0.025390625,10586
0.193359375,10587
0.197265625,10588
0.126953125,10589
0.115234375,10590
0.1328125,10591
0.154296875,10592
0.10546875,10593
0.05078125,10594
0.060546875,10595
0.12890625,10596
0.1796875,10597
0.1171875,10598
0.123046875,10599
0.03125,10600
0.017578125,10601
0.009765625,10602
0.017578125,10603
0.033203125,10604
0.06640625,10605
0.19921875,10606
0.166015625,10607
0.125,10608
0.080078125,10609
0.130859375,10610
0.158203125,10611
0.11328125,10612
0.142578125,10613
0.12890625,10614
0.1875,10615
0.19921875,10616
0.119140625,10617
0.08203125,10618
0.060546875,10619
0.041015625,10620
0.041015625,10621
0.0078125,10622
0.095703125,10623
0.244140625,10624
0.1953125,10625
0.216796875,10626
0.25,10627
0.36328125,10628
0.458984375,10629
0.400390625,10630
0.43359375,10631
0.513671875,10632
0.4296875,10633
0.220703125,10634
0.201171875,10635
0.123046875,10636
0.017578125,10637
0.046875,10638
0.015625,10639
0.029296875,10640
0.037109375,10641
0.09765625,10642
0.154296875,10643
0.166015625,10644
0.109375,10645
0.0859375,10646
0.150390625,10647
0.1640625,10648
0.12890625,10649
0.109375,10650
0.04296875,10651
0.091796875,10652
0.037109375,10653
0.076171875,10654
0.03125,10655
0.087890625,10656
0.115234375,10657
0.09375,10658
0.078125,10659
0.056640625,10660
0.201171875,10661
0.279296875,10662
0.232421875,10663
0.1015625,10664
0.05078125,10665
0.05078125,10666
0.00390625,10667
0.013671875,10668
0.021484375,10669
0.06640625,10670
0.158203125,10671
0.09375,10672
0.056640625,10673
0.01953125,10674
0.033203125,10675
0.048828125,10676
0.044921875,10677
0.046875,10678
0.076171875,10679
0.19140625,10680
0.150390625,10681
0.05078125,10682
0.072265625,10683
0.115234375,10684
0.099609375,10685
0.0625,10686
0.048828125,10687
0.017578125,10688
0.080078125,10689
0.044921875,10690
0.060546875,10691
0.05859375,10692
0.10546875,10693
0.1875,10694
0.12890625,10695
0.083984375,10696
0.046875,10697
0.130859375,10698
0.1015625,10699
0.064453125,10700
0.021484375,10701
0.0234375,10702
0.029296875,10703
0.033203125,10704
0.0390625,10705
0.021484375,10706
0.083984375,10707
0.205078125,10708
0.12109375,10709
0.130859375,10710
0.1328125,10711
0.076171875,10712
0.091796875,10713
0.16015625,10714
0.10546875,10715
0.251953125,10716
0.15625,10717
0.240234375,10718
0.203125,10719
0.0859375,10720
0.1328125,10721
0.162109375,10722
0.1875,10723
0.15234375,10724
0.19921875,10725
0.189453125,10726
0.09765625,10727
0.1484375,10728
0.048828125,10729
0.046875,10730
0.06640625,10731
0.060546875,10732
0.052734375,10733
0.025390625,10734
0.154296875,10735
0.171875,10736
0.125,10737
0.119140625,10738
0.048828125,10739
0.19921875,10740
0.1875,10741
0.18359375,10742
0.189453125,10743
0.24609375,10744
0.123046875,10745
0.064453125,10746
0.06640625,10747
0.060546875,10748
0.021484375,10749
0.013671875,10750
0.056640625,10751
0.021484375,10752
0.1171875,10753
0.12890625,10754
0.162109375,10755
0.064453125,10756
0.048828125,10757
0.021484375,10758
0.048828125,10759
0.017578125,10760
0.017578125,10761
0.091796875,10762
0.177734375,10763
0.0546875,10764
0.12890625,10765
0.046875,10766
0.013671875,10767
0.037109375,10768
0.03515625,10769
0.015625,10770
0.013671875,10771
0.169921875,10772
0.123046875,10773
0.169921875,10774
0.060546875,10775
0.05078125,10776
0.15625,10777
0.099609375,10778
0.1015625,10779
0.087890625,10780
0.1640625,10781
0.126953125,10782
0.072265625,10783
0.025390625,10784
0.033203125,10785
0.0234375,10786
0.01953125,10787
0.021484375,10788
0.021484375,10789
0.142578125,10790
0.103515625,10791
0.177734375,10792
0.083984375,10793
0.037109375,10794
0.017578125,10795
0.044921875,10796
0.017578125,10797
0.009765625,10798
0.103515625,10799
0.19140625,10800
0.08203125,10801
0.111328125,10802
0.0546875,10803
0.025390625,10804
0.037109375,10805
0.048828125,10806
0.033203125,10807
0.013671875,10808
0.166015625,10809
0.14453125,10810
0.169921875,10811
0.044921875,10812
0.09765625,10813
0.1484375,10814
0.140625,10815
0.138671875,10816
0.1796875,10817
0.193359375,10818
0.109375,10819
0.099609375,10820
0.025390625,10821
0.0625,10822
0.021484375,10823
0.037109375,10824
0.015625,10825
0.029296875,10826
0.150390625,10827
0.134765625,10828
0.20703125,10829
0.103515625,10830
0.029296875,10831
0.025390625,10832
0.033203125,10833
0.013671875,10834
0.009765625,10835
0.10546875,10836
0.17578125,10837
0.0546875,10838
0.1171875,10839
0.033203125,10840
0.037109375,10841
0.037109375,10842
0.044921875,10843
0.029296875,10844
0.068359375,10845
0.158203125,10846
0.158203125,10847
0.177734375,10848
0.033203125,10849
0.041015625,10850
0.029296875,10851
0.02734375,10852
0.021484375,10853
0.013671875,10854
0.19921875,10855
0.09765625,10856
0.087890625,10857
0.060546875,10858
0.041015625,10859
0.025390625,10860
0.029296875,10861
0.021484375,10862
0.02734375,10863
0.138671875,10864
0.1953125,10865
0.14453125,10866
0.05859375,10867
0.05078125,10868
0.015625,10869
0.0234375,10870
0.017578125,10871
0.021484375,10872
0.11328125,10873
0.181640625,10874
0.0859375,10875
0.126953125,10876
0.0390625,10877
0.029296875,10878
0.072265625,10879
0.0390625,10880
0.017578125,10881
0.076171875,10882
0.169921875,10883
0.15234375,10884
0.228515625,10885
0.044921875,10886
0.10546875,10887
0.185546875,10888
0.126953125,10889
0.1953125,10890
0.1875,10891
0.18359375,10892
0.10546875,10893
0.0625,10894
0.02734375,10895
0.021484375,10896
0.021484375,10897
0.029296875,10898
0.029296875,10899
0.033203125,10900
0.166015625,10901
0.228515625,10902
0.21484375,10903
0.158203125,10904
0.037109375,10905
0.017578125,10906
0.013671875,10907
0.013671875,10908
0.005859375,10909
0.123046875,10910
0.1796875,10911
0.09375,10912
0.083984375,10913
0.03515625,10914
0.041015625,10915
0.0546875,10916
0.03125,10917
0.00390625,10918
0.080078125,10919
0.142578125,10920
0.23046875,10921
0.193359375,10922
0.048828125,10923
0.14453125,10924
0.3046875,10925
0.216796875,10926
0.240234375,10927
0.310546875,10928
0.193359375,10929
0.111328125,10930
0.087890625,10931
0.056640625,10932
0.04296875,10933
0.025390625,10934
0.02734375,10935
0.025390625,10936
0.017578125,10937
0.193359375,10938
0.1875,10939
0.111328125,10940
0.083984375,10941
0.029296875,10942
0.029296875,10943
0.021484375,10944
0.017578125,10945
0.013671875,10946
0.130859375,10947
0.166015625,10948
0.072265625,10949
0.078125,10950
0.025390625,10951
0.037109375,10952
0.052734375,10953
0.033203125,10954
0.013671875,10955
0.078125,10956
0.171875,10957
0.193359375,10958
0.11328125,10959
0.037109375,10960
0.21484375,10961
0.20703125,10962
0.177734375,10963
0.23046875,10964
0.169921875,10965
0.1640625,10966
0.09765625,10967
0.0546875,10968
0.048828125,10969
0.029296875,10970
0.021484375,10971
0.048828125,10972
0.0234375,10973
0.044921875,10974
0.177734375,10975
0.19921875,10976
0.146484375,10977
0.09765625,10978
0.025390625,10979
0.033203125,10980
0.017578125,10981
0.005859375,10982
0.009765625,10983
0.14453125,10984
0.158203125,10985
0.08984375,10986
0.08203125,10987
0.033203125,10988
0.2109375,10989
0.1640625,10990
0.048828125,10991
0.029296875,10992
0.048828125,10993
0.037109375,10994
0.072265625,10995
0.072265625,10996
0.005859375,10997
0.087890625,10998
0.1015625,10999
0.037109375,11000
0.033203125,11001
0.078125,11002
0.123046875,11003
0.126953125,11004
0.048828125,11005
0.046875,11006
0.037109375,11007
0.025390625,11008
0.025390625,11009
0.017578125,11010
0.015625,11011
0.193359375,11012
0.19140625,11013
0.1796875,11014
0.0625,11015
0.01171875,11016
0.0234375,11017
0.01953125,11018
0.01171875,11019
0.009765625,11020
0.15234375,11021
0.1484375,11022
0.095703125,11023
0.05078125,11024
0.0234375,11025
0.060546875,11026
0.046875,11027
0.01953125,11028
0.029296875,11029
0.103515625,11030
0.1640625,11031
0.232421875,11032
0.107421875,11033
0.037109375,11034
0.265625,11035
0.2109375,11036
0.326171875,11037
0.26953125,11038
0.263671875,11039
0.169921875,11040
0.09765625,11041
0.0546875,11042
0.052734375,11043
0.021484375,11044
0.025390625,11045
0.025390625,11046
0.021484375,11047
0.0390625,11048
0.177734375,11049
0.169921875,11050
0.197265625,11051
0.025390625,11052
0.033203125,11053
0.025390625,11054
0.009765625,11055
0.005859375,11056
0.009765625,11057
0.130859375,11058
0.154296875,11059
0.1015625,11060
0.0390625,11061
0.037109375,11062
0.05078125,11063
0.046875,11064
0.015625,11065
0.017578125,11066
0.119140625,11067
0.197265625,11068
0.177734375,11069
0.09375,11070
0.056640625,11071
0.294921875,11072
0.271484375,11073
0.32421875,11074
0.3515625,11075
0.3125,11076
0.1484375,11077
0.060546875,11078
0.03515625,11079
0.044921875,11080
0.0234375,11081
0.025390625,11082
0.015625,11083
0.017578125,11084
0.080078125,11085
0.171875,11086
0.169921875,11087
0.201171875,11088
0.037109375,11089
0.025390625,11090
0.025390625,11091
0.025390625,11092
0.005859375,11093
0.017578125,11094
0.150390625,11095
0.14453125,11096
0.12109375,11097
0.0390625,11098
0.017578125,11099
0.0390625,11100
0.041015625,11101
0.017578125,11102
0.01171875,11103
0.140625,11104
0.18359375,11105
0.181640625,11106
0.119140625,11107
0.048828125,11108
0.36328125,11109
0.28125,11110
0.326171875,11111
0.30859375,11112
0.244140625,11113
0.166015625,11114
0.10546875,11115
0.033203125,11116
0.05078125,11117
0.021484375,11118
0.029296875,11119
0.033203125,11120
0.01953125,11121
0.115234375,11122
0.173828125,11123
0.197265625,11124
0.177734375,11125
0.033203125,11126
0.021484375,11127
0.029296875,11128
0.013671875,11129
0.01171875,11130
0.04296875,11131
0.154296875,11132
0.125,11133
0.11328125,11134
0.04296875,11135
0.0390625,11136
0.0546875,11137
0.044921875,11138
0.025390625,11139
0.033203125,11140
0.126953125,11141
0.234375,11142
0.13671875,11143
0.123046875,11144
0.029296875,11145
0.04296875,11146
0.029296875,11147
0.013671875,11148
0.013671875,11149
0.14453125,11150
0.134765625,11151
0.087890625,11152
0.029296875,11153
0.046875,11154
0.033203125,11155
0.029296875,11156
0.025390625,11157
0.0234375,11158
0.099609375,11159
0.18359375,11160
0.19921875,11161
0.12109375,11162
0.03125,11163
0.01953125,11164
0.017578125,11165
0.015625,11166
0.005859375,11167
0.060546875,11168
0.166015625,11169
0.10546875,11170
0.11328125,11171
0.029296875,11172
0.04296875,11173
0.041015625,11174
0.03125,11175
0.017578125,11176
0.029296875,11177
0.171875,11178
0.185546875,11179
0.130859375,11180
0.095703125,11181
0.033203125,11182
0.3359375,11183
0.43359375,11184
0.486328125,11185
0.474609375,11186
0.25390625,11187
0.14453125,11188
0.083984375,11189
0.029296875,11190
0.052734375,11191
0.0234375,11192
0.029296875,11193
0.017578125,11194
0.017578125,11195
0.115234375,11196
0.16015625,11197
0.220703125,11198
0.099609375,11199
0.037109375,11200
0.037109375,11201
0.025390625,11202
0.009765625,11203
0.017578125,11204
0.0859375,11205
0.228515625,11206
0.052734375,11207
0.1328125,11208
0.03515625,11209
0.056640625,11210
0.037109375,11211
0.048828125,11212
0.01171875,11213
0.017578125,11214
0.162109375,11215
0.173828125,11216
0.16796875,11217
0.064453125,11218
0.03125,11219
0.392578125,11220
0.341796875,11221
0.447265625,11222
0.486328125,11223
0.23046875,11224
0.138671875,11225
0.091796875,11226
0.037109375,11227
0.06640625,11228
0.021484375,11229
0.021484375,11230
0.015625,11231
0.025390625,11232
0.111328125,11233
0.154296875,11234
0.251953125,11235
0.091796875,11236
0.041015625,11237
0.03125,11238
0.017578125,11239
0.005859375,11240
0.017578125,11241
0.072265625,11242
0.1796875,11243
0.07421875,11244
0.091796875,11245
0.05078125,11246
0.056640625,11247
0.052734375,11248
0.056640625,11249
0.013671875,11250
0.017578125,11251
0.158203125,11252
0.21484375,11253
0.216796875,11254
0.037109375,11255
0.068359375,11256
0.384765625,11257
0.4765625,11258
0.544921875,11259
0.53125,11260
0.21484375,11261
0.119140625,11262
0.080078125,11263
0.025390625,11264
0.05859375,11265
0.017578125,11266
0.025390625,11267
0.017578125,11268
0.015625,11269
0.130859375,11270
0.189453125,11271
0.2109375,11272
0.087890625,11273
0.037109375,11274
0.033203125,11275
0.01953125,11276
0.0078125,11277
0.015625,11278
0.103515625,11279
0.1953125,11280
0.060546875,11281
0.1015625,11282
0.037109375,11283
0.154296875,11284
0.15234375,11285
0.111328125,11286
0.029296875,11287
0.041015625,11288
0.033203125,11289
0.052734375,11290
0.099609375,11291
0.013671875,11292
0.083984375,11293
0.080078125,11294
0.04296875,11295
0.025390625,11296
0.029296875,11297
0.17578125,11298
0.1875,11299
0.13671875,11300
0.13671875,11301
0.087890625,11302
0.0859375,11303
0.103515625,11304
0.119140625,11305
0.109375,11306
0.224609375,11307
0.23046875,11308
0.21875,11309
0.2265625,11310
0.103515625,11311
0.095703125,11312
0.078125,11313
0.123046875,11314
0.099609375,11315
0.1484375,11316
0.126953125,11317
0.0546875,11318
0.068359375,11319
0.03515625,11320
0.041015625,11321
0.068359375,11322
0.04296875,11323
0.017578125,11324
0.076171875,11325
0.154296875,11326
0.193359375,11327
0.1875,11328
0.033203125,11329
0.154296875,11330
0.41796875,11331
0.51171875,11332
0.57421875,11333
0.51171875,11334
0.068359375,11335
0.05078125,11336
0.01171875,11337
0.01171875,11338
0.005859375,11339
0.0078125,11340
0.0078125,11341
0.017578125,11342
0.009765625,11343
0.158203125,11344
0.224609375,11345
0.142578125,11346
0.111328125,11347
0.029296875,11348
0.037109375,11349
0.005859375,11350
0.013671875,11351
0.005859375,11352
0.076171875,11353
0.091796875,11354
0.025390625,11355
0.033203125,11356
0.0078125,11357
0.017578125,11358
0.013671875,11359
0.005859375,11360
0.00390625,11361
0.060546875,11362
0.162109375,11363
0.2109375,11364
0.12890625,11365
0.02734375,11366
0.126953125,11367
0.37109375,11368
0.47265625,11369
0.513671875,11370
0.4140625,11371
0.083984375,11372
0.0390625,11373
0.015625,11374
0.005859375,11375
0.0078125,11376
0.005859375,11377
0.00390625,11378
0.00390625,11379
0.005859375,11380
0.169921875,11381
0.216796875,11382
0.138671875,11383
0.111328125,11384
0.021484375,11385
0.03125,11386
0.005859375,11387
0.009765625,11388
0.005859375,11389
0.0703125,11390
0.09375,11391
0.009765625,11392
0.03125,11393
0.005859375,11394
0.013671875,11395
0.013671875,11396
0.005859375,11397
0.005859375,11398
0.0703125,11399
0.19921875,11400
0.228515625,11401
0.09765625,11402
0.041015625,11403
0.1484375,11404
0.380859375,11405
0.4375,11406
0.541015625,11407
0.341796875,11408
0.060546875,11409
0.04296875,11410
0.015625,11411
0.0078125,11412
0.005859375,11413
0.005859375,11414
0.005859375,11415
0.00390625,11416
0.0078125,11417
0.169921875,11418
0.189453125,11419
0.169921875,11420
0.060546875,11421
0.037109375,11422
0.03125,11423
0.0078125,11424
0.01171875,11425
0.0078125,11426
0.06640625,11427
0.0859375,11428
0.0234375,11429
0.0390625,11430
0.005859375,11431
0.015625,11432
0.01171875,11433
0.005859375,11434
0.005859375,11435
0.095703125,11436
0.138671875,11437
0.259765625,11438
0.099609375,11439
0.037109375,11440
0.033203125,11441
0.03125,11442
0.009765625,11443
0.013671875,11444
0.05859375,11445
0.048828125,11446
0.033203125,11447
0.009765625,11448
0.0078125,11449
0.005859375,11450
0.009765625,11451
0.005859375,11452
0.005859375,11453
0.01171875,11454
0.197265625,11455
0.21484375,11456
0.189453125,11457
0.033203125,11458
0.015625,11459
0.02734375,11460
0.009765625,11461
0.009765625,11462
0.009765625,11463
0.078125,11464
0.107421875,11465
0.041015625,11466
0.017578125,11467
0.01171875,11468
0.025390625,11469
0.021484375,11470
0.00390625,11471
0.005859375,11472
0.111328125,11473
0.181640625,11474
0.21484375,11475
0.091796875,11476
0.037109375,11477
0.259765625,11478
0.30078125,11479
0.517578125,11480
0.5234375,11481
0.275390625,11482
0.044921875,11483
0.03515625,11484
0.01171875,11485
0.005859375,11486
0.0078125,11487
0.00390625,11488
0.005859375,11489
0.005859375,11490
0.048828125,11491
0.173828125,11492
0.189453125,11493
0.173828125,11494
0.037109375,11495
0.025390625,11496
0.021484375,11497
0.013671875,11498
0.009765625,11499
0.009765625,11500
0.083984375,11501
0.08203125,11502
0.03515625,11503
0.01171875,11504
0.009765625,11505
0.017578125,11506
0.009765625,11507
0.005859375,11508
0.00390625,11509
0.111328125,11510
0.177734375,11511
0.19140625,11512
0.08984375,11513
0.05859375,11514
0.296875,11515
0.3046875,11516
0.494140625,11517
0.5234375,11518
0.279296875,11519
0.052734375,11520
0.03125,11521
0.005859375,11522
0.0078125,11523
0.005859375,11524
0.005859375,11525
0.00390625,11526
0.00390625,11527
0.072265625,11528
0.169921875,11529
0.162109375,11530
0.193359375,11531
0.037109375,11532
0.025390625,11533
0.025390625,11534
0.013671875,11535
0.009765625,11536
0.0234375,11537
0.07421875,11538
0.07421875,11539
0.03125,11540
0.01953125,11541
0.013671875,11542
0.037109375,11543
0.021484375,11544
0.005859375,11545
0.005859375,11546
0.134765625,11547
0.19140625,11548
0.158203125,11549
0.115234375,11550
0.033203125,11551
0.30078125,11552
0.3359375,11553
0.5234375,11554
0.505859375,11555
0.228515625,11556
0.052734375,11557
0.021484375,11558
0.005859375,11559
0.0078125,11560
0.005859375,11561
0.005859375,11562
0.005859375,11563
0.00390625,11564
0.080078125,11565
0.169921875,11566
0.205078125,11567
0.138671875,11568
0.029296875,11569
0.02734375,11570
0.015625,11571
0.015625,11572
0.0078125,11573
0.037109375,11574
0.080078125,11575
0.05859375,11576
0.03515625,11577
0.013671875,11578
0.09765625,11579
0.16015625,11580
0.08984375,11581
0.029296875,11582
0.037109375,11583
0.044921875,11584
0.037109375,11585
0.056640625,11586
0.033203125,11587
0.029296875,11588
0.126953125,11589
0.044921875,11590
0.029296875,11591
0.017578125,11592
0.08984375,11593
0.041015625,11594
0.025390625,11595
0.015625,11596
0.009765625,11597
0.005859375,11598
0.005859375,11599
0.005859375,11600
0.00390625,11601
0.083984375,11602
0.20703125,11603
0.220703125,11604
0.109375,11605
0.037109375,11606
0.029296875,11607
0.025390625,11608
0.009765625,11609
0.009765625,11610
0.0546875,11611
0.083984375,11612
0.033203125,11613
0.0390625,11614
0.015625,11615
0.017578125,11616
0.025390625,11617
0.015625,11618
0.009765625,11619
0.005859375,11620
0.197265625,11621
0.205078125,11622
0.1640625,11623
0.072265625,11624
0.041015625,11625
0.361328125,11626
0.435546875,11627
0.55859375,11628
0.501953125,11629
0.193359375,11630
0.04296875,11631
0.025390625,11632
0.009765625,11633
0.009765625,11634
0.0078125,11635
0.00390625,11636
0.005859375,11637
0.005859375,11638
0.111328125,11639
0.16796875,11640
0.220703125,11641
0.095703125,11642
0.041015625,11643
0.033203125,11644
0.013671875,11645
0.009765625,11646
0.013671875,11647
0.072265625,11648
0.08203125,11649
0.03125,11650
0.033203125,11651
0.015625,11652
0.025390625,11653
0.013671875,11654
0.013671875,11655
0.00390625,11656
0.009765625,11657
0.201171875,11658
0.21875,11659
0.1796875,11660
0.0625,11661
0.04296875,11662
0.3984375,11663
0.4765625,11664
0.564453125,11665
0.5234375,11666
0.142578125,11667
0.05859375,11668
0.021484375,11669
0.009765625,11670
0.01953125,11671
0.009765625,11672
0.005859375,11673
0.00390625,11674
0.009765625,11675
0.138671875,11676
0.181640625,11677
0.22265625,11678
0.091796875,11679
0.044921875,11680
0.044921875,11681
0.013671875,11682
0.013671875,11683
0.017578125,11684
0.06640625,11685
0.068359375,11686
0.02734375,11687
0.03125,11688
0.005859375,11689
0.021484375,11690
0.013671875,11691
0.013671875,11692
0.005859375,11693
0.041015625,11694
0.203125,11695
0.185546875,11696
0.197265625,11697
0.037109375,11698
0.08984375,11699
0.41015625,11700
0.517578125,11701
0.603515625,11702
0.533203125,11703
0.119140625,11704
0.041015625,11705
0.017578125,11706
0.009765625,11707
0.0234375,11708
0.009765625,11709
0.009765625,11710
0.005859375,11711
0.01171875,11712
0.150390625,11713
0.228515625,11714
0.201171875,11715
0.0859375,11716
0.056640625,11717
0.048828125,11718
0.02734375,11719
0.0078125,11720
0.0234375,11721
0.064453125,11722
0.1015625,11723
0.021484375,11724
0.046875,11725
0.005859375,11726
0.03125,11727
0.01171875,11728
0.021484375,11729
0.005859375,11730
0.056640625,11731
0.212890625,11732
0.158203125,11733
0.20703125,11734
0.052734375,11735
0.056640625,11736
0.048828125,11737
0.0234375,11738
0.013671875,11739
0.0234375,11740
0.091796875,11741
0.0390625,11742
0.03125,11743
0.01953125,11744
0.017578125,11745
0.013671875,11746
0.009765625,11747
0.013671875,11748
0.01171875,11749
0.203125,11750
0.203125,11751
0.203125,11752
0.119140625,11753
0.041015625,11754
0.048828125,11755
0.013671875,11756
0.025390625,11757
0.017578125,11758
0.078125,11759
0.080078125,11760
0.02734375,11761
0.029296875,11762
0.01171875,11763
0.025390625,11764
0.029296875,11765
0.025390625,11766
0.0078125,11767
0.0703125,11768
0.220703125,11769
0.19921875,11770
0.166015625,11771
0.052734375,11772
0.177734375,11773
0.48828125,11774
0.59375,11775
0.603515625,11776
0.515625,11777
0.087890625,11778
0.046875,11779
0.03125,11780
0.03125,11781
0.0234375,11782
0.021484375,11783
0.00390625,11784
0.017578125,11785
0.017578125,11786
0.208984375,11787
0.240234375,11788
0.162109375,11789
0.130859375,11790
0.044921875,11791
0.052734375,11792
0.021484375,11793
0.025390625,11794
0.017578125,11795
0.068359375,11796
0.099609375,11797
0.025390625,11798
0.046875,11799
0.013671875,11800
0.037109375,11801
0.037109375,11802
0.013671875,11803
0.015625,11804
0.083984375,11805
0.2421875,11806
0.248046875,11807
0.1640625,11808
0.06640625,11809
0.259765625,11810
0.546875,11811
0.576171875,11812
0.630859375,11813
0.517578125,11814
0.091796875,11815
0.048828125,11816
0.052734375,11817
0.060546875,11818
0.099609375,11819
0.240234375,11820
0.466796875,11821
0.59375,11822
0.630859375,11823
0.302734375,11824
0.236328125,11825
0.115234375,11826
0.115234375,11827
0.11328125,11828
0.080078125,11829
0.056640625,11830
0.107421875,11831
0.080078125,11832
0.1875,11833
0.40625,11834
0.609375,11835
0.638671875,11836
0.6484375,11837
0.158203125,11838
0.083984375,11839
0.15234375,11840
0.166015625,11841
0.2734375,11842
0.216796875,11843
0.31640625,11844
0.15234375,11845
0.177734375,11846
0.330078125,11847
0.51953125,11848
0.576171875,11849
0.517578125,11850
0.384765625,11851
0.28515625,11852
0.265625,11853
0.234375,11854
0.12890625,11855
0.140625,11856
0.3125,11857
0.400390625,11858
0.166015625,11859
0.158203125,11860
0.296875,11861
0.212890625,11862
0.150390625,11863
0.068359375,11864
0.111328125,11865
0.14453125,11866
0.28515625,11867
0.12109375,11868
0.099609375,11869
0.216796875,11870
0.30859375,11871
0.52734375,11872
0.380859375,11873
0.23828125,11874
0.306640625,11875
0.189453125,11876
0.173828125,11877
0.111328125,11878
0.134765625,11879
0.2109375,11880
0.2890625,11881
0.091796875,11882
0.162109375,11883
0.18359375,11884
0.1484375,11885
0.083984375,11886
0.138671875,11887
0.16015625,11888
0.21484375,11889
0.109375,11890
0.287109375,11891
0.11328125,11892
0.072265625,11893
0.091796875,11894
0.123046875,11895
0.130859375,11896
0.15625,11897
0.337890625,11898
0.396484375,11899
0.345703125,11900
0.392578125,11901
0.408203125,11902
0.3203125,11903
0.349609375,11904
0.416015625,11905
0.39453125,11906
0.138671875,11907
0.11328125,11908
0.087890625,11909
0.0390625,11910
0.03125,11911
0.037109375,11912
0.025390625,11913
0.044921875,11914
0.03125,11915
0.080078125,11916
0.10546875,11917
0.294921875,11918
0.107421875,11919
0.236328125,11920
0.18359375,11921
0.1328125,11922
0.111328125,11923
0.171875,11924
0.099609375,11925
0.05859375,11926
0.017578125,11927
0.0234375,11928
0.013671875,11929
0.0078125,11930
0.00390625,11931
0.009765625,11932
0.005859375,11933
0.03515625,11934
0.07421875,11935
0.138671875,11936
0.05078125,11937
0.041015625,11938
0.044921875,11939
0.08984375,11940
0.03515625,11941
0.064453125,11942
0.1171875,11943
0.08203125,11944
0.06640625,11945
0.015625,11946
0.01953125,11947
0.005859375,11948
0.005859375,11949
0.005859375,11950
0.005859375,11951
0.00390625,11952
0.068359375,11953
0.115234375,11954
0.0546875,11955
0.076171875,11956
0.01953125,11957
0.013671875,11958
0.033203125,11959
0.037109375,11960
0.017578125,11961
0.0703125,11962
0.052734375,11963
0.01953125,11964
0.009765625,11965
0.0078125,11966
0.005859375,11967
0.005859375,11968
0.005859375,11969
0.00390625,11970
0.037109375,11971
0.109375,11972
0.07421875,11973
0.076171875,11974
0.0234375,11975
0.025390625,11976
0.0234375,11977
0.005859375,11978
0.033203125,11979
0.08203125,11980
0.064453125,11981
0.072265625,11982
0.03125,11983
0.01953125,11984
0.005859375,11985
0.005859375,11986
0.00390625,11987
0.005859375,11988
0.005859375,11989
0.07421875,11990
0.123046875,11991
0.08203125,11992
0.04296875,11993
0.02734375,11994
0.01953125,11995
0.0234375,11996
0.056640625,11997
0.0234375,11998
0.193359375,11999
0.060546875,12000
0.017578125,12001
0.009765625,12002
0.0078125,12003
0.005859375,12004
0.005859375,12005
0.005859375,12006
0.00390625,12007
0.037109375,12008
0.107421875,12009
0.07421875,12010
0.072265625,12011
0.0234375,12012
0.025390625,12013
0.0234375,12014
0.009765625,12015
0.2109375,12016
0.220703125,12017
0.068359375,12018
0.03515625,12019
0.03515625,12020
0.017578125,12021
0.0078125,12022
0.005859375,12023
0.005859375,12024
0.00390625,12025
0.005859375,12026
0.095703125,12027
0.095703125,12028
0.087890625,12029
0.03125,12030
0.033203125,12031
0.015625,12032
0.021484375,12033
0.103515625,12034
0.3671875,12035
0.150390625,12036
0.0546875,12037
0.013671875,12038
0.01171875,12039
0.005859375,12040
0.005859375,12041
0.005859375,12042
0.005859375,12043
0.005859375,12044
0.03515625,12045
0.111328125,12046
0.095703125,12047
0.0478515625,12048
0.033203125,12049
0.015625,12050
0.021484375,12051
0.01171875,12052
0.400390625,12053
0.392578125,12054
0.083984375,12055
0.02734375,12056
0.02734375,12057
0.015625,12058
0.005859375,12059
0.005859375,12060
0.005859375,12061
0.00390625,12062
0.005859375,12063
0.111328125,12064
0.078125,12065
0.083984375,12066
0.02734375,12067
0.021484375,12068
0.015625,12069
0.0078125,12070
0.154296875,12071
0.4599609375,12072
0.1328125,12073
0.056640625,12074
0.01171875,12075
0.01171875,12076
0.0078125,12077
0.005859375,12078
0.00390625,12079
0.005859375,12080
0.005859375,12081
0.060546875,12082
0.076171875,12083
0.087890625,12084
0.046875,12085
0.033203125,12086
0.01171875,12087
0.021484375,12088
0.021484375,12089
0.42578125,12090
0.337890625,12091
0.08984375,12092
0.01953125,12093
0.021484375,12094
0.01953125,12095
0.005859375,12096
0.005859375,12097
0.005859375,12098
0.005859375,12099
0.0078125,12100
0.103515625,12101
0.115234375,12102
0.0546875,12103
0.044921875,12104
0.015625,12105
0.033203125,12106
0.00390625,12107
0.193359375,12108
0.50390625,12109
0.09375,12110
0.05078125,12111
0.021484375,12112
0.005859375,12113
0.0078125,12114
0.005859375,12115
0.005859375,12116
0.00390625,12117
0.005859375,12118
0.080078125,12119
0.0625,12120
0.107421875,12121
0.056640625,12122
0.021484375,12123
0.017578125,12124
0.01953125,12125
0.017578125,12126
0.50390625,12127
0.279296875,12128
0.078125,12129
0.013671875,12130
0.03515625,12131
0.005859375,12132
0.0078125,12133
0.00390625,12134
0.005859375,12135
0.005859375,12136
0.017578125,12137
0.0859375,12138
0.111328125,12139
0.0625,12140
0.037109375,12141
0.015625,12142
0.033203125,12143
0.009765625,12144
0.2421875,12145
0.478515625,12146
0.072265625,12147
0.046875,12148
0.01953125,12149
0.01171875,12150
0.005859375,12151
0.005859375,12152
0.005859375,12153
0.005859375,12154
0.00390625,12155
0.076171875,12156
0.099609375,12157
0.05078125,12158
0.060546875,12159
0.015625,12160
0.017578125,12161
0.017578125,12162
0.0234375,12163
0.513671875,12164
0.185546875,12165
0.0859375,12166
0.013671875,12167
0.03515625,12168
0.01171875,12169
0.005859375,12170
0.005859375,12171
0.00390625,12172
0.00390625,12173
0.037109375,12174
0.109375,12175
0.09765625,12176
0.080078125,12177
0.01953125,12178
0.017578125,12179
0.015625,12180
0.009765625,12181
0.287109375,12182
0.423828125,12183
0.05859375,12184
0.05078125,12185
0.0234375,12186
0.0078125,12187
0.005859375,12188
0.005859375,12189
0.005859375,12190
0.005859375,12191
0.005859375,12192
0.07421875,12193
0.11328125,12194
0.05859375,12195
0.068359375,12196
0.015625,12197
0.025390625,12198
0.025390625,12199
0.046875,12200
0.5390625,12201
0.203125,12202
0.08203125,12203
0.017578125,12204
0.033203125,12205
0.01171875,12206
0.005859375,12207
0.005859375,12208
0.005859375,12209
0.00390625,12210
0.041015625,12211
0.099609375,12212
0.08203125,12213
0.080078125,12214
0.02734375,12215
0.025390625,12216
0.01953125,12217
0.009765625,12218
0.349609375,12219
0.466796875,12220
0.0703125,12221
0.02734375,12222
0.01953125,12223
0.005859375,12224
0.0078125,12225
0.005859375,12226
0.00390625,12227
0.005859375,12228
0.005859375,12229
0.078125,12230
0.076171875,12231
0.095703125,12232
0.02734375,12233
0.025390625,12234
0.01953125,12235
0.017578125,12236
0.09375,12237
0.5234375,12238
0.146484375,12239
0.083984375,12240
0.009765625,12241
0.0390625,12242
0.005859375,12243
0.005859375,12244
0.005859375,12245
0.005859375,12246
0.005859375,12247
0.0390625,12248
0.111328125,12249
0.083984375,12250
0.064453125,12251
0.033203125,12252
0.0078125,12253
0.0283203125,12254
0.01171875,12255
0.375,12256
0.388671875,12257
0.052734375,12258
0.0234375,12259
0.015625,12260
0.0078125,12261
0.005859375,12262
0.005859375,12263
0.005859375,12264
0.00390625,12265
0.005859375,12266
0.103515625,12267
0.09375,12268
0.083984375,12269
0.03515625,12270
0.021484375,12271
0.01171875,12272
0.017578125,12273
0.14453125,12274
0.4736328125,12275
0.14453125,12276
0.091796875,12277
0.015625,12278
0.03515625,12279
0.005859375,12280
0.0078125,12281
0.00390625,12282
0.005859375,12283
0.005859375,12284
0.04296875,12285
0.091796875,12286
0.08984375,12287
0.0546875,12288
0.033203125,12289
0.01171875,12290
0.025390625,12291
0.01953125,12292
0.41796875,12293
0.3955078125,12294
0.05859375,12295
0.01953125,12296
0.013671875,12297
0.0078125,12298
0.005859375,12299
0.005859375,12300
0.005859375,12301
0.005859375,12302
0.00390625,12303
0.103515625,12304
0.08203125,12305
0.0703125,12306
0.037109375,12307
0.015625,12308
0.025390625,12309
0.00390625,12310
0.17578125,12311
0.505859375,12312
0.091796875,12313
0.05859375,12314
0.029296875,12315
0.029296875,12316
0.0078125,12317
0.005859375,12318
0.005859375,12319
0.00390625,12320
0.005859375,12321
0.083984375,12322
0.0703125,12323
0.099609375,12324
0.05859375,12325
0.041015625,12326
0.0078125,12327
0.017578125,12328
0.013671875,12329
0.48046875,12330
0.291015625,12331
0.056640625,12332
0.01953125,12333
0.015625,12334
0.005859375,12335
0.005859375,12336
0.005859375,12337
0.005859375,12338
0.005859375,12339
0.015625,12340
0.087890625,12341
0.119140625,12342
0.046875,12343
0.041015625,12344
0.015625,12345
0.025390625,12346
0.01171875,12347
0.2265625,12348
0.490234375,12349
0.078125,12350
0.08203125,12351
0.0234375,12352
0.01953125,12353
0.005859375,12354
0.005859375,12355
0.005859375,12356
0.005859375,12357
0.00390625,12358
0.080078125,12359
0.111328125,12360
0.05859375,12361
0.056640625,12362
0.015625,12363
0.013671875,12364
0.015625,12365
0.015625,12366
0.5078125,12367
0.220703125,12368
0.060546875,12369
0.017578125,12370
0.01171875,12371
0.005859375,12372
0.0078125,12373
0.005859375,12374
0.00390625,12375
0.005859375,12376
0.037109375,12377
0.07421875,12378
0.095703125,12379
0.06640625,12380
0.03125,12381
0.021484375,12382
0.015625,12383
0.009765625,12384
0.26171875,12385
0.43359375,12386
0.064453125,12387
0.07421875,12388
0.0234375,12389
0.0234375,12390
0.005859375,12391
0.005859375,12392
0.005859375,12393
0.005859375,12394
0.00390625,12395
0.080078125,12396
0.115234375,12397
0.0625,12398
0.072265625,12399
0.015625,12400
0.013671875,12401
0.0234375,12402
0.03125,12403
0.552734375,12404
0.216796875,12405
0.052734375,12406
0.0234375,12407
0.009765625,12408
0.0078125,12409
0.005859375,12410
0.005859375,12411
0.005859375,12412
0.00390625,12413
0.037109375,12414
0.111328125,12415
0.0859375,12416
0.068359375,12417
0.01953125,12418
0.02734375,12419
0.0234375,12420
0.009765625,12421
0.3203125,12422
0.427734375,12423
0.05859375,12424
0.05078125,12425
0.025390625,12426
0.01953125,12427
0.0078125,12428
0.005859375,12429
0.00390625,12430
0.005859375,12431
0.005859375,12432
0.08203125,12433
0.111328125,12434
0.099609375,12435
0.03125,12436
0.025390625,12437
0.013671875,12438
0.021484375,12439
0.08203125,12440
0.529296875,12441
0.166015625,12442
0.052734375,12443
0.017578125,12444
0.015625,12445
0.005859375,12446
0.005859375,12447
0.005859375,12448
0.005859375,12449
0.00390625,12450
0.041015625,12451
0.107421875,12452
0.05859375,12453
0.068359375,12454
0.01953125,12455
0.021484375,12456
0.025390625,12457
0.009765625,12458
0.359375,12459
0.345703125,12460
0.0703125,12461
0.0390625,12462
0.02734375,12463
0.01953125,12464
0.005859375,12465
0.005859375,12466
0.005859375,12467
0.00390625,12468
0.005859375,12469
0.115234375,12470
0.08984375,12471
0.0859375,12472
0.03125,12473
0.021484375,12474
0.00390625,12475
0.017578125,12476
0.119140625,12477
0.505859375,12478
0.1484375,12479
0.05859375,12480
0.017578125,12481
0.01171875,12482
0.005859375,12483
0.0078125,12484
0.00390625,12485
0.005859375,12486
0.005859375,12487
0.03515625,12488
0.109375,12489
0.087890625,12490
0.04296875,12491
0.033203125,12492
0.01953125,12493
0.025390625,12494
0.021484375,12495
0.392578125,12496
0.37109375,12497
0.083984375,12498
0.017578125,12499
0.03125,12500
0.01953125,12501
0.005859375,12502
0.005859375,12503
0.005859375,12504
0.005859375,12505
0.00390625,12506
0.107421875,12507
0.0859375,12508
0.083984375,12509
0.041015625,12510
0.01953125,12511
0.01953125,12512
0.00390625,12513
0.18359375,12514
0.5,12515
0.10546875,12516
0.0546875,12517
0.01171875,12518
0.01171875,12519
0.0078125,12520
0.005859375,12521
0.005859375,12522
0.00390625,12523
0.005859375,12524
0.072265625,12525
0.056640625,12526
0.107421875,12527
0.046875,12528
0.029296875,12529
0.015625,12530
0.021484375,12531
0.015625,12532
0.44921875,12533
0.296875,12534
0.08203125,12535
0.0234375,12536
0.029296875,12537
0.015625,12538
0.005859375,12539
0.005859375,12540
0.005859375,12541
0.005859375,12542
0.0078125,12543
0.1015625,12544
0.123046875,12545
0.0546875,12546
0.041015625,12547
0.01953125,12548
0.0234375,12549
0.005859375,12550
0.208984375,12551
0.47265625,12552
0.078125,12553
0.046875,12554
0.017578125,12555
0.01171875,12556
0.005859375,12557
0.005859375,12558
0.005859375,12559
0.005859375,12560
0.00390625,12561
0.072265625,12562
0.099609375,12563
0.078125,12564
0.048828125,12565
0.015625,12566
0.025390625,12567
0.015625,12568
0.021484375,12569
0.49609375,12570
0.2255859375,12571
0.09765625,12572
0.013671875,12573
0.0390625,12574
0.005859375,12575
0.0078125,12576
0.00390625,12577
0.005859375,12578
0.005859375,12579
0.033203125,12580
0.06640625,12581
0.115234375,12582
0.05859375,12583
0.041015625,12584
0.0234375,12585
0.029296875,12586
0.009765625,12587
0.244140625,12588
0.498046875,12589
0.07421875,12590
0.046875,12591
0.01953125,12592
0.0078125,12593
0.005859375,12594
0.005859375,12595
0.005859375,12596
0.005859375,12597
0.00390625,12598
0.076171875,12599
0.103515625,12600
0.06640625,12601
0.064453125,12602
0.015625,12603
0.0234375,12604
0.021484375,12605
0.025390625,12606
0.541015625,12607
0.21484375,12608
0.072265625,12609
0.015625,12610
0.041015625,12611
0.01171875,12612
0.005859375,12613
0.005859375,12614
0.005859375,12615
0.00390625,12616
0.041015625,12617
0.107421875,12618
0.078125,12619
0.080078125,12620
0.0234375,12621
0.021484375,12622
0.01953125,12623
0.01171875,12624
0.2958984375,12625
0.431640625,12626
0.052734375,12627
0.041015625,12628
0.015625,12629
0.0078125,12630
0.005859375,12631
0.0078125,12632
0.00390625,12633
0.005859375,12634
0.005859375,12635
0.07421875,12636
0.119140625,12637
0.076171875,12638
0.041015625,12639
0.021484375,12640
0.009765625,12641
0.017578125,12642
0.0712890625,12643
0.509765625,12644
0.21875,12645
0.087890625,12646
0.009765625,12647
0.033203125,12648
0.0078125,12649
0.005859375,12650
0.005859375,12651
0.005859375,12652
0.00390625,12653
0.037109375,12654
0.111328125,12655
0.08203125,12656
0.060546875,12657
0.01953125,12658
0.017578125,12659
0.01953125,12660
0.013671875,12661
0.3388671875,12662
0.373046875,12663
0.064453125,12664
0.02734375,12665
0.01953125,12666
0.005859375,12667
0.0078125,12668
0.005859375,12669
0.009765625,12670
0.01171875,12671
0.013671875,12672
0.08984375,12673
0.109375,12674
0.154296875,12675
0.109375,12676
0.32421875,12677
0.42578125,12678
0.66015625,12679
0.6640625,12680
0.732421875,12681
0.1953125,12682
0.12109375,12683
0.052734375,12684
0.078125,12685
0.029296875,12686
0.044921875,12687
0.048828125,12688
0.076171875,12689
0.111328125,12690
0.12109375,12691
0.33984375,12692
0.4765625,12693
0.5,12694
0.662109375,12695
0.650390625,12696
0.673828125,12697
0.68359375,12698
0.689453125,12699
0.580078125,12700
0.232421875,12701
0.1015625,12702
0.171875,12703
0.03125,12704
0.009765625,12705
0.021484375,12706
0.025390625,12707
0.01953125,12708
0.029296875,12709
0.119140625,12710
0.09375,12711
0.216796875,12712
0.234375,12713
0.259765625,12714
0.076171875,12715
0.03515625,12716
0.046875,12717
0.005859375,12718
0.01171875,12719
0.0078125,12720
0.005859375,12721
0.009765625,12722
0.015625,12723
0.017578125,12724
0.033203125,12725
0.05078125,12726
0.087890625,12727
0.1328125,12728
0.083984375,12729
0.01953125,12730
0.013671875,12731
0.0078125,12732
0.005859375,12733
0.005859375,12734
0.005859375,12735
0.00390625,12736
0.056640625,12737
0.0546875,12738
0.015625,12739
0.025390625,12740
0.0078125,12741
0.005859375,12742
0.005859375,12743
0.005859375,12744
0.005859375,12745
0.0078125,12746
0.083984375,12747
0.111328125,12748
0.05078125,12749
0.044921875,12750
0.0859375,12751
0.072265625,12752
0.013671875,12753
0.015625,12754
0.0078125,12755
0.005859375,12756
0.005859375,12757
0.00390625,12758
0.005859375,12759
0.005859375,12760
0.00390625,12761
0.005859375,12762
0.005859375,12763
0.00390625,12764
0.107421875,12765
0.068359375,12766
0.017578125,12767
0.01953125,12768
0.005859375,12769
0.005859375,12770
0.005859375,12771
0.005859375,12772
0.00390625,12773
0.005859375,12774
0.005859375,12775
0.00390625,12776
0.005859375,12777
0.00390625,12778
0.005859375,12779
0.005859375,12780
0.01171875,12781
0.349609375,12782
0.390625,12783
0.390625,12784
0.30078125,12785
0.21875,12786
0.140625,12787
0.234375,12788
0.2509765625,12789
0.2509765625,12790
0.236328125,12791
0.30859375,12792
0.3642578125,12793
0.3447265625,12794
0.3916015625,12795
0.3955078125,12796
0.3828125,12797
0.337890625,12798
0.2734375,12799
0.23046875,12800
0.234375,12801
0.2841796875,12802
0.263671875,12803
0.27734375,12804
0.2822265625,12805
0.3232421875,12806
0.3134765625,12807
0.33984375,12808
0.353515625,12809
0.3291015625,12810
0.3427734375,12811
0.3193359375,12812
0.306640625,12813
0.2529296875,12814
0.294921875,12815
0.2890625,12816
0.310546875,12817
0.2822265625,12818
0.296875,12819
0.275390625,12820
0.27734375,12821
0.2958984375,12822
0.283203125,12823
0.2802734375,12824
0.3095703125,12825
0.318359375,12826
0.283203125,12827
0.2548828125,12828
0.275390625,12829
0.2705078125,12830
0.2666015625,12831
0.2265625,12832
0.2705078125,12833
0.2587890625,12834
0.25390625,12835
0.255859375,12836
0.2666015625,12837
0.283203125,12838
0.271484375,12839
0.2744140625,12840
0.2724609375,12841
0.267578125,12842
0.244140625,12843
0.2705078125,12844
0.25390625,12845
0.24609375,12846
0.2216796875,12847
0.2197265625,12848
0.2392578125,12849
0.271484375,12850
0.279296875,12851
0.2568359375,12852
0.2509765625,12853
0.2666015625,12854
0.2607421875,12855
0.28125,12856
0.2529296875,12857
0.251953125,12858
0.26171875,12859
0.26953125,12860
0.2548828125,12861
0.2607421875,12862
0.25390625,12863
0.25,12864
0.2841796875,12865
0.2626953125,12866
0.255859375,12867
0.2724609375,12868
0.2314453125,12869
0.23828125,12870
0.2353515625,12871
0.267578125,12872
0.263671875,12873
0.28515625,12874
0.248046875,12875
0.255859375,12876
0.2783203125,12877
0.2705078125,12878
0.248046875,12879
0.2890625,12880
0.23828125,12881
0.2431640625,12882
0.248046875,12883
0.2529296875,12884
0.2421875,12885
0.25,12886
0.244140625,12887
0.2900390625,12888
0.26171875,12889
0.23046875,12890
0.2509765625,12891
0.275390625,12892
0.2412109375,12893
0.267578125,12894
0.25,12895
0.2646484375,12896
0.2578125,12897
0.259765625,12898
0.248046875,12899
0.2744140625,12900
0.2197265625,12901
0.244140625,12902
0.2578125,12903
0.244140625,12904
0.2421875,12905
0.2333984375,12906
0.2607421875,12907
0.2626953125,12908
0.21875,12909
0.263671875,12910
0.2490234375,12911
0.2265625,12912
0.24609375,12913
0.2158203125,12914
0.2509765625,12915
0.2626953125,12916
0.2412109375,12917
0.25,12918
0.251953125,12919
0.2509765625,12920
0.2490234375,12921
0.08984375,12922
