@RELATION 'Music feature'
%rows=1
%columns=12922
%sample_rate=22050
%window_size=512
%step_size=512

@ATTRIBUTE 'Spectral centroid' NUMERIC
@ATTRIBUTE WindowNumber NUMERIC

@DATA
-1.0,1
5477.9546,2
5614.409,3
6619.252,4
6800.8916,5
6968.099,6
6869.5493,7
7079.5044,8
6896.9404,9
6990.3184,10
7272.581,11
7185.634,12
7239.411,13
7029.2295,14
6959.724,15
7184.2017,16
7416.4224,17
7079.5884,18
7238.9043,19
7175.1978,20
7184.279,21
7175.6963,22
7359.912,23
7263.3247,24
7351.1323,25
7181.4473,26
7432.6406,27
7435.6973,28
7337.98,29
4889.66,30
5662.54,31
6079.8936,32
5971.414,33
5784.994,34
6638.276,35
6827.119,36
6758.35,37
6542.0605,38
5297.61,39
5980.5244,40
5407.5054,41
5115.3916,42
5165.8735,43
5394.787,44
5442.359,45
5200.5,46
4995.6636,47
4749.101,48
5469.875,49
4712.2056,50
5311.589,51
4592.7104,52
4033.2104,53
4875.183,54
5589.2466,55
5500.5767,56
4976.943,57
5172.9478,58
5440.813,59
5660.346,60
4806.2144,61
4692.0938,62
4292.7773,63
4051.518,64
3957.7405,65
3712.5173,66
3937.9888,67
5013.9214,68
5173.644,69
5321.3096,70
4825.34,71
5752.0166,72
4913.672,73
5278.8237,74
4841.4556,75
3653.6438,76
4630.4824,77
4879.5835,78
4236.389,79
4960.3604,80
5123.461,81
4866.2397,82
5216.972,83
5386.975,84
5289.378,85
4473.633,86
4989.224,87
5169.954,88
4877.443,89
3806.1477,90
4282.122,91
4120.423,92
4413.987,93
3496.8462,94
3685.5947,95
3114.0144,96
4485.12,97
3063.223,98
2704.872,99
3165.3447,100
2827.2344,101
2370.7283,102
2800.479,103
2382.3372,104
3239.8362,105
2512.6577,106
3052.7202,107
3183.9495,108
4933.4844,109
3809.4592,110
4145.782,111
4409.76,112
2300.857,113
2168.962,114
1603.3123,115
806.4052,116
1009.9953,117
872.35394,118
932.123,119
929.9045,120
1239.8264,121
1426.15,122
1558.2399,123
1359.6475,124
758.4023,125
856.0543,126
598.4619,127
727.3454,128
593.1824,129
728.0549,130
2769.1902,131
3054.6426,132
2119.9739,133
2632.8098,134
1238.5819,135
746.3121,136
591.70746,137
419.03125,138
281.82642,139
365.3002,140
1436.746,141
1609.6239,142
486.87646,143
352.34985,144
439.68887,145
1333.4473,146
1471.9182,147
1198.3494,148
2041.3441,149
2128.0767,150
1730.9259,151
1304.4584,152
558.5446,153
245.70895,154
143.87552,155
136.674,156
138.77205,157
175.09514,158
1417.2332,159
1536.7455,160
1022.2178,161
220.44737,162
263.76282,163
332.56116,164
244.71848,165
228.69737,166
218.94664,167
2659.2773,168
3376.4177,169
2245.426,170
2333.8972,171
1130.2805,172
743.22375,173
488.15192,174
367.23685,175
172.02615,176
380.6173,177
1654.2231,178
1480.4371,179
406.77872,180
203.14966,181
216.31279,182
422.24216,183
648.59503,184
1122.1047,185
3035.4917,186
1934.2969,187
1458.3704,188
1172.0259,189
551.5281,190
205.60945,191
119.120026,192
105.26239,193
96.31913,194
111.18477,195
1232.9294,196
1508.0885,197
869.93726,198
194.63885,199
377.0203,200
311.19714,201
243.39136,202
205.27747,203
203.25133,204
2653.5479,205
3344.2507,206
2271.7058,207
2246.9885,208
1107.3131,209
716.38135,210
417.1154,211
265.19095,212
234.78156,213
680.1574,214
1918.2804,215
1227.2477,216
329.45273,217
208.19647,218
414.15576,219
263.13828,220
210.61552,221
178.58809,222
2047.9438,223
1798.8423,224
1288.8975,225
1182.4211,226
551.4713,227
183.25697,228
116.753,229
101.74185,230
95.46316,231
109.734,232
1336.6608,233
1643.2008,234
537.7534,235
183.87256,236
496.09143,237
288.09616,238
247.35358,239
193.66273,240
204.57477,241
2595.1555,242
3193.8262,243
2272.0193,244
2155.3018,245
1014.70953,246
736.10504,247
399.29813,248
281.3537,249
162.66919,250
742.8229,251
1873.8085,252
1210.9858,253
425.45667,254
191.2908,255
278.6784,256
350.14673,257
787.59875,258
690.13385,259
3090.4546,260
1758.5011,261
1138.5581,262
1201.7457,263
526.6455,264
169.95412,265
116.281815,266
98.277,267
94.517746,268
110.37008,269
1189.5581,270
1911.4766,271
423.39,272
172.7668,273
575.2503,274
255.50902,275
243.07573,276
185.33589,277
212.82898,278
2766.2969,279
2986.251,280
2377.4875,281
1995.1572,282
951.3269,283
663.4406,284
380.8055,285
208.90164,286
216.73503,287
1068.0896,288
1665.8466,289
1042.6378,290
295.22498,291
192.3407,292
324.59946,293
348.07318,294
866.0283,295
710.2972,296
1044.1677,297
270.46747,298
240.13217,299
184.2005,300
199.11086,301
168.37819,302
331.28384,303
305.7453,304
331.023,305
1019.5038,306
329.14813,307
204.66495,308
213.79199,309
174.87416,310
634.73694,311
254.32475,312
230.0369,313
190.35701,314
192.48921,315
175.559,316
310.1011,317
422.96957,318
380.58548,319
1125.8994,320
294.87082,321
235.9993,322
193.44968,323
196.55675,324
553.8144,325
276.00867,326
203.25255,327
208.15636,328
175.44919,329
233.37834,330
339.01132,331
433.45816,332
374.36942,333
984.73315,334
240.10446,335
235.489,336
176.4508,337
196.73653,338
164.05554,339
313.2377,340
313.43173,341
339.15472,342
1177.8059,343
313.28687,344
227.79599,345
204.79088,346
189.81978,347
608.0239,348
269.8425,349
217.4077,350
203.18033,351
183.5351,352
213.47289,353
314.56747,354
406.68042,355
376.80298,356
1062.2227,357
265.02673,358
238.82127,359
179.99483,360
202.76999,361
456.38007,362
272.29315,363
187.05898,364
207.01404,365
204.72012,366
313.77875,367
218.63676,368
195.3878,369
197.5365,370
2658.417,371
2397.641,372
1435.6726,373
927.5224,374
412.06766,375
141.71602,376
114.72148,377
98.67642,378
98.46649,379
405.7847,380
1591.9396,381
1351.669,382
209.80211,383
194.12067,384
517.58325,385
281.1973,386
206.36652,387
215.63696,388
879.4099,389
2900.7998,390
2367.744,391
3146.3384,392
1631.2239,393
730.50336,394
581.79694,395
329.7723,396
240.33037,397
173.76064,398
1338.2316,399
1618.7577,400
1253.5962,401
274.48358,402
177.95044,403
419.3546,404
425.84143,405
771.8821,406
826.4995,407
2687.4678,408
2492.9897,409
1571.961,410
772.0714,411
383.7252,412
131.53682,413
114.277405,414
98.04203,415
99.21121,416
614.19293,417
1819.5391,418
1168.2665,419
194.32904,420
192.41592,421
426.18704,422
277.0992,423
194.56714,424
210.43283,425
2121.598,426
2815.3193,427
2260.4336,428
3185.6526,429
1504.3456,430
773.4627,431
561.39795,432
291.3765,433
188.73315,434
165.94733,435
1317.0332,436
1585.3167,437
742.13385,438
241.00633,439
182.36095,440
471.10815,441
422.92688,442
734.6834,443
893.67847,444
2661.8372,445
2427.8274,446
1725.5354,447
677.5229,448
347.82947,449
129.10098,450
115.76374,451
98.33586,452
99.771805,453
887.2689,454
1942.457,455
1149.6609,456
193.72522,457
186.40047,458
351.5407,459
263.83334,460
212.38951,461
202.995,462
2519.2966,463
2783.656,464
2236.033,465
3258.7434,466
1375.75,467
756.7738,468
571.23065,469
294.0656,470
209.48837,471
156.70915,472
1245.3256,473
1866.959,474
713.0504,475
193.82559,476
187.421,477
480.80005,478
423.00974,479
733.0221,480
1082.2145,481
2554.0925,482
2372.3906,483
1621.7449,484
592.15753,485
317.72232,486
123.121445,487
114.26397,488
96.62421,489
102.83776,490
956.9437,491
1734.152,492
1072.628,493
208.67209,494
184.2776,495
336.32385,496
249.91257,497
223.64622,498
194.49638,499
2687.3237,500
2951.7156,501
2160.7917,502
3085.6016,503
1297.7738,504
738.40094,505
576.51794,506
282.91165,507
202.33327,508
152.53584,509
1282.6437,510
1967.5686,511
520.6454,512
192.56386,513
545.1065,514
245.53065,515
229.09201,516
203.3579,517
183.27147,518
2395.9277,519
2182.8953,520
1538.39,521
545.78925,522
284.47507,523
120.6058,524
112.32602,525
96.87347,526
104.57814,527
1351.7202,528
1624.1953,529
1100.8413,530
213.70291,531
173.14421,532
340.2287,533
231.06631,534
226.72131,535
186.24504,536
2699.4153,537
2931.209,538
2163.1711,539
2769.7375,540
1205.2235,541
756.41095,542
574.16284,543
347.56598,544
184.07104,545
190.85187,546
1323.0361,547
1924.7634,548
500.97537,549
196.89583,550
195.47299,551
429.00827,552
459.68097,553
838.3921,554
1734.1743,555
2234.3237,556
1928.2743,557
1313.0536,558
547.86914,559
251.86174,560
120.34979,561
109.639885,562
93.71942,563
107.43604,564
1231.4238,565
1498.1196,566
1174.8506,567
207.24983,568
181.21005,569
335.76535,570
215.32347,571
220.09697,572
182.08238,573
2703.2468,574
3153.7925,575
2076.3042,576
2562.1965,577
1159.0524,578
700.95416,579
504.4548,580
309.52075,581
221.65785,582
341.422,583
1496.9441,584
1522.9523,585
408.41864,586
206.6229,587
201.8556,588
402.28284,589
519.7718,590
961.20465,591
2873.6475,592
2065.008,593
1641.0928,594
1272.8058,595
545.47455,596
223.25638,597
118.4699,598
107.208755,599
93.90128,600
107.84362,601
1416.1825,602
1569.8068,603
937.6956,604
199.04887,605
291.91742,606
323.69766,607
235.167,608
213.07278,609
200.90273,610
2632.6758,611
3451.807,612
2193.1792,613
2367.9883,614
1165.8077,615
747.529,616
467.91965,617
357.48428,618
165.16333,619
429.27737,620
1728.4406,621
1410.9813,622
397.8307,623
198.84543,624
218.15773,625
375.2367,626
614.3609,627
941.79474,628
3110.7444,629
1895.3805,630
1375.5178,631
1183.1519,632
553.9755,633
197.73357,634
117.910576,635
104.00807,636
94.13416,637
110.31613,638
1228.1581,639
1583.7921,640
768.59436,641
191.10873,642
424.28503,643
302.85342,644
247.2048,645
201.81665,646
204.10059,647
2637.3152,648
3313.125,649
2247.3958,650
2235.8896,651
1086.2114,652
711.7155,653
408.3727,654
249.66293,655
231.90427,656
758.02344,657
1962.7136,658
1168.4087,659
311.26077,660
204.62573,661
379.36725,662
262.78635,663
206.83028,664
184.66714,665
2216.042,666
1957.5513,667
1692.8523,668
1835.5548,669
550.2667,670
149.9593,671
118.26838,672
99.856125,673
96.215805,674
134.16748,675
3425.5593,676
2760.61,677
1579.7654,678
940.84155,679
858.05585,680
378.60724,681
243.58508,682
194.85954,683
200.68845,684
2637.3066,685
3291.9988,686
2368.7654,687
2195.3425,688
979.74084,689
525.0067,690
248.33339,691
211.83342,692
161.90137,693
3282.402,694
2579.8455,695
2900.3916,696
2064.2397,697
923.54114,698
1322.9569,699
2158.995,700
1068.2,701
897.5707,702
3068.9402,703
1676.5151,704
1515.3788,705
1802.0594,706
557.39,707
145.20514,708
117.07488,709
98.49392,710
93.30084,711
296.45694,712
3014.485,713
2364.3867,714
1495.3324,715
1022.8508,716
962.8919,717
380.1335,718
228.57808,719
205.44429,720
204.86069,721
2726.4124,722
2847.7698,723
2471.3015,724
1980.6843,725
952.97064,726
477.15115,727
225.89815,728
171.94125,729
220.52676,730
3464.5408,731
3043.4985,732
2875.314,733
1639.6686,734
756.07837,735
1389.5801,736
2076.2256,737
1052.1611,738
967.95935,739
2962.7908,740
1687.3094,741
1430.4977,742
1395.2354,743
546.0405,744
142.13841,745
116.5437,746
97.590866,747
92.689835,748
893.4035,749
2819.8074,750
2173.8237,751
1575.2643,752
1220.2386,753
963.1464,754
383.52805,755
229.0407,756
207.67374,757
217.32683,758
2758.978,759
2783.0908,760
2712.449,761
1858.5881,762
822.18317,763
516.94,764
218.27559,765
233.0441,766
200.82864,767
3564.4517,768
3387.0933,769
2718.5884,770
1378.8252,771
699.0257,772
1459.0953,773
2049.7495,774
1060.7356,775
936.9442,776
2860.3696,777
1782.41,778
1308.7101,779
1149.0321,780
528.8624,781
137.81535,782
116.46164,783
98.02995,784
94.89901,785
1688.7467,786
2571.2864,787
2068.6694,788
1742.4731,789
1451.5441,790
936.80457,791
410.58557,792
228.50812,793
208.15883,794
422.59625,795
2868.8164,796
2494.296,797
2958.887,798
1779.2042,799
754.9712,800
483.94754,801
215.42944,802
163.9104,803
215.12955,804
3589.5654,805
3516.8274,806
2141.2961,807
1088.297,808
692.3688,809
442.49564,810
337.249,811
216.0009,812
200.6263,813
2651.9382,814
2104.1235,815
1358.8544,816
933.96204,817
511.2957,818
131.49905,819
114.92093,820
97.870476,821
96.553566,822
2437.4497,823
2459.061,824
2163.6826,825
1971.886,826
1544.7069,827
853.2361,828
477.21616,829
224.5479,830
206.72032,831
954.0841,832
2854.6904,833
2398.2485,834
3150.2515,835
1571.7225,836
752.9993,837
499.18658,838
224.85185,839
234.80885,840
223.05666,841
3619.5198,842
3392.7996,843
1873.3043,844
998.40643,845
744.0141,846
1792.8378,847
1723.7864,848
955.7815,849
1124.0521,850
2642.0227,851
2418.502,852
1405.5616,853
772.19006,854
455.63065,855
126.79507,856
114.99761,857
97.4284,858
97.27503,859
2955.909,860
2389.808,861
2411.549,862
2144.2822,863
1223.2872,864
710.833,865
458.50986,866
227.34818,867
199.88507,868
1917.8148,869
2797.8704,870
2229.9473,871
3309.699,872
1453.2125,873
756.8865,874
487.79117,875
223.76483,876
193.4643,877
209.52242,878
3469.8892,879
2803.2354,880
1608.3462,881
936.4434,882
832.8037,883
1998.4753,884
1402.491,885
895.6448,886
1239.2223,887
2536.706,888
2361.4834,889
1615.7169,890
640.22943,891
410.2585,892
121.60186,893
115.13264,894
96.61489,895
96.259796,896
3288.0261,897
2509.7505,898
2829.8884,899
2185.0393,900
976.8804,901
598.30023,902
404.88162,903
222.72906,904
191.46124,905
2494.7473,906
2810.973,907
2176.1328,908
3139.6147,909
1385.9442,910
760.6555,911
489.87997,912
237.82755,913
203.72644,914
249.03046,915
3104.0894,916
2433.9346,917
1515.6938,918
1016.7556,919
983.3767,920
2205.1318,921
1139.0065,922
924.66,923
1238.28,924
2509.5837,925
2074.1223,926
1682.3671,927
559.2598,928
337.4383,929
119.082375,930
111.546486,931
96.637924,932
99.59281,933
3320.5757,934
2953.6233,935
2912.48,936
1752.895,937
817.31384,938
515.03296,939
360.589,940
215.13828,941
181.92851,942
2733.0637,943
2936.1567,944
2151.0508,945
2968.7666,946
1234.4836,947
674.95306,948
434.6084,949
248.55182,950
208.07527,951
528.02057,952
2936.6633,953
2087.7039,954
1558.9985,955
1197.3872,956
975.103,957
361.85315,958
210.60144,959
174.74118,960
186.10617,961
2358.4648,962
1832.0083,963
1863.6722,964
535.50824,965
267.76556,966
117.877815,967
110.3697,968
95.095985,969
110.76302,970
3445.0027,971
3378.616,972
2878.3364,973
1406.4954,974
718.8325,975
465.44363,976
332.1215,977
206.02101,978
173.00441,979
2781.29,980
3043.3154,981
2123.0146,982
2657.9521,983
1206.254,984
648.20703,985
385.11475,986
244.57845,987
181.9436,988
1143.0842,989
2564.7136,990
2121.9758,991
1646.5103,992
1382.3265,993
1318.505,994
2070.2393,995
611.2112,996
959.78705,997
4317.1216,998
2419.735,999
1666.0643,1000
1709.849,1001
526.8085,1002
220.4153,1003
117.72768,1004
108.78582,1005
92.87581,1006
103.72024,1007
3408.3633,1008
3650.8447,1009
2307.8254,1010
1169.0574,1011
688.09564,1012
432.74396,1013
305.38776,1014
191.75505,1015
178.07227,1016
2815.8345,1017
3322.1667,1018
2137.2595,1019
2500.3896,1020
1164.978,1021
527.2792,1022
315.3187,1023
232.36365,1024
229.97897,1025
1885.1505,1026
2432.1528,1027
2103.5134,1028
1896.5054,1029
1579.4081,1030
1377.7979,1031
2041.8909,1032
663.2848,1033
970.022,1034
3055.1287,1035
2258.9233,1036
1640.5552,1037
1759.4648,1038
541.26086,1039
182.69707,1040
118.969154,1041
104.98942,1042
92.834656,1043
108.63142,1044
3626.7874,1045
3549.1135,1046
1928.7244,1047
1030.5812,1048
704.77856,1049
407.30847,1050
280.8081,1051
178.89603,1052
202.69522,1053
2676.8655,1054
3499.4485,1055
2255.8157,1056
2259.4421,1057
1091.5408,1058
545.108,1059
294.17746,1060
249.78122,1061
166.12639,1062
2576.5935,1063
2400.8574,1064
2472.2961,1065
2080.088,1066
1321.0774,1067
1312.1847,1068
2105.0005,1069
783.0613,1070
972.5616,1071
3168.863,1072
2100.842,1073
1684.827,1074
1773.4027,1075
550.3443,1076
159.22806,1077
118.63866,1078
101.29837,1079
93.49106,1080
107.15907,1081
3426.309,1082
2940.0295,1083
1637.5255,1084
972.1913,1085
795.0027,1086
389.8009,1087
256.56635,1088
181.78993,1089
208.98668,1090
2659.9814,1091
3217.57,1092
2342.4312,1093
2162.8335,1094
1043.6411,1095
473.66153,1096
255.06114,1097
189.05252,1098
234.18532,1099
3104.6968,1100
2478.192,1101
2473.654,1102
2212.0793,1103
1033.1058,1104
755.2926,1105
486.91656,1106
228.55972,1107
197.6333,1108
2639.6438,1109
1803.6434,1110
1677.3843,1111
1861.4031,1112
558.47125,1113
145.09378,1114
117.079704,1115
98.21615,1116
93.634384,1117
146.4925,1118
3296.4355,1119
2615.1582,1120
1504.8203,1121
980.35724,1122
891.6261,1123
377.7013,1124
239.30927,1125
201.5177,1126
197.0476,1127
2613.9387,1128
3039.6926,1129
2402.3044,1130
2034.6268,1131
947.39886,1132
501.59622,1133
243.42915,1134
212.28403,1135
166.54495,1136
3376.0508,1137
2791.577,1138
2968.2126,1139
1959.3314,1140
840.5457,1141
1336.4994,1142
2163.1128,1143
1033.8574,1144
1011.2485,1145
3029.1487,1146
1651.6572,1147
1478.133,1148
1708.2521,1149
557.57367,1150
143.29103,1151
116.15146,1152
96.465866,1153
92.193146,1154
464.7366,1155
2921.7183,1156
2254.7942,1157
1505.04,1158
1092.8003,1159
974.9378,1160
385.59158,1161
223.73705,1162
203.93414,1163
241.06664,1164
2813.6433,1165
2843.7275,1166
2618.6433,1167
1920.4429,1168
879.9139,1169
465.54916,1170
219.31367,1171
167.2389,1172
220.13959,1173
3464.504,1174
3105.2556,1175
2892.0693,1176
1515.5538,1177
722.6325,1178
1402.3625,1179
2117.7598,1180
1114.3876,1181
981.04407,1182
2946.1394,1183
1728.9818,1184
1399.1613,1185
1306.893,1186
792.7628,1187
620.0181,1188
911.0309,1189
1133.055,1190
1768.8627,1191
2538.1023,1192
2776.1377,1193
2517.5557,1194
2382.1055,1195
3553.4695,1196
3817.196,1197
2791.6572,1198
4410.73,1199
4098.5615,1200
3985.376,1201
3323.8982,1202
3402.7744,1203
3830.3787,1204
3678.917,1205
3066.7354,1206
2569.0781,1207
3008.9636,1208
3613.1384,1209
5077.378,1210
4316.946,1211
5193.6235,1212
5121.8496,1213
4614.4424,1214
6210.836,1215
6562.4385,1216
6799.4087,1217
6709.895,1218
6551.5923,1219
4002.707,1220
4680.035,1221
4040.0933,1222
4074.741,1223
3602.087,1224
3352.7395,1225
4031.408,1226
4092.5193,1227
4191.048,1228
3848.1763,1229
3278.342,1230
2986.1743,1231
3446.1086,1232
4049.6797,1233
3634.6511,1234
4674.8135,1235
4634.281,1236
4415.1025,1237
5552.199,1238
3466.7124,1239
3073.3857,1240
4211.0073,1241
3265.3271,1242
1921.9867,1243
1814.192,1244
1901.5327,1245
2110.1328,1246
2235.6846,1247
3593.1753,1248
4645.765,1249
4464.6064,1250
4060.3718,1251
5417.2324,1252
4392.187,1253
3902.371,1254
3861.7876,1255
3247.9358,1256
3445.2146,1257
4573.4414,1258
4542.0176,1259
4805.031,1260
4985.0625,1261
4844.2476,1262
4949.7007,1263
5252.777,1264
5452.713,1265
5411.215,1266
5203.4546,1267
4935.4336,1268
5300.947,1269
4583.758,1270
4555.12,1271
3985.0806,1272
4314.3286,1273
4177.3755,1274
5135.802,1275
3629.1155,1276
3315.7522,1277
4541.606,1278
3203.7974,1279
2902.9314,1280
3052.3682,1281
2610.1177,1282
2750.0781,1283
2326.8745,1284
4845.7896,1285
4600.034,1286
4575.806,1287
3145.1753,1288
3933.6938,1289
5116.8633,1290
4329.9336,1291
3848.7976,1292
4547.5693,1293
2690.4978,1294
2793.7498,1295
1871.9309,1296
1169.661,1297
978.3265,1298
970.5815,1299
1223.945,1300
1071.9352,1301
1195.0858,1302
5013.3755,1303
5194.527,1304
4502.663,1305
3944.912,1306
2898.9592,1307
2539.9736,1308
1681.5328,1309
1884.5852,1310
1301.472,1311
2561.0488,1312
2854.2905,1313
2273.392,1314
3305.015,1315
1456.4934,1316
828.46045,1317
1088.1392,1318
659.83215,1319
518.623,1320
428.9277,1321
4796.699,1322
4722.531,1323
4241.0444,1324
3097.8633,1325
3179.9978,1326
5018.6978,1327
3960.7593,1328
3468.3782,1329
4288.8325,1330
2664.1619,1331
2662.5017,1332
1950.9102,1333
744.6022,1334
659.91455,1335
707.3728,1336
878.1615,1337
692.9775,1338
619.7339,1339
5248.8276,1340
5075.362,1341
4449.6206,1342
3863.4446,1343
2864.992,1344
2184.948,1345
1732.2692,1346
1758.0376,1347
1434.0631,1348
2683.0955,1349
2962.7922,1350
2128.4001,1351
3158.3672,1352
1354.3092,1353
863.5938,1354
1227.9822,1355
756.47955,1356
530.9503,1357
978.62103,1358
4658.9473,1359
5158.8267,1360
3902.7825,1361
3373.6257,1362
3167.226,1363
4841.6978,1364
3978.1707,1365
4200.797,1366
4372.2134,1367
2585.2122,1368
2539.1997,1369
1754.7479,1370
703.18787,1371
647.4451,1372
794.6398,1373
855.59326,1374
640.73865,1375
615.08374,1376
5249.3574,1377
4990.245,1378
4431.4624,1379
3456.698,1380
3139.0662,1381
1962.4321,1382
1849.0638,1383
1547.4432,1384
1555.0371,1385
2741.1506,1386
3166.3545,1387
2058.0857,1388
2868.2454,1389
1308.1425,1390
884.44183,1391
1188.1201,1392
712.73315,1393
476.938,1394
2093.2085,1395
4552.8,1396
5197.3364,1397
3705.278,1398
3518.9954,1399
3075.7793,1400
2551.3245,1401
1653.6201,1402
1368.9371,1403
1864.6403,1404
2440.6152,1405
2371.4377,1406
1584.8411,1407
717.9135,1408
696.19244,1409
919.6691,1410
963.09985,1411
637.4095,1412
686.5923,1413
5227.495,1414
4699.582,1415
4469.2295,1416
3129.9563,1417
3176.6052,1418
1866.4576,1419
2134.9307,1420
1486.3387,1421
1819.3052,1422
2768.1775,1423
3390.3086,1424
2090.669,1425
2656.898,1426
1313.5402,1427
1824.3412,1428
1765.1521,1429
1142.1708,1430
627.433,1431
3180.5503,1432
4618.244,1433
4982.6157,1434
3639.632,1435
3078.2683,1436
3231.3745,1437
4012.1445,1438
3214.1648,1439
3507.2852,1440
3240.5552,1441
2276.051,1442
1956.4219,1443
1458.1934,1444
748.4419,1445
722.5382,1446
988.81323,1447
875.25964,1448
713.725,1449
709.2647,1450
5189.816,1451
4785.325,1452
4608.0107,1453
2850.3254,1454
3236.2886,1455
1906.6692,1456
2137.608,1457
1524.564,1458
1820.1278,1459
2755.3508,1460
3478.183,1461
2150.8896,1462
2555.4412,1463
1293.4286,1464
999.4131,1465
1077.1653,1466
720.59607,1467
533.4948,1468
3926.2622,1469
4833.535,1470
4924.9683,1471
3721.1746,1472
2851.4622,1473
3648.0894,1474
3789.2874,1475
3681.7905,1476
3776.5964,1477
3097.3403,1478
2255.2822,1479
1865.9182,1480
1563.8575,1481
836.69324,1482
833.62445,1483
1240.5929,1484
1191.2617,1485
855.2552,1486
890.88385,1487
4882.138,1488
4465.4546,1489
4460.493,1490
2844.7478,1491
3100.9832,1492
2026.4469,1493
1953.6302,1494
1598.0487,1495
1671.6421,1496
2653.9602,1497
3327.736,1498
2288.7554,1499
2290.1934,1500
1191.0477,1501
2028.4777,1502
1845.209,1503
1217.2415,1504
791.39923,1505
4410.5513,1506
4982.0186,1507
4563.0747,1508
3733.745,1509
2863.0034,1510
3546.9995,1511
3463.1511,1512
2914.8582,1513
3254.3787,1514
3154.2942,1515
2045.5419,1516
1404.9354,1517
1403.3638,1518
798.6413,1519
733.69916,1520
1314.3597,1521
1139.3922,1522
831.6982,1523
864.02454,1524
4734.375,1525
4563.5073,1526
4077.104,1527
2969.2175,1528
3021.137,1529
2224.4058,1530
1821.2063,1531
1582.3652,1532
1419.0369,1533
2676.5796,1534
3353.7827,1535
2401.1042,1536
2090.2632,1537
1442.9937,1538
4958.598,1539
4368.169,1540
3072.846,1541
2419.4788,1542
2973.523,1543
3832.6846,1544
2725.9734,1545
2132.7815,1546
1347.1603,1547
3916.0693,1548
3043.7036,1549
2483.7397,1550
2154.8076,1551
2564.0698,1552
2081.0625,1553
1522.2292,1554
1471.5532,1555
736.75055,1556
804.51373,1557
1357.4716,1558
1205.5364,1559
991.21295,1560
1130.8934,1561
4603.0093,1562
4941.2065,1563
3749.7627,1564
3175.3025,1565
2610.8972,1566
2269.0947,1567
1845.1777,1568
1691.3347,1569
1296.0013,1570
2794.8672,1571
2962.1484,1572
2337.1633,1573
2001.5746,1574
1082.0156,1575
2080.68,1576
1973.7655,1577
959.4604,1578
914.3366,1579
4810.4463,1580
4775.7617,1581
4416.5063,1582
3545.0996,1583
3113.611,1584
3702.356,1585
3475.3606,1586
3132.8035,1587
3046.0488,1588
2960.2693,1589
2502.4092,1590
1465.3237,1591
1493.556,1592
820.2957,1593
960.4094,1594
1615.572,1595
1223.1411,1596
1057.8135,1597
2050.462,1598
4460.034,1599
4803.7397,1600
3461.6067,1601
3202.55,1602
2548.6868,1603
2375.8286,1604
1642.1587,1605
1992.5978,1606
1372.3615,1607
2884.1248,1608
2899.391,1609
2594.4146,1610
1899.197,1611
1014.88947,1612
1680.4928,1613
1939.3275,1614
998.05853,1615
985.51495,1616
4816.6436,1617
4747.5923,1618
4166.172,1619
3078.3438,1620
3071.8748,1621
3726.1665,1622
3136.7764,1623
2894.5742,1624
3124.3718,1625
2938.6233,1626
2761.6074,1627
1595.3291,1628
1374.7681,1629
811.78705,1630
1190.0427,1631
1910.4817,1632
1245.8702,1633
1222.1415,1634
3274.4946,1635
4431.811,1636
4700.811,1637
3186.8613,1638
2863.0645,1639
2325.1396,1640
2084.95,1641
1614.89,1642
1512.9088,1643
1293.9417,1644
2893.465,1645
2567.6868,1646
2452.8955,1647
1694.6385,1648
976.01746,1649
1624.6483,1650
1485.0304,1651
879.4062,1652
663.2555,1653
4815.933,1654
4493.918,1655
4230.593,1656
2909.4602,1657
3187.4539,1658
3922.209,1659
3044.5234,1660
2912.5098,1661
2990.025,1662
2761.06,1663
2712.3518,1664
1435.9963,1665
1163.2717,1666
756.2424,1667
1062.2054,1668
1735.0917,1669
1187.1105,1670
1105.4955,1671
4190.575,1672
4659.421,1673
4607.501,1674
3549.585,1675
3023.7468,1676
2989.932,1677
1914.7676,1678
1776.7974,1679
1535.3959,1680
1679.7537,1681
2936.7659,1682
2378.9666,1683
2844.5884,1684
1678.1764,1685
876.27966,1686
1939.4879,1687
1623.6412,1688
967.8472,1689
717.07916,1690
4829.196,1691
4499.811,1692
4283.578,1693
3168.5552,1694
3202.7476,1695
1870.0963,1696
1936.5835,1697
1833.1106,1698
1381.7139,1699
2641.6018,1700
2657.548,1701
1649.0935,1702
994.3077,1703
825.05383,1704
958.26117,1705
1699.9763,1706
1041.2714,1707
1145.0559,1708
4772.762,1709
4838.0273,1710
4323.269,1711
3620.255,1712
2692.0598,1713
2600.9973,1714
1803.3892,1715
1978.9816,1716
1587.357,1717
2194.0188,1718
2768.3484,1719
2204.4087,1720
2897.5242,1721
1526.2858,1722
1416.3818,1723
2209.398,1724
1414.7557,1725
1094.349,1726
752.72784,1727
4575.8813,1728
4473.582,1729
3986.7332,1730
2775.6335,1731
2804.2478,1732
3214.9167,1733
2520.2073,1734
2875.248,1735
2952.1626,1736
2671.3281,1737
2826.8682,1738
1809.3752,1739
925.07416,1740
806.1454,1741
1035.8365,1742
1456.3221,1743
1130.0277,1744
992.88873,1745
4987.169,1746
5073.973,1747
4082.0095,1748
3466.7454,1749
2736.8545,1750
2386.955,1751
1955.1222,1752
2372.395,1753
1710.0425,1754
2488.08,1755
2798.994,1756
2203.8564,1757
2911.8877,1758
1472.5338,1759
1142.6108,1760
2028.2598,1761
1384.0588,1762
1165.4078,1763
924.4599,1764
4549.043,1765
4795.552,1766
4017.3662,1767
3029.8352,1768
2973.261,1769
2954.7866,1770
2568.1282,1771
2298.932,1772
2849.7952,1773
2673.4324,1774
2727.126,1775
1840.975,1776
824.9606,1777
777.30273,1778
1268.9235,1779
1475.5435,1780
1332.7838,1781
1135.5663,1782
4803.9683,1783
4652.917,1784
4000.9868,1785
3248.392,1786
2647.372,1787
2175.7122,1788
1777.721,1789
1613.0947,1790
1510.1064,1791
2637.9194,1792
2925.225,1793
2071.7046,1794
2739.1309,1795
1270.1531,1796
1793.2434,1797
2374.9526,1798
1434.7039,1799
960.41656,1800
1321.8224,1801
4301.635,1802
4925.8877,1803
3618.9846,1804
3275.2134,1805
2686.0151,1806
3275.0325,1807
2614.2664,1808
2829.2505,1809
2626.2927,1810
2520.6511,1811
2491.5571,1812
1557.5576,1813
825.28125,1814
826.50806,1815
1409.5791,1816
1254.6469,1817
1020.9563,1818
952.50757,1819
5008.2925,1820
4437.145,1821
4138.513,1822
3029.7524,1823
2875.807,1824
2072.0408,1825
1953.963,1826
1605.4504,1827
1763.6097,1828
2718.933,1829
3092.8127,1830
1961.7839,1831
2503.2534,1832
1292.4352,1833
4785.5874,1834
4685.3105,1835
3546.997,1836
2365.6326,1837
2326.6414,1838
3170.6484,1839
3963.4536,1840
2434.454,1841
1927.126,1842
3962.3115,1843
3687.337,1844
2794.417,1845
2114.0024,1846
2245.584,1847
2554.2664,1848
2118.047,1849
2090.2556,1850
767.1376,1851
732.69727,1852
1381.7233,1853
1260.8499,1854
846.9049,1855
825.9744,1856
5249.2144,1857
5288.217,1858
4008.7327,1859
3059.459,1860
2899.4133,1861
2154.2793,1862
1791.8289,1863
1373.7029,1864
1680.5708,1865
2823.8293,1866
3082.9592,1867
2157.8005,1868
2252.8682,1869
1407.8168,1870
1542.4614,1871
1769.5135,1872
1085.8356,1873
938.54346,1874
3635.3281,1875
4435.633,1876
4451.2817,1877
3531.967,1878
3667.8848,1879
3527.6895,1880
2948.8833,1881
2429.195,1882
2541.3184,1883
2697.7031,1884
2493.473,1885
1832.4758,1886
1845.4304,1887
857.4607,1888
878.0606,1889
1681.2457,1890
1336.608,1891
1216.0602,1892
1327.2638,1893
5210.276,1894
4899.977,1895
3801.8948,1896
2742.447,1897
2879.3562,1898
2243.9119,1899
1782.4486,1900
1549.2618,1901
1906.2744,1902
2699.4497,1903
3213.03,1904
2158.9446,1905
2095.752,1906
1293.3711,1907
1128.0187,1908
1494.6908,1909
828.56586,1910
906.0133,1911
4254.6123,1912
4439.636,1913
4340.067,1914
3833.1226,1915
3495.7598,1916
3069.21,1917
2506.7644,1918
2344.154,1919
2674.936,1920
2746.643,1921
2454.036,1922
1781.0825,1923
1689.1818,1924
796.3407,1925
727.7058,1926
1765.2535,1927
1241.5925,1928
894.77686,1929
908.73785,1930
5320.0894,1931
4739.888,1932
3515.7725,1933
2884.1326,1934
3138.3035,1935
1922.3163,1936
1671.4288,1937
1754.4952,1938
1894.8485,1939
2670.3477,1940
3236.716,1941
2306.489,1942
2188.8215,1943
1180.8235,1944
948.3442,1945
1278.6294,1946
752.6732,1947
748.6982,1948
4896.7427,1949
4598.052,1950
4618.0195,1951
4303.5474,1952
3533.1216,1953
3293.8425,1954
2631.3835,1955
2496.8606,1956
2509.6094,1957
2860.3367,1958
2098.739,1959
1905.8221,1960
1883.9594,1961
971.04395,1962
761.56116,1963
1732.0557,1964
1186.5778,1965
882.32947,1966
845.8906,1967
5043.5586,1968
4390.805,1969
3389.2441,1970
3063.8794,1971
3369.8496,1972
1884.8953,1973
1751.5784,1974
1856.5614,1975
1676.8499,1976
2693.296,1977
2731.7854,1978
2325.355,1979
2003.7975,1980
1136.9213,1981
1083.4702,1982
1151.2181,1983
716.6434,1984
783.94073,1985
5048.2144,1986
4845.591,1987
4666.4946,1988
3681.4946,1989
3267.7983,1990
2925.1772,1991
2232.828,1992
2006.4674,1993
1963.6372,1994
2666.623,1995
1918.425,1996
1877.0642,1997
1778.5337,1998
877.6563,1999
762.7103,2000
1843.126,2001
1272.7661,2002
943.9735,2003
1364.1663,2004
4830.043,2005
4240.665,2006
3059.6475,2007
2845.9004,2008
3186.3225,2009
1896.4172,2010
1768.3381,2011
1842.6074,2012
1328.3313,2013
2764.1946,2014
2554.592,2015
2444.9214,2016
1863.6499,2017
1024.7238,2018
1307.1306,2019
1222.1561,2020
800.0378,2021
1017.444,2022
5086.4795,2023
4642.6587,2024
4287.44,2025
3332.391,2026
2905.9766,2027
3104.2603,2028
2825.1572,2029
2422.8845,2030
2431.3955,2031
2910.2756,2032
1978.0562,2033
1566.5035,2034
1545.2006,2035
868.5966,2036
1177.3906,2037
1953.7549,2038
1700.984,2039
1208.914,2040
2431.936,2041
4703.854,2042
3862.4487,2043
3113.1772,2044
3035.5508,2045
3308.1665,2046
2049.9622,2047
1990.3145,2048
1710.3319,2049
1292.9028,2050
3015.5864,2051
2467.6187,2052
2475.0767,2053
1701.8542,2054
902.9618,2055
1150.4414,2056
901.32025,2057
684.43164,2058
774.3591,2059
4958.1997,2060
4741.591,2061
4359.8774,2062
3216.0684,2063
2927.514,2064
3320.674,2065
2864.3335,2066
2455.5662,2067
2406.1182,2068
2904.922,2069
2342.4858,2070
1368.4348,2071
1468.9365,2072
834.0441,2073
768.98755,2074
1588.4293,2075
1082.2904,2076
929.79175,2077
3647.1658,2078
4266.827,2079
4042.0286,2080
3469.4028,2081
3326.4534,2082
3582.554,2083
2413.5686,2084
2428.729,2085
1722.9329,2086
1260.0391,2087
2890.7715,2088
2339.2273,2089
2401.6746,2090
1583.2668,2091
1157.3228,2092
1695.0304,2093
1341.5525,2094
951.11084,2095
930.6196,2096
5079.4805,2097
5033.446,2098
4260.893,2099
3118.5925,2100
2800.0464,2101
3332.898,2102
2488.8257,2103
2312.3267,2104
2683.4705,2105
2803.9434,2106
2127.4194,2107
1388.7041,2108
1002.9665,2109
918.6849,2110
935.8887,2111
1721.4531,2112
1270.5471,2113
969.0481,2114
4480.2637,2115
4339.8647,2116
4142.806,2117
3807.273,2118
3696.1765,2119
3244.253,2120
2138.7732,2121
1645.5969,2122
1382.3481,2123
1395.4467,2124
2904.922,2125
2336.223,2126
3047.062,2127
1559.0383,2128
4108.4023,2129
4323.756,2130
3582.0059,2131
2896.7495,2132
2640.915,2133
3632.0183,2134
3650.0037,2135
2238.0178,2136
1321.443,2137
2268.1367,2138
3633.6653,2139
2776.372,2140
2352.2952,2141
1654.319,2142
2632.8486,2143
2597.9463,2144
1507.9701,2145
944.89404,2146
937.1494,2147
1025.931,2148
1436.5493,2149
938.0064,2150
884.91064,2151
4699.6143,2152
4425.288,2153
4374.1626,2154
3721.1003,2155
3130.2812,2156
3084.2666,2157
2818.641,2158
1877.1473,2159
1447.8424,2160
1986.7625,2161
2806.5103,2162
2373.4185,2163
2976.562,2164
1469.0723,2165
1527.6652,2166
2074.543,2167
1463.1078,2168
1227.4023,2169
1074.0356,2170
5253.9814,2171
4598.737,2172
3407.2913,2173
2912.0874,2174
3126.5183,2175
2944.6338,2176
2421.8193,2177
2700.2556,2178
2543.1135,2179
2588.7478,2180
2539.123,2181
1651.8282,2182
830.75214,2183
858.1455,2184
1032.6925,2185
1595.4998,2186
1080.9308,2187
1031.7069,2188
5028.65,2189
4585.0146,2190
4587.937,2191
3839.0242,2192
3208.8535,2193
3069.9392,2194
2367.4749,2195
1683.3167,2196
1297.9989,2197
2415.868,2198
2742.123,2199
2377.8318,2200
2612.9197,2201
1277.905,2202
997.3761,2203
1939.3191,2204
1001.97656,2205
735.2842,2206
977.5875,2207
5021.9263,2208
4409.74,2209
3502.7788,2210
3159.3933,2211
3251.9465,2212
2964.7522,2213
2353.34,2214
2338.317,2215
2189.8938,2216
2548.5674,2217
2184.7952,2218
1997.3297,2219
766.7879,2220
768.39777,2221
1198.4581,2222
1461.5908,2223
942.9156,2224
1020.36487,2225
5226.7017,2226
4873.1196,2227
4783.5435,2228
3531.7607,2229
3115.4895,2230
2632.597,2231
1921.0192,2232
1382.7445,2233
1346.4392,2234
2713.5696,2235
2807.1086,2236
2286.8828,2237
2398.9648,2238
1266.3452,2239
1039.5935,2240
1704.8224,2241
1011.57635,2242
733.6769,2243
1851.0875,2244
4778.0957,2245
4341.1187,2246
3456.701,2247
3627.1023,2248
3837.81,2249
2760.0686,2250
2412.4172,2251
2392.6714,2252
2383.7517,2253
2494.882,2254
1978.7219,2255
1914.0486,2256
704.7185,2257
755.8905,2258
1272.308,2259
1318.5797,2260
811.6423,2261
875.69366,2262
5206.1313,2263
5254.4844,2264
4339.1875,2265
3200.0232,2266
2924.0105,2267
2388.1252,2268
1850.0302,2269
1515.4597,2270
1534.8938,2271
2743.4392,2272
3074.1975,2273
2192.068,2274
2289.0754,2275
1238.5494,2276
1058.4623,2277
1567.6707,2278
858.42487,2279
692.28766,2280
2941.177,2281
4406.49,2282
4055.926,2283
3347.2969,2284
3433.4854,2285
3325.7554,2286
1763.7323,2287
1859.4061,2288
1982.458,2289
1924.8203,2290
2424.055,2291
1890.25,2292
2034.3098,2293
761.897,2294
698.12225,2295
1505.795,2296
1320.8344,2297
1044.0345,2298
1062.4047,2299
5338.4087,2300
5259.089,2301
3897.4282,2302
2728.7915,2303
2633.661,2304
2197.0862,2305
1678.7711,2306
1468.4967,2307
1711.1593,2308
2715.6428,2309
3176.6082,2310
2031.0813,2311
2152.8933,2312
1281.0084,2313
1582.761,2314
1743.0758,2315
1096.0964,2316
911.90466,2317
3785.599,2318
4297.5347,2319
4025.6543,2320
3504.4595,2321
3541.8784,2322
3139.016,2323
2556.6245,2324
2173.8857,2325
2311.777,2326
2292.5117,2327
2436.3218,2328
1766.6409,2329
1704.3551,2330
742.6119,2331
674.1028,2332
1563.4855,2333
1075.2604,2334
763.36707,2335
877.1429,2336
5288.3086,2337
4792.806,2338
3635.2954,2339
2564.5264,2340
2816.1992,2341
1935.5836,2342
1652.6194,2343
1769.4633,2344
1762.1178,2345
2668.4475,2346
3254.703,2347
1982.3506,2348
2213.4436,2349
1146.4988,2350
1071.4156,2351
1115.8951,2352
775.54565,2353
622.0541,2354
4308.273,2355
4234.311,2356
4197.7485,2357
3479.6008,2358
3143.6865,2359
3172.8306,2360
2886.2117,2361
2147.9304,2362
2387.7256,2363
2855.4094,2364
2182.914,2365
2011.9537,2366
1449.3306,2367
804.057,2368
990.6986,2369
1553.9241,2370
1385.6919,2371
1569.6831,2372
1950.939,2373
5336.323,2374
4999.0117,2375
3894.2888,2376
3370.4543,2377
3729.5942,2378
2384.3447,2379
2546.1306,2380
3236.2983,2381
4179.256,2382
2770.8723,2383
3588.6785,2384
2751.087,2385
3130.2651,2386
3009.3767,2387
3014.3518,2388
3002.0786,2389
3015.4053,2390
4084.2837,2391
4706.381,2392
4579.2466,2393
5350.8296,2394
5156.5327,2395
6039.3994,2396
5370.258,2397
5783.297,2398
5486.299,2399
5466.347,2400
5061.062,2401
4332.557,2402
4524.444,2403
4933.9214,2404
3297.6436,2405
3066.2954,2406
3556.1223,2407
3473.9219,2408
3628.0078,2409
3842.238,2410
4937.649,2411
4521.1836,2412
3478.8772,2413
3317.5872,2414
3550.6003,2415
4074.0034,2416
4596.148,2417
4693.59,2418
4994.3604,2419
3099.3325,2420
3613.1338,2421
3195.1147,2422
3119.3882,2423
2202.7056,2424
4067.8801,2425
3286.3274,2426
2584.851,2427
2865.267,2428
3516.5234,2429
4307.5093,2430
4244.698,2431
4301.0986,2432
4942.003,2433
4336.04,2434
4187.6206,2435
4000.6182,2436
3870.9053,2437
3788.9243,2438
4004.3584,2439
4135.1147,2440
5231.9355,2441
4729.2437,2442
4310.312,2443
4264.781,2444
4816.789,2445
4778.651,2446
5183.737,2447
4728.2485,2448
5157.677,2449
4439.9644,2450
4181.4663,2451
4116.2134,2452
4426.242,2453
3403.505,2454
4246.053,2455
4151.8984,2456
4205.505,2457
4235.964,2458
4181.814,2459
3767.058,2460
3493.9507,2461
3331.1218,2462
3319.3477,2463
2754.596,2464
2712.8176,2465
5001.714,2466
4762.772,2467
4218.956,2468
3420.1462,2469
3254.0022,2470
3590.2815,2471
3609.8115,2472
3365.4407,2473
3330.143,2474
3648.4966,2475
3608.0276,2476
3303.6755,2477
3513.3538,2478
2580.2659,2479
2515.7944,2480
2505.5876,2481
2158.9502,2482
2224.8882,2483
3113.2195,2484
4429.5586,2485
4968.929,2486
3437.0432,2487
3069.031,2488
2688.8665,2489
2196.835,2490
1778.1884,2491
1810.3167,2492
1744.2188,2493
4395.3794,2494
3489.8555,2495
3775.7864,2496
3380.0303,2497
2702.5095,2498
2606.4146,2499
2681.4133,2500
1929.5928,2501
1825.2861,2502
4869.8794,2503
4729.4478,2504
4419.82,2505
3085.5837,2506
3005.171,2507
3302.6052,2508
2915.1646,2509
2924.8088,2510
2639.5732,2511
3454.1365,2512
3926.8599,2513
3340.2314,2514
3206.6763,2515
2673.6494,2516
2347.1294,2517
2407.6855,2518
2189.7793,2519
2319.9153,2520
4042.9712,2521
4776.2285,2522
4805.335,2523
3636.2273,2524
3284.0718,2525
2834.8877,2526
2003.7848,2527
1889.5521,2528
1746.0746,2529
1521.0983,2530
4256.501,2531
3686.573,2532
4227.6255,2533
3367.4407,2534
2517.911,2535
2651.4424,2536
2271.8223,2537
2001.2932,2538
1577.3628,2539
4741.8135,2540
4499.609,2541
4298.585,2542
3124.7124,2543
2982.2393,2544
3574.0212,2545
2788.4314,2546
3055.5007,2547
3100.4727,2548
3702.8289,2549
3906.514,2550
3359.451,2551
2835.0776,2552
2756.6882,2553
2124.2483,2554
2273.5085,2555
2030.6084,2556
2329.5793,2557
4488.5176,2558
4924.853,2559
4513.6016,2560
3537.8696,2561
3017.06,2562
3003.4822,2563
1972.714,2564
2077.2,2565
1779.0482,2566
2094.7668,2567
4390.5493,2568
3413.0347,2569
4304.983,2570
2940.658,2571
2638.6519,2572
2675.5032,2573
2355.0989,2574
2058.5815,2575
1564.0638,2576
4634.6514,2577
4420.3516,2578
3898.1602,2579
2922.7954,2580
2861.462,2581
2106.2283,2582
2226.8809,2583
2011.0468,2584
1739.4384,2585
3706.3264,2586
3699.8823,2587
3394.1929,2588
2658.6948,2589
2672.9893,2590
2260.9148,2591
2549.7083,2592
2173.4229,2593
2362.5354,2594
4625.2793,2595
4851.427,2596
4321.109,2597
3321.4966,2598
2874.3755,2599
2598.638,2600
1784.961,2601
1916.2875,2602
1741.3525,2603
2862.2458,2604
4166.2524,2605
3425.228,2606
4387.7827,2607
2632.98,2608
2433.1504,2609
2748.5583,2610
2199.5386,2611
1856.9287,2612
1613.6068,2613
4628.8364,2614
4413.5835,2615
3652.658,2616
2715.7778,2617
2859.5718,2618
3401.949,2619
2929.4307,2620
2692.2654,2621
2953.6753,2622
3777.8193,2623
3842.8643,2624
3486.0557,2625
2371.3013,2626
2713.1697,2627
2180.3423,2628
2288.369,2629
1927.2576,2630
2188.018,2631
4953.8447,2632
4948.166,2633
4511.97,2634
3660.7905,2635
2816.6943,2636
2661.4783,2637
1971.3213,2638
2010.9518,2639
1593.6427,2640
3269.395,2641
4246.1323,2642
3401.3325,2643
4667.2607,2644
2870.987,2645
2607.0464,2646
2529.2898,2647
2001.202,2648
1795.713,2649
1902.3607,2650
4814.8755,2651
4796.4033,2652
3822.0806,2653
2930.097,2654
2850.5444,2655
3396.493,2656
2787.8835,2657
2807.2234,2658
2813.8184,2659
4005.555,2660
3984.3386,2661
3490.1885,2662
2518.435,2663
2791.1238,2664
2169.8416,2665
2140.0715,2666
2071.0344,2667
2254.92,2668
5131.5337,2669
4800.766,2670
4218.783,2671
3127.962,2672
2969.454,2673
2140.4204,2674
2123.0496,2675
1951.2261,2676
1811.3425,2677
3422.361,2678
3966.1519,2679
3171.3696,2680
3958.0625,2681
2633.1675,2682
2690.1243,2683
2821.566,2684
2146.0137,2685
1634.1503,2686
2419.8628,2687
4262.748,2688
4621.16,2689
3321.9626,2690
2888.3835,2691
2630.1099,2692
3096.8213,2693
3084.203,2694
2985.2388,2695
3422.2563,2696
3797.7075,2697
3651.752,2698
3336.264,2699
2441.136,2700
2743.3354,2701
2213.681,2702
2277.9402,2703
2075.7456,2704
2413.3684,2705
4976.8906,2706
4780.903,2707
4209.665,2708
3342.9685,2709
3143.8772,2710
2299.713,2711
1978.4125,2712
1695.3342,2713
1942.4296,2714
3405.761,2715
4685.42,2716
3239.4734,2717
3718.0474,2718
2881.009,2719
4579.392,2720
4655.9155,2721
3402.104,2722
2333.6533,2723
2497.766,2724
3268.9304,2725
3428.6785,2726
2246.8074,2727
1808.8364,2728
3589.4856,2729
3410.3928,2730
2444.6091,2731
1968.856,2732
2212.7048,2733
3259.2485,2734
3533.509,2735
3128.6826,2736
2520.0156,2737
2618.4973,2738
2410.3135,2739
2306.889,2740
2247.4463,2741
2391.765,2742
4795.6885,2743
4550.102,2744
4404.963,2745
2764.883,2746
3102.581,2747
2038.607,2748
2380.16,2749
1810.1387,2750
1884.9141,2751
3340.1848,2752
4360.636,2753
3378.0544,2754
3597.5781,2755
2963.2766,2756
2580.7852,2757
2645.8147,2758
2263.8047,2759
1642.0427,2760
3920.1243,2761
4699.5913,2762
4593.891,2763
3716.2783,2764
2950.1418,2765
3032.6423,2766
2911.77,2767
2635.3938,2768
2862.11,2769
2883.3743,2770
3387.5747,2771
3157.9597,2772
3371.318,2773
2551.355,2774
2499.3943,2775
2465.3706,2776
2278.992,2777
2249.919,2778
2306.4065,2779
4621.952,2780
4548.476,2781
4083.888,2782
2867.7632,2783
2739.0466,2784
2059.741,2785
2085.8406,2786
1765.3065,2787
1812.9027,2788
3607.9512,2789
4370.068,2790
3333.4575,2791
3581.143,2792
2841.4734,2793
2554.1453,2794
2529.1326,2795
2047.0468,2796
1922.549,2797
4319.204,2798
5130.2373,2799
4399.977,2800
3689.0664,2801
2673.8774,2802
3372.1895,2803
2976.7012,2804
2857.1433,2805
2724.5513,2806
3218.579,2807
3276.213,2808
3039.685,2809
3125.9731,2810
2629.671,2811
2690.2122,2812
2208.5713,2813
2299.158,2814
2092.2793,2815
2088.5076,2816
4521.2314,2817
4634.104,2818
3905.8845,2819
3065.7107,2820
2812.1543,2821
2160.3179,2822
2043.6312,2823
1976.3055,2824
1777.7744,2825
3804.8076,2826
4011.681,2827
3257.2654,2828
3372.0176,2829
2739.86,2830
2721.7993,2831
2644.243,2832
2120.6272,2833
1940.7267,2834
4503.932,2835
4681.2427,2836
4073.12,2837
3540.0693,2838
2760.644,2839
3608.2354,2840
2911.178,2841
2661.02,2842
3098.24,2843
3375.873,2844
3645.8853,2845
2956.8103,2846
3574.7175,2847
2744.9272,2848
2290.1199,2849
2383.4282,2850
2244.8325,2851
2229.1694,2852
2229.4963,2853
4515.575,2854
4824.9165,2855
3548.6443,2856
3223.8687,2857
2687.296,2858
2636.417,2859
1995.1471,2860
2470.0398,2861
1984.6604,2862
3902.534,2863
3872.6113,2864
3497.7937,2865
3372.13,2866
2722.237,2867
2678.41,2868
2972.6406,2869
2138.4194,2870
1845.3698,2871
4762.992,2872
4738.364,2873
3990.317,2874
3154.1414,2875
3026.785,2876
2426.6353,2877
1733.7278,2878
2188.4343,2879
2085.1223,2880
3260.3032,2881
3546.8403,2882
3238.6343,2883
3517.8464,2884
2665.4177,2885
2453.4214,2886
2348.4414,2887
2289.148,2888
2071.0627,2889
2691.83,2890
4491.2217,2891
4895.352,2892
3258.0066,2893
2976.0632,2894
2825.8003,2895
2683.7393,2896
2159.851,2897
2608.1453,2898
2387.3335,2899
4428.019,2900
3743.6047,2901
3597.2712,2902
3675.1313,2903
2762.9346,2904
2794.722,2905
2799.4688,2906
2090.6543,2907
2040.1022,2908
4735.476,2909
4748.1895,2910
4358.067,2911
3379.9668,2912
3133.1848,2913
3031.0386,2914
2877.6086,2915
2554.3599,2916
2912.4036,2917
3454.9226,2918
3840.4438,2919
3015.5916,2920
3014.7751,2921
2732.1355,2922
2450.8494,2923
2704.8088,2924
2301.0767,2925
2266.4973,2926
3561.1697,2927
4319.0576,2928
4741.267,2929
3387.0173,2930
2933.9292,2931
2674.1736,2932
2688.9297,2933
2505.4944,2934
2629.589,2935
2796.7122,2936
4271.26,2937
3883.2336,2938
4277.2954,2939
3324.8975,2940
2476.611,2941
2577.5444,2942
2432.7979,2943
1856.9753,2944
1697.1993,2945
4730.326,2946
4800.247,2947
4401.487,2948
3512.3093,2949
3609.5525,2950
3690.6365,2951
2861.2332,2952
2742.4824,2953
2897.3638,2954
3407.0635,2955
4275.061,2956
3682.489,2957
2873.142,2958
2816.318,2959
2291.561,2960
2473.0342,2961
2162.4897,2962
2449.5957,2963
4100.9688,2964
4559.9614,2965
4570.2295,2966
3725.8667,2967
2880.7793,2968
3221.83,2969
3080.7407,2970
3003.898,2971
3212.7778,2972
3298.4407,2973
4119.5757,2974
3644.25,2975
4174.38,2976
3035.7844,2977
2525.0598,2978
3149.4292,2979
2473.7292,2980
1971.68,2981
1613.844,2982
4868.541,2983
4568.8086,2984
4405.0596,2985
3118.9988,2986
3810.229,2987
3432.9565,2988
3166.9187,2989
2925.3372,2990
3005.2122,2991
3419.731,2992
3746.9585,2993
3102.4165,2994
2649.7932,2995
2848.3594,2996
2452.7031,2997
2685.9353,2998
2299.2363,2999
2395.8113,3000
4738.7837,3001
4748.1655,3002
4224.6797,3003
3486.279,3004
2723.564,3005
3724.6785,3006
3266.067,3007
3557.1213,3008
3356.9304,3009
3536.1587,3010
4272.551,3011
3553.9866,3012
4366.447,3013
2803.2534,3014
4361.682,3015
4237.6455,3016
3323.403,3017
3140.7686,3018
2219.0483,3019
3719.7153,3020
4101.771,3021
3831.614,3022
3610.351,3023
3925.0823,3024
2798.3318,3025
2804.7166,3026
2389.5796,3027
1704.714,3028
3562.342,3029
3916.4526,3030
3811.112,3031
2741.5823,3032
2855.686,3033
2233.6594,3034
2791.1738,3035
2375.5776,3036
2618.99,3037
4978.3555,3038
4400.0723,3039
4452.293,3040
3719.1191,3041
3053.0781,3042
3643.508,3043
3405.1401,3044
3149.5923,3045
2610.877,3046
3122.689,3047
4235.8335,3048
3566.9597,3049
4047.0156,3050
2925.7366,3051
2389.448,3052
2619.2751,3053
1931.1598,3054
1843.466,3055
1891.8047,3056
4802.247,3057
4350.327,3058
3376.8562,3059
2944.2026,3060
3063.0215,3061
3053.3853,3062
2824.6487,3063
2594.3657,3064
2728.7837,3065
3754.755,3066
3510.4182,3067
3667.6782,3068
2643.715,3069
2761.7148,3070
2293.3203,3071
2559.4202,3072
2098.6465,3073
2521.8552,3074
5018.6143,3075
4756.0747,3076
4580.42,3077
3418.755,3078
2957.0762,3079
2842.4963,3080
2164.0698,3081
1862.0234,3082
1723.7225,3083
3200.208,3084
4142.537,3085
3652.676,3086
3932.2646,3087
3002.2632,3088
2269.6086,3089
2636.476,3090
1908.5148,3091
1831.7693,3092
1962.9854,3093
4574.7847,3094
4043.898,3095
3279.463,3096
3156.3875,3097
3217.6636,3098
2979.1467,3099
2513.2893,3100
2477.2239,3101
2486.7952,3102
3467.0774,3103
3339.8625,3104
3814.2454,3105
2349.6426,3106
2778.0962,3107
2162.1006,3108
2192.0522,3109
2087.0537,3110
2282.5972,3111
5026.8096,3112
4632.0635,3113
3998.7688,3114
3083.6384,3115
2798.6711,3116
2500.1643,3117
1902.2451,3118
1471.9397,3119
1553.3689,3120
3336.5244,3121
4279.761,3122
3217.574,3123
3841.8125,3124
2850.7285,3125
2215.0952,3126
2201.004,3127
1834.7902,3128
1715.7341,3129
2672.8599,3130
4361.709,3131
4004.4395,3132
3385.2083,3133
3237.321,3134
3190.9966,3135
2954.6375,3136
2630.429,3137
2535.3108,3138
2753.083,3139
3817.0266,3140
3380.5337,3141
3833.339,3142
2456.7258,3143
2649.6836,3144
2204.692,3145
2240.8196,3146
1968.2742,3147
2343.244,3148
5185.3335,3149
5032.8345,3150
3708.6711,3151
2893.9844,3152
2706.1438,3153
2319.634,3154
1785.9856,3155
1567.6777,3156
1694.914,3157
3682.7673,3158
3936.8635,3159
3529.7817,3160
3807.2612,3161
2939.7856,3162
2074.4702,3163
2001.2137,3164
1710.3363,3165
1668.504,3166
3392.7307,3167
4274.009,3168
3968.9038,3169
3361.1091,3170
3320.6775,3171
3167.066,3172
2026.0032,3173
1868.3134,3174
1900.731,3175
1696.1482,3176
3673.9153,3177
3400.3567,3178
3579.9983,3179
2319.2302,3180
2427.6074,3181
2362.1487,3182
2298.547,3183
2203.767,3184
2068.029,3185
5185.53,3186
4668.7466,3187
3411.1365,3188
2584.371,3189
2637.5117,3190
1977.8234,3191
1597.9712,3192
1577.3186,3193
1706.126,3194
3588.8208,3195
4346.797,3196
3564.7192,3197
3460.1638,3198
3111.2715,3199
2197.701,3200
2118.783,3201
1618.4907,3202
1632.8973,3203
4110.1333,3204
4113.0312,3205
3836.4575,3206
3710.1892,3207
2841.7512,3208
2938.2678,3209
2681.0403,3210
2337.9116,3211
2688.94,3212
2760.4646,3213
3776.8813,3214
3491.3977,3215
3663.017,3216
2521.232,3217
2335.9639,3218
2439.2915,3219
2226.56,3220
2156.8413,3221
2105.5322,3222
4979.1104,3223
4712.8086,3224
3608.8293,3225
2729.4885,3226
2790.4795,3227
1957.0376,3228
1736.8569,3229
1801.2205,3230
1849.0265,3231
3526.7725,3232
4514.509,3233
3182.158,3234
3235.0996,3235
2846.9163,3236
2301.821,3237
2337.3584,3238
1732.2166,3239
1856.1857,3240
4506.2417,3241
4080.1377,3242
3925.788,3243
3522.016,3244
3038.474,3245
2833.021,3246
2748.0537,3247
2469.8174,3248
2385.7415,3249
3086.4602,3250
3466.1743,3251
3886.2998,3252
3789.7598,3253
2541.561,3254
2328.6946,3255
2356.018,3256
2186.863,3257
2113.715,3258
2027.0779,3259
4764.4434,3260
4324.489,3261
3312.094,3262
2859.9304,3263
2905.8035,3264
2137.2708,3265
1720.5774,3266
1969.0499,3267
1871.8903,3268
3509.8943,3269
3935.4927,3270
3479.0083,3271
2934.3958,3272
2598.4636,3273
2471.8154,3274
2189.1995,3275
1930.9185,3276
2061.817,3277
4581.6216,3278
4537.629,3279
4015.3755,3280
3539.081,3281
2781.5745,3282
3002.4395,3283
2690.5708,3284
2183.16,3285
2388.6843,3286
3818.9365,3287
3082.794,3288
3593.5112,3289
3863.81,3290
2660.985,3291
2161.5007,3292
2424.7146,3293
2267.171,3294
2219.4514,3295
2310.7327,3296
4662.753,3297
4074.2705,3298
3224.6926,3299
2813.5552,3300
2831.213,3301
2023.2397,3302
1696.8514,3303
1881.2401,3304
1630.1365,3305
4088.043,3306
3647.0015,3307
3813.054,3308
3338.4824,3309
3009.8757,3310
4007.9866,3311
3380.3232,3312
2532.8926,3313
2840.2195,3314
3403.9587,3315
3756.2556,3316
3024.1702,3317
2398.8535,3318
1879.162,3319
3737.0203,3320
3579.2744,3321
2959.104,3322
2761.0747,3323
3196.428,3324
3262.0212,3325
3301.691,3326
3739.9849,3327
2955.4834,3328
2319.2292,3329
2589.0789,3330
2395.574,3331
2057.7673,3332
2929.0442,3333
4381.279,3334
4008.9963,3335
3504.3652,3336
3821.8037,3337
2946.0007,3338
2308.5237,3339
2075.0845,3340
2119.6943,3341
1632.3213,3342
4098.2983,3343
3456.8853,3344
3951.953,3345
3112.7622,3346
2804.1055,3347
2427.2544,3348
2324.5703,3349
2133.5442,3350
2495.0002,3351
4982.4985,3352
4936.037,3353
3977.9407,3354
3077.8154,3355
3385.1108,3356
3570.6565,3357
2906.9404,3358
2669.6191,3359
2713.1558,3360
3438.1084,3361
3579.8997,3362
3272.4785,3363
3337.4565,3364
3068.9414,3365
2285.4287,3366
2717.8706,3367
2303.2107,3368
2322.2708,3369
3820.717,3370
4289.1836,3371
4042.173,3372
3628.3755,3373
3456.6787,3374
2756.357,3375
2519.1238,3376
2574.149,3377
2090.4229,3378
1793.28,3379
4365.282,3380
3433.8079,3381
3815.6238,3382
2904.003,3383
2723.046,3384
2503.4287,3385
2408.0034,3386
2066.095,3387
2281.0764,3388
4887.4546,3389
4820.7573,3390
3822.4646,3391
3152.6936,3392
3052.6057,3393
3450.6582,3394
2695.314,3395
2684.2417,3396
2504.8865,3397
3607.3882,3398
3628.4683,3399
3078.5054,3400
2947.3086,3401
3121.6975,3402
2141.881,3403
2679.3525,3404
2280.489,3405
2249.8809,3406
4422.9653,3407
4152.27,3408
4201.5176,3409
3574.9329,3410
3464.628,3411
2839.7554,3412
2933.416,3413
2624.4343,3414
2225.3313,3415
1970.6195,3416
4264.7563,3417
3444.936,3418
4281.893,3419
2942.7786,3420
2746.2693,3421
2673.6633,3422
2288.0898,3423
2153.6758,3424
2301.1555,3425
5137.543,3426
4810.691,3427
3846.594,3428
3245.798,3429
3171.2354,3430
3061.2395,3431
2386.0056,3432
2757.5164,3433
3066.6655,3434
3479.263,3435
3687.2178,3436
3326.2864,3437
2616.185,3438
3010.9119,3439
2217.3762,3440
2561.8428,3441
2053.67,3442
2235.7493,3443
4700.307,3444
4481.008,3445
4272.3853,3446
3785.865,3447
3531.3452,3448
3154.1616,3449
2796.6252,3450
2528.422,3451
2309.7566,3452
2380.0925,3453
4160.7485,3454
3786.246,3455
4301.6763,3456
3264.088,3457
2701.591,3458
2672.795,3459
2180.5312,3460
2024.2231,3461
2109.8293,3462
4589.42,3463
4561.967,3464
3789.576,3465
3420.0388,3466
3125.5886,3467
2032.4005,3468
1938.3229,3469
1896.3898,3470
1747.2139,3471
3363.675,3472
3834.4246,3473
3847.2512,3474
2461.9443,3475
3293.77,3476
2617.307,3477
2542.2393,3478
2369.029,3479
2352.882,3480
4833.0537,3481
4544.756,3482
4350.819,3483
3652.8862,3484
3285.562,3485
3181.3887,3486
2975.2751,3487
2602.3215,3488
2476.8499,3489
3007.2146,3490
4164.728,3491
3824.4426,3492
4353.571,3493
3296.2947,3494
3046.4314,3495
3077.3064,3496
2185.442,3497
2067.471,3498
1953.5204,3499
4521.1436,3500
4051.661,3501
3608.827,3502
3859.052,3503
3593.345,3504
3501.1355,3505
2702.8389,3506
3207.145,3507
3446.2893,3508
3607.7483,3509
3681.8394,3510
3966.4023,3511
2303.9915,3512
3171.167,3513
2482.887,3514
2765.5508,3515
2323.5527,3516
2596.935,3517
4511.335,3518
4493.936,3519
4232.2344,3520
3487.657,3521
3357.3005,3522
3460.5835,3523
3435.4478,3524
3044.5747,3525
3105.9263,3526
3803.526,3527
4126.442,3528
3576.5037,3529
4185.2188,3530
3039.7502,3531
2699.9365,3532
2558.0205,3533
2253.026,3534
1946.0422,3535
2268.6814,3536
4432.7964,3537
4292.8604,3538
4131.988,3539
4221.8276,3540
3650.0852,3541
3773.9946,3542
2840.5718,3543
2916.0312,3544
2708.222,3545
3685.1274,3546
3762.501,3547
3473.1594,3548
2396.7578,3549
3475.9011,3550
2743.3586,3551
3414.5183,3552
2976.2637,3553
3648.0996,3554
4436.8647,3555
4790.2036,3556
4339.6875,3557
3662.8926,3558
3936.1562,3559
3986.3418,3560
3794.8787,3561
4125.78,3562
4518.0264,3563
3804.3235,3564
4346.2256,3565
3629.7039,3566
4187.286,3567
3751.2273,3568
3108.09,3569
3520.2786,3570
3353.6848,3571
3933.683,3572
4253.1357,3573
4939.961,3574
5020.1987,3575
5464.073,3576
5360.796,3577
5052.8354,3578
5356.3027,3579
5603.6533,3580
5721.054,3581
5516.6987,3582
4485.145,3583
4647.49,3584
4951.947,3585
3486.0498,3586
3538.812,3587
3781.3235,3588
3654.3792,3589
4111.4546,3590
4298.844,3591
4691.8467,3592
4830.5156,3593
4295.484,3594
3412.1975,3595
4010.1096,3596
4044.1167,3597
4454.1807,3598
5100.329,3599
4379.915,3600
3584.2664,3601
4591.2666,3602
3491.7168,3603
4168.651,3604
3629.067,3605
4161.901,3606
3784.2324,3607
3107.5854,3608
3277.6199,3609
3879.2751,3610
3675.058,3611
4119.352,3612
4900.8374,3613
4538.321,3614
4025.322,3615
3964.9287,3616
4587.4526,3617
3977.435,3618
4035.3926,3619
4065.0828,3620
5213.091,3621
5113.3564,3622
5858.129,3623
5509.2646,3624
6365.0977,3625
6224.5615,3626
6233.112,3627
6516.988,3628
4539.2705,3629
4145.259,3630
5005.823,3631
4447.027,3632
4716.179,3633
3905.9285,3634
4619.944,3635
3826.9924,3636
4396.287,3637
4367.0825,3638
5166.917,3639
4920.262,3640
5422.9087,3641
5497.841,3642
2776.2568,3643
3133.2515,3644
2813.465,3645
3313.995,3646
3872.2593,3647
2846.5688,3648
2269.3374,3649
2763.8167,3650
2824.1304,3651
3186.2263,3652
3688.7659,3653
3366.538,3654
3922.3442,3655
3632.3066,3656
1230.7374,3657
1830.2716,3658
1412.3224,3659
1736.4081,3660
1880.4507,3661
3373.8823,3662
3284.3967,3663
3419.738,3664
3701.776,3665
1088.2479,3666
1078.6676,3667
1271.2834,3668
1554.6875,3669
1792.7468,3670
1045.2518,3671
1285.9552,3672
1316.8524,3673
1471.3962,3674
2143.1558,3675
2600.0293,3676
2777.871,3677
3120.7046,3678
3462.6199,3679
1024.1144,3680
1536.8695,3681
1159.268,3682
1752.9727,3683
1521.2449,3684
1159.0131,3685
1016.31995,3686
1281.8844,3687
1389.7653,3688
2317.3723,3689
2782.7205,3690
2997.3232,3691
2986.5942,3692
2580.5134,3693
841.5534,3694
1202.5475,3695
1183.3401,3696
1407.4307,3697
1509.3317,3698
2349.4656,3699
2611.0352,3700
3083.956,3701
3371.4468,3702
950.9379,3703
1001.8996,3704
1014.45746,3705
1450.8192,3706
1808.7352,3707
1165.6819,3708
1096.168,3709
1239.2133,3710
1379.7461,3711
2057.6086,3712
2809.5127,3713
2575.5935,3714
3194.7122,3715
3460.469,3716
976.9197,3717
1348.1392,3718
1180.1958,3719
1595.591,3720
1300.3032,3721
1049.635,3722
885.5064,3723
1178.3724,3724
1414.4875,3725
2439.726,3726
2464.432,3727
2595.9226,3728
3011.2544,3729
2750.3198,3730
863.8307,3731
1009.5299,3732
1244.5073,3733
1297.4514,3734
1869.6837,3735
2572.0867,3736
2706.0044,3737
2706.5342,3738
3298.0212,3739
1014.0358,3740
1371.9062,3741
1125.9319,3742
1582.5135,3743
1637.4169,3744
1088.1124,3745
953.6737,3746
1284.856,3747
1348.6841,3748
2002.5137,3749
3039.8599,3750
3321.2495,3751
3037.3765,3752
3142.4875,3753
1116.9883,3754
1374.5074,3755
1269.4194,3756
1802.8671,3757
1572.8685,3758
1125.2607,3759
1154.972,3760
1334.2164,3761
1460.9246,3762
1289.8527,3763
1196.6118,3764
1659.736,3765
1579.855,3766
1754.6888,3767
1418.8875,3768
1155.147,3769
1630.4647,3770
1499.1349,3771
2320.619,3772
2714.778,3773
2593.4714,3774
2762.6882,3775
2825.2249,3776
1075.2411,3777
1303.6334,3778
1311.4365,3779
1748.505,3780
1700.4161,3781
1292.7026,3782
1284.255,3783
1837.9905,3784
1804.8334,3785
1793.5399,3786
1922.0846,3787
2005.6404,3788
2057.1794,3789
1992.246,3790
1175.4152,3791
1254.0947,3792
1390.1261,3793
1298.3955,3794
1193.0714,3795
993.482,3796
1014.6286,3797
1146.1572,3798
1565.0731,3799
2842.825,3800
2694.0461,3801
3078.0999,3802
3481.0486,3803
1993.4763,3804
1137.5371,3805
1161.7391,3806
1462.535,3807
1366.5773,3808
2445.4487,3809
2582.48,3810
2810.614,3811
3101.057,3812
2652.52,3813
1183.6237,3814
1419.859,3815
1275.337,3816
1587.2836,3817
1596.6692,3818
1240.6155,3819
1534.1562,3820
1553.7572,3821
1722.3746,3822
3102.9026,3823
3207.313,3824
2949.8237,3825
3091.6472,3826
2487.299,3827
1462.268,3828
1363.2015,3829
1545.4823,3830
1447.7881,3831
1415.4556,3832
1242.217,3833
1434.7236,3834
1305.0303,3835
1663.3606,3836
3406.8464,3837
3268.0405,3838
3371.221,3839
3389.528,3840
1845.3241,3841
1200.3202,3842
1044.5184,3843
1395.3044,3844
1516.262,3845
2295.4197,3846
2276.4946,3847
2061.9082,3848
2426.9023,3849
2513.087,3850
1346.8184,3851
1154.9293,3852
1472.904,3853
1414.1687,3854
1457.5564,3855
1126.5282,3856
1206.7316,3857
1218.5681,3858
1529.4939,3859
2081.2852,3860
2676.6794,3861
2157.7966,3862
2719.9688,3863
2466.7495,3864
1693.5879,3865
1217.2595,3866
1685.7465,3867
1346.0016,3868
1170.8246,3869
1145.1171,3870
1227.9595,3871
1186.1627,3872
1488.1976,3873
2840.983,3874
2623.6233,3875
2765.1372,3876
2726.1626,3877
1607.4437,3878
1209.2343,3879
1375.3103,3880
1217.3534,3881
1368.2827,3882
2425.103,3883
2092.1553,3884
1928.4595,3885
2187.7544,3886
2468.2222,3887
1472.2196,3888
1198.7084,3889
1685.2568,3890
1486.6876,3891
1282.2068,3892
1167.0624,3893
1628.8,3894
1265.3118,3895
1940.1244,3896
2419.1672,3897
2358.3464,3898
2795.2708,3899
3447.798,3900
2470.1006,3901
1379.8695,3902
1313.4978,3903
1558.2461,3904
1467.8818,3905
919.90643,3906
1178.0925,3907
1221.5902,3908
1275.5111,3909
1436.7621,3910
1345.2977,3911
1949.2772,3912
1419.0632,3913
1399.8267,3914
2060.1707,3915
1718.2203,3916
1354.8896,3917
1393.1321,3918
1577.5298,3919
1945.854,3920
1997.5485,3921
2067.7542,3922
2145.7344,3923
1818.1287,3924
1403.4352,3925
1613.0796,3926
1475.0487,3927
1434.9036,3928
1891.2212,3929
2047.8352,3930
1327.5234,3931
1660.2537,3932
1719.7599,3933
2091.9238,3934
1830.5228,3935
1801.3071,3936
2125.142,3937
2043.633,3938
1754.4923,3939
1733.4623,3940
1482.2856,3941
1590.3451,3942
1128.5265,3943
1222.975,3944
1374.0306,3945
1491.6833,3946
1731.7699,3947
2138.4302,3948
1914.597,3949
2185.6414,3950
2625.1565,3951
1498.668,3952
1385.9255,3953
1172.8508,3954
1169.1255,3955
1423.7347,3956
2291.4546,3957
2632.5989,3958
2527.9597,3959
2446.3806,3960
2176.7527,3961
1586.872,3962
1773.117,3963
1454.7828,3964
1470.4149,3965
1599.1018,3966
1527.171,3967
1313.1068,3968
1321.7654,3969
1603.6721,3970
2179.2063,3971
2056.8022,3972
2491.7393,3973
2616.8708,3974
2350.2817,3975
1980.5295,3976
1846.3132,3977
1493.3961,3978
1677.6044,3979
1272.827,3980
1131.4745,3981
1150.6931,3982
1353.2643,3983
1540.3975,3984
2294.2808,3985
1975.4966,3986
2267.4163,3987
2747.19,3988
1333.6564,3989
1520.7739,3990
1260.2394,3991
1184.2112,3992
1411.5388,3993
1842.9857,3994
2156.2817,3995
2135.036,3996
2380.8179,3997
1819.4456,3998
1641.242,3999
1388.8228,4000
1438.6074,4001
1438.1736,4002
1497.3059,4003
1249.0465,4004
1142.0746,4005
1227.9362,4006
1572.4725,4007
1861.8793,4008
2151.414,4009
2535.375,4010
2635.9453,4011
1811.3276,4012
1495.8875,4013
1482.938,4014
1222.5415,4015
1506.9359,4016
1019.83453,4017
1050.7222,4018
1376.6174,4019
2005.35,4020
1931.646,4021
2131.848,4022
1962.5281,4023
2422.943,4024
2578.1555,4025
1199.3663,4026
1114.245,4027
1242.8944,4028
1220.5825,4029
1645.2109,4030
2803.5637,4031
2516.491,4032
2409.6775,4033
2379.0862,4034
1799.3524,4035
1557.7233,4036
1197.2783,4037
1355.5181,4038
1609.7911,4039
1223.5908,4040
1274.315,4041
1246.8173,4042
1168.2802,4043
1488.6542,4044
1943.6945,4045
2235.7754,4046
2383.0469,4047
2331.264,4048
1605.1914,4049
1582.1973,4050
1378.8873,4051
1336.1204,4052
1635.2982,4053
1162.8701,4054
1311.3354,4055
1393.9844,4056
1547.4951,4057
2040.8856,4058
1666.401,4059
1987.9738,4060
2622.1128,4061
1873.4811,4062
1234.0005,4063
1096.0109,4064
1166.821,4065
1600.3137,4066
2245.4648,4067
2394.334,4068
2200.165,4069
2206.919,4070
2178.614,4071
1406.2072,4072
1183.9445,4073
1060.136,4074
1249.4408,4075
1399.5702,4076
1389.1293,4077
1387.0083,4078
1763.772,4079
2344.8665,4080
2031.8104,4081
2082.1743,4082
1896.453,4083
1823.8828,4084
1943.8593,4085
1649.4839,4086
1470.179,4087
1481.4653,4088
1678.1593,4089
1447.4692,4090
1111.8795,4091
1312.5204,4092
1819.174,4093
1391.4597,4094
1786.5574,4095
1989.2513,4096
2078.8025,4097
2137.6716,4098
1982.6367,4099
1113.8644,4100
1068.6252,4101
1443.7158,4102
1699.4277,4103
2302.2327,4104
2848.7922,4105
3153.588,4106
3031.5955,4107
2552.017,4108
1653.3469,4109
1549.0311,4110
1183.8893,4111
1526.2584,4112
1579.8386,4113
1209.9878,4114
1642.6537,4115
1841.2544,4116
1497.9854,4117
2322.31,4118
2954.9434,4119
3019.0847,4120
2544.5032,4121
2502.2832,4122
1342.0958,4123
1268.6344,4124
1298.5391,4125
1576.1187,4126
1643.6075,4127
1244.1776,4128
1519.641,4129
1609.985,4130
1564.1522,4131
2624.7612,4132
2580.9675,4133
2518.408,4134
2924.9983,4135
2024.7097,4136
954.35724,4137
1052.7297,4138
1315.1981,4139
1769.3964,4140
1626.0763,4141
2094.4204,4142
1787.7745,4143
2101.994,4144
3055.2622,4145
1264.8579,4146
1230.857,4147
1143.732,4148
1535.6276,4149
1372.86,4150
1032.611,4151
1100.1505,4152
1234.9924,4153
1528.7062,4154
1829.1155,4155
1932.123,4156
1741.368,4157
2069.461,4158
2459.169,4159
1307.1002,4160
1313.2925,4161
1373.1183,4162
1823.4408,4163
1364.0002,4164
1178.9186,4165
1446.3762,4166
1298.6079,4167
1357.9069,4168
1604.4235,4169
1950.7356,4170
2170.0352,4171
2320.8413,4172
2363.2139,4173
997.8553,4174
1394.5316,4175
1457.258,4176
1403.3546,4177
1592.2604,4178
2293.746,4179
2197.3062,4180
2432.2263,4181
2693.594,4182
1311.2078,4183
1265.6396,4184
1377.3673,4185
1713.4192,4186
1738.3411,4187
1276.3817,4188
1582.2483,4189
1340.0099,4190
1248.1337,4191
1374.2827,4192
2110.4937,4193
1940.3842,4194
2155.72,4195
2235.2114,4196
1352.5752,4197
1320.0739,4198
1502.2318,4199
1905.433,4200
1590.9215,4201
1407.1506,4202
1373.6813,4203
1228.0833,4204
1500.8794,4205
1357.1064,4206
1359.8513,4207
1940.8191,4208
1506.966,4209
1650.6508,4210
1066.6749,4211
1232.3569,4212
1251.5636,4213
1415.903,4214
2127.3489,4215
2300.4185,4216
2379.951,4217
1942.0122,4218
2428.8528,4219
1242.2058,4220
1347.6501,4221
1193.2122,4222
1328.1296,4223
1827.0957,4224
1325.1958,4225
1338.334,4226
1506.3662,4227
1611.6326,4228
1670.4241,4229
1906.1034,4230
1845.9769,4231
1978.2922,4232
2148.6555,4233
1534.5741,4234
1516.4438,4235
1578.0647,4236
1696.2925,4237
1285.0732,4238
1316.7738,4239
1514.1584,4240
1475.073,4241
1651.9646,4242
2318.127,4243
2644.1028,4244
2602.3142,4245
2651.3293,4246
1977.3729,4247
1186.7009,4248
1241.3553,4249
1258.6975,4250
1336.214,4251
1750.8588,4252
2244.9028,4253
2441.0732,4254
2383.018,4255
2549.8157,4256
1307.7816,4257
1415.3667,4258
1344.2126,4259
1360.5651,4260
1434.4598,4261
1169.9316,4262
1224.1656,4263
1252.1776,4264
1288.6191,4265
1635.7584,4266
2036.2834,4267
2395.5688,4268
2763.6936,4269
2677.4927,4270
1023.6438,4271
1137.0233,4272
1159.267,4273
1288.5878,4274
1438.7192,4275
1661.6669,4276
1574.5985,4277
1585.471,4278
1641.1436,4279
2656.8613,4280
2463.9385,4281
2386.8884,4282
2654.721,4283
1686.6366,4284
1165.2516,4285
1114.7133,4286
1321.5837,4287
1250.1393,4288
1616.867,4289
2047.956,4290
2268.888,4291
2431.2507,4292
2399.3374,4293
1217.6278,4294
1102.9645,4295
1216.1841,4296
1317.1827,4297
1495.3397,4298
1368.5658,4299
1426.6526,4300
1384.9036,4301
1400.5159,4302
1974.2361,4303
1901.9403,4304
1927.575,4305
2543.4097,4306
2252.0486,4307
1108.442,4308
1200.302,4309
1150.8903,4310
1438.2183,4311
1319.7644,4312
1512.432,4313
1494.9078,4314
1548.4462,4315
1680.5752,4316
2159.9065,4317
2752.63,4318
2504.3875,4319
2314.7327,4320
1352.2638,4321
1207.692,4322
1390.1715,4323
1241.3499,4324
1646.8778,4325
2081.8665,4326
2351.666,4327
2458.1533,4328
2429.7363,4329
2106.0818,4330
1204.6365,4331
1096.8939,4332
1150.163,4333
1472.2693,4334
1576.478,4335
1642.7006,4336
1479.7181,4337
1679.8196,4338
1768.2177,4339
2006.3812,4340
2131.9705,4341
2242.8333,4342
2460.66,4343
1832.56,4344
1340.5713,4345
1400.1327,4346
1252.4316,4347
1311.0015,4348
1480.8169,4349
1535.1084,4350
1574.9293,4351
1496.3475,4352
1498.4254,4353
1303.8398,4354
1469.833,4355
1998.3661,4356
1882.503,4357
2149.4263,4358
1460.6936,4359
1624.6836,4360
1593.1787,4361
2022.0385,4362
2134.707,4363
2237.8467,4364
2396.3887,4365
2557.1492,4366
1653.5106,4367
1211.8451,4368
1224.0845,4369
1246.2959,4370
1312.8229,4371
1931.6827,4372
2250.27,4373
2123.273,4374
2471.8452,4375
2284.855,4376
1746.824,4377
2124.7285,4378
2055.377,4379
1891.12,4380
1737.6034,4381
1435.6544,4382
1414.1069,4383
1454.4948,4384
1488.8005,4385
1346.1311,4386
1422.6792,4387
1351.3018,4388
1532.0189,4389
1778.3188,4390
2320.694,4391
1964.8937,4392
2404.9685,4393
2305.613,4394
1620.617,4395
1678.0594,4396
1702.5181,4397
1555.2238,4398
1625.072,4399
2058.3127,4400
2350.7437,4401
2176.283,4402
2472.1943,4403
1803.3267,4404
1409.726,4405
1555.9458,4406
1333.8129,4407
1699.6564,4408
1583.6604,4409
1699.9534,4410
1773.6051,4411
1777.5679,4412
1798.0122,4413
2198.3052,4414
2228.9785,4415
2121.2778,4416
2366.6184,4417
2016.4883,4418
1788.0055,4419
1715.4142,4420
1792.7759,4421
1850.0698,4422
1459.5599,4423
1424.1919,4424
1483.9692,4425
1546.2545,4426
2043.3307,4427
1948.9023,4428
2162.1177,4429
2126.8506,4430
2300.5505,4431
1424.7454,4432
1465.8507,4433
1462.178,4434
1450.0441,4435
1342.7019,4436
1667.3325,4437
1741.5319,4438
1784.6669,4439
2028.2423,4440
1738.002,4441
1316.9216,4442
1218.4259,4443
1323.1666,4444
1705.0344,4445
1618.0923,4446
1652.3867,4447
1538.4266,4448
1362.8365,4449
1618.8492,4450
1937.9349,4451
2324.1836,4452
2222.1738,4453
2359.3472,4454
2305.747,4455
1669.4963,4456
1640.85,4457
1717.8599,4458
2079.5972,4459
1337.3273,4460
1227.1205,4461
1200.2145,4462
1318.4316,4463
1392.3735,4464
1738.0741,4465
2118.4448,4466
2241.1335,4467
2424.632,4468
1562.9744,4469
1707.3427,4470
1701.5881,4471
1509.8914,4472
1853.4242,4473
1773.1771,4474
1873.3318,4475
2072.5183,4476
2131.6558,4477
1882.4573,4478
1676.2115,4479
1669.1201,4480
1608.1198,4481
2252.7573,4482
1700.5139,4483
1832.6603,4484
1708.3405,4485
1671.0579,4486
1743.5114,4487
1670.7529,4488
2010.4464,4489
2384.923,4490
2258.4941,4491
1900.5747,4492
1960.6929,4493
1789.883,4494
1954.526,4495
2025.4586,4496
1489.481,4497
1499.6785,4498
1575.424,4499
1583.8942,4500
1861.2217,4501
1264.0021,4502
1295.3173,4503
1571.184,4504
1639.8828,4505
1479.8359,4506
1484.9365,4507
1403.1243,4508
1502.2838,4509
1832.5614,4510
2076.5693,4511
2347.305,4512
2476.9458,4513
2692.885,4514
1790.6588,4515
2006.5042,4516
2015.2908,4517
1810.3298,4518
2097.3691,4519
1636.2207,4520
1640.965,4521
1773.7666,4522
2056.8203,4523
2188.7444,4524
2290.9639,4525
2604.7004,4526
2263.459,4527
2479.4712,4528
2033.0519,4529
1959.6447,4530
1615.0406,4531
1562.7346,4532
2180.4268,4533
1660.3147,4534
1946.2195,4535
2040.4213,4536
2391.1724,4537
2362.4377,4538
2863.414,4539
2880.4458,4540
2593.1646,4541
2578.2026,4542
1808.699,4543
1757.6499,4544
1806.643,4545
2073.374,4546
2235.068,4547
2762.0884,4548
2582.9204,4549
2543.7083,4550
2743.3086,4551
2015.1112,4552
2060.7751,4553
1795.1649,4554
1845.0391,4555
2118.965,4556
1952.8998,4557
1868.7732,4558
2027.6162,4559
2060.4348,4560
2407.4724,4561
3058.1292,4562
3164.2463,4563
2783.9358,4564
3413.9282,4565
1923.8765,4566
1610.9214,4567
1472.4581,4568
1400.723,4569
1976.7379,4570
2231.3105,4571
2356.4421,4572
2494.5427,4573
2767.2168,4574
2807.6636,4575
2850.282,4576
2893.6365,4577
2939.4192,4578
2905.1812,4579
1745.474,4580
1925.6489,4581
1893.9749,4582
2108.1355,4583
2564.189,4584
2978.3384,4585
2709.1643,4586
2639.182,4587
3071.8044,4588
2006.7115,4589
2050.2585,4590
2006.9332,4591
2153.2737,4592
2211.6394,4593
1865.0731,4594
1988.2411,4595
2044.0958,4596
1984.1398,4597
2534.265,4598
3357.0652,4599
3262.3872,4600
3042.1575,4601
3319.92,4602
1777.9056,4603
1621.0177,4604
1682.0741,4605
1868.9863,4606
2681.1692,4607
2204.2424,4608
2490.5757,4609
2493.5696,4610
2397.3955,4611
2456.2576,4612
2660.6887,4613
3173.4045,4614
2934.1052,4615
2664.5186,4616
2047.0519,4617
2171.1506,4618
2285.4067,4619
2690.8167,4620
2848.931,4621
2935.983,4622
2716.547,4623
2762.019,4624
2842.096,4625
2209.6096,4626
2337.752,4627
2147.737,4628
2415.7761,4629
2703.8674,4630
2190.256,4631
2424.7217,4632
2618.9211,4633
2659.893,4634
2891.408,4635
3184.0452,4636
3293.6938,4637
3264.0425,4638
3220.8254,4639
1950.7296,4640
1849.7155,4641
1890.9705,4642
2045.9846,4643
2871.2466,4644
2653.002,4645
3079.0417,4646
2479.3682,4647
2626.6797,4648
2705.295,4649
2363.674,4650
2811.9631,4651
2952.0396,4652
3516.959,4653
2274.4983,4654
2601.9922,4655
3277.5662,4656
3728.9717,4657
3171.1445,4658
3452.6057,4659
3221.7126,4660
3293.3232,4661
3298.2554,4662
2979.3337,4663
2817.7231,4664
2800.5542,4665
3140.6453,4666
3303.9304,4667
2491.8071,4668
2338.1155,4669
2444.2551,4670
2421.2356,4671
3551.574,4672
3813.618,4673
3751.0469,4674
3753.9404,4675
3743.7998,4676
2191.4875,4677
2025.7025,4678
2517.0784,4679
3147.5125,4680
3673.652,4681
3677.354,4682
3449.1382,4683
3403.7866,4684
3086.47,4685
3574.2043,4686
3549.1826,4687
3523.0417,4688
3561.99,4689
3355.4028,4690
3315.4868,4691
3680.4565,4692
3949.156,4693
3567.3643,4694
3488.2144,4695
3365.7344,4696
3138.7466,4697
3367.2246,4698
3504.437,4699
2683.7275,4700
2852.0698,4701
3155.616,4702
3576.576,4703
4119.4175,4704
3981.93,4705
3849.5627,4706
3496.4197,4707
3748.3416,4708
3782.2212,4709
4324.8086,4710
4283.883,4711
4591.317,4712
3511.2102,4713
2753.4795,4714
2726.0527,4715
2501.6323,4716
2814.4338,4717
3646.0632,4718
4244.408,4719
4170.0737,4720
3918.1267,4721
3569.6091,4722
4086.5703,4723
3339.7874,4724
3661.4644,4725
3728.6973,4726
3536.8699,4727
3576.553,4728
3647.6077,4729
4039.1484,4730
3756.4727,4731
3762.2153,4732
4671.4854,4733
4610.2715,4734
5019.823,4735
4774.286,4736
2963.3596,4737
3167.6746,4738
3606.7966,4739
4675.827,4740
3573.4233,4741
4279.3813,4742
4547.163,4743
4076.25,4744
4120.186,4745
4646.592,4746
4774.6836,4747
4897.1265,4748
5417.3496,4749
4683.2725,4750
3479.0093,4751
4315.133,4752
5567.8457,4753
5466.219,4754
4022.091,4755
4455.718,4756
4516.979,4757
4554.398,4758
3874.8765,4759
5138.639,4760
5904.9976,4761
5996.5635,4762
6067.7573,4763
4666.1377,4764
4707.8286,4765
4814.5376,4766
4802.737,4767
4043.1204,4768
3971.85,4769
4674.7705,4770
4518.011,4771
4319.6274,4772
4392.476,4773
3306.748,4774
3397.9753,4775
4040.3203,4776
4614.987,4777
3438.5093,4778
3620.6292,4779
4447.9272,4780
4299.3066,4781
3629.642,4782
4053.0847,4783
4770.8433,4784
4883.9126,4785
4357.2466,4786
3776.516,4787
3291.7332,4788
4024.11,4789
3824.8726,4790
4500.293,4791
3303.358,4792
3782.5344,4793
3684.977,4794
4559.3735,4795
3069.2297,4796
3511.1235,4797
3652.381,4798
3859.1174,4799
4522.5913,4800
4326.0947,4801
4230.3574,4802
4627.6763,4803
4840.0,4804
5749.507,4805
5203.9194,4806
5195.36,4807
5645.341,4808
5488.825,4809
4283.2373,4810
3341.0032,4811
3766.2317,4812
3871.9744,4813
4059.4321,4814
3183.0588,4815
3336.597,4816
3448.859,4817
3611.2822,4818
3697.7366,4819
3604.444,4820
3848.9663,4821
4233.4,4822
4191.5586,4823
2936.9053,4824
2546.2065,4825
2755.3818,4826
2769.054,4827
3259.8357,4828
2165.739,4829
2299.5867,4830
2280.7222,4831
2296.8691,4832
2263.4521,4833
2662.162,4834
2454.2417,4835
2673.0996,4836
2955.8606,4837
2009.8806,4838
1817.5186,4839
1948.6678,4840
1949.0541,4841
2028.7404,4842
2124.5896,4843
2192.0803,4844
2146.3044,4845
2086.6997,4846
1712.0803,4847
1394.6097,4848
1483.6226,4849
1332.7354,4850
1373.709,4851
1761.4209,4852
2052.0286,4853
1841.4985,4854
2045.3917,4855
1763.5765,4856
2118.5303,4857
1859.2922,4858
2159.9417,4859
2071.4597,4860
1908.994,4861
1414.9618,4862
1470.9141,4863
1273.6095,4864
1538.397,4865
1730.3531,4866
2012.6306,4867
1790.8082,4868
1891.1534,4869
1682.926,4870
1965.6001,4871
2208.6648,4872
2239.2969,4873
2008.0457,4874
1753.0249,4875
1703.5232,4876
1649.6484,4877
1485.7438,4878
1506.2784,4879
2068.952,4880
2069.7327,4881
2245.1118,4882
2199.2651,4883
1740.4445,4884
1231.9495,4885
1445.6738,4886
1337.4932,4887
1580.5144,4888
1619.4895,4889
1703.9882,4890
1602.9232,4891
1718.2335,4892
1545.2255,4893
1758.145,4894
2166.4739,4895
2029.1869,4896
2286.4136,4897
1474.4413,4898
1691.858,4899
1672.1984,4900
1506.1105,4901
1711.4784,4902
1792.3717,4903
1806.0885,4904
1791.8328,4905
1649.7021,4906
1709.3457,4907
1885.4315,4908
1840.3999,4909
1999.5535,4910
1887.7118,4911
1759.3335,4912
1838.4407,4913
1700.0967,4914
1893.096,4915
2073.294,4916
2140.664,4917
2353.1362,4918
2247.5396,4919
1866.6671,4920
1631.0378,4921
1332.3687,4922
1559.9275,4923
1411.4923,4924
1586.0729,4925
1859.426,4926
2062.2646,4927
1755.8164,4928
1717.5557,4929
1909.8073,4930
1748.7433,4931
1784.039,4932
1796.6108,4933
1843.6011,4934
1783.1655,4935
1761.608,4936
1575.6738,4937
1868.8746,4938
1964.566,4939
1796.5322,4940
1762.4183,4941
1992.6884,4942
1849.3556,4943
2294.4758,4944
1897.2681,4945
1686.9413,4946
1887.4336,4947
1729.7454,4948
1536.6019,4949
1518.6259,4950
1389.3967,4951
1628.434,4952
1853.5547,4953
2109.2158,4954
2333.6956,4955
2289.0017,4956
2576.2854,4957
1903.3463,4958
1845.449,4959
1862.4374,4960
1841.143,4961
1793.3046,4962
1481.6139,4963
1587.9503,4964
1419.2557,4965
1515.7053,4966
2459.0251,4967
2524.0674,4968
2304.009,4969
2435.4595,4970
2339.7388,4971
1502.039,4972
1911.0159,4973
1537.83,4974
1848.1393,4975
2121.3496,4976
2003.19,4977
1744.8472,4978
2129.346,4979
2027.4791,4980
2348.3032,4981
2186.9219,4982
1891.5054,4983
2216.975,4984
2174.951,4985
1847.5504,4986
1865.1836,4987
1607.1527,4988
1795.9773,4989
2058.7725,4990
2219.5688,4991
2129.392,4992
1885.425,4993
1924.626,4994
1861.9247,4995
1863.4937,4996
1499.3871,4997
1545.8252,4998
2318.9543,4999
2236.3088,5000
1873.795,5001
2113.4766,5002
1954.8934,5003
2232.0527,5004
2194.0237,5005
1889.9225,5006
1860.3824,5007
1740.925,5008
1588.6354,5009
1934.6277,5010
1402.2242,5011
1570.265,5012
1806.848,5013
2143.9658,5014
1726.8789,5015
1856.1897,5016
1818.3938,5017
2124.605,5018
2020.2073,5019
2191.5308,5020
1889.6243,5021
2066.8433,5022
1947.5441,5023
1676.7686,5024
1595.4518,5025
1534.6742,5026
1954.1875,5027
1853.471,5028
1671.0723,5029
1731.5548,5030
1914.463,5031
1477.2675,5032
1757.0956,5033
1386.7797,5034
1599.5358,5035
1975.8265,5036
2166.9912,5037
1769.2228,5038
1993.351,5039
1542.361,5040
1851.2734,5041
1678.4459,5042
1611.8423,5043
1726.3412,5044
1820.1691,5045
1502.9119,5046
1850.5319,5047
1609.655,5048
1656.859,5049
2130.3208,5050
1812.6064,5051
1868.1536,5052
1850.3506,5053
1729.1221,5054
2076.2373,5055
1968.9436,5056
2191.1746,5057
2130.554,5058
2376.1033,5059
1744.305,5060
1565.4395,5061
1979.1819,5062
1778.8242,5063
2251.0754,5064
1953.4591,5065
2125.515,5066
2003.9172,5067
1873.9883,5068
1440.71,5069
1670.7836,5070
1338.9712,5071
1562.6783,5072
2031.6683,5073
1956.5845,5074
1780.8271,5075
2116.3647,5076
1791.0741,5077
2180.307,5078
1998.0087,5079
1951.2433,5080
1514.2117,5081
1931.4987,5082
1651.8052,5083
1895.0327,5084
1669.0798,5085
1544.3303,5086
1939.6497,5087
1785.4753,5088
2028.2516,5089
1694.7616,5090
1699.0269,5091
1615.6312,5092
2007.7385,5093
2012.6942,5094
1809.0303,5095
1838.2029,5096
1528.814,5097
1917.322,5098
1424.331,5099
1371.5736,5100
2296.759,5101
1961.3735,5102
1996.1111,5103
1988.8738,5104
1951.4313,5105
2161.5881,5106
1953.6619,5107
2049.733,5108
2030.755,5109
2291.755,5110
1840.0312,5111
1896.8333,5112
1627.8835,5113
1600.3352,5114
2477.0715,5115
2453.8843,5116
2487.4863,5117
2227.7708,5118
2047.046,5119
1798.8428,5120
1877.5868,5121
2042.2017,5122
1698.9246,5123
2350.6975,5124
2296.418,5125
1941.0955,5126
1755.8983,5127
1935.5863,5128
2255.001,5129
2273.9841,5130
1950.4667,5131
2293.3672,5132
2489.5913,5133
2172.6616,5134
2088.4917,5135
1818.8695,5136
1758.5667,5137
2600.3376,5138
2151.7715,5139
2316.5193,5140
2312.7825,5141
2111.5505,5142
1522.6965,5143
1609.7059,5144
1846.4796,5145
1729.4387,5146
2711.3396,5147
2199.7842,5148
1798.1116,5149
1646.1841,5150
1691.8441,5151
1890.6172,5152
1759.0575,5153
1687.2047,5154
1985.1589,5155
1984.5336,5156
1663.1849,5157
1867.5354,5158
1758.8127,5159
1495.9388,5160
2345.519,5161
1962.8457,5162
1597.6298,5163
1662.1523,5164
1850.1248,5165
2225.716,5166
2123.335,5167
1690.2874,5168
1911.926,5169
2270.7263,5170
1725.9884,5171
1713.5927,5172
1606.7124,5173
1526.6367,5174
1896.5502,5175
1989.7064,5176
1866.1549,5177
2048.9463,5178
2066.9883,5179
1686.1005,5180
1916.0544,5181
1911.0602,5182
1611.3014,5183
2237.6516,5184
1789.4569,5185
1808.7736,5186
1636.8901,5187
1673.181,5188
2076.108,5189
1730.4292,5190
1759.723,5191
2041.3389,5192
2004.9646,5193
1910.2878,5194
2230.3994,5195
1946.6113,5196
1612.2721,5197
2450.283,5198
1845.2251,5199
1622.1946,5200
1924.7173,5201
1981.8817,5202
2200.1108,5203
2078.6355,5204
1721.5022,5205
1785.784,5206
2468.825,5207
2155.9434,5208
1956.434,5209
1802.6517,5210
1832.3728,5211
2257.3208,5212
2059.0378,5213
1924.411,5214
2113.0845,5215
2048.903,5216
1887.2782,5217
2140.4958,5218
2144.1248,5219
1962.2683,5220
2373.6162,5221
1959.2119,5222
1903.6425,5223
1709.4894,5224
1832.1306,5225
1956.1823,5226
1634.2561,5227
1609.3597,5228
1776.7992,5229
2480.527,5230
2122.1152,5231
2141.3762,5232
1872.2936,5233
1787.9442,5234
2404.1687,5235
1975.2325,5236
1928.4362,5237
2149.1985,5238
2509.13,5239
2045.064,5240
2108.5337,5241
2094.8506,5242
1831.6073,5243
2664.2874,5244
2195.2053,5245
1929.2246,5246
1721.4241,5247
1719.6625,5248
2395.039,5249
1870.0878,5250
1966.6345,5251
2183.7634,5252
2853.924,5253
2647.5068,5254
2298.7766,5255
2292.4604,5256
1887.796,5257
2759.712,5258
2375.7769,5259
2100.8335,5260
2175.245,5261
2575.6,5262
2510.7666,5263
2315.444,5264
2141.628,5265
2074.1187,5266
2586.5798,5267
2611.453,5268
2295.9922,5269
1826.1136,5270
1848.5524,5271
2742.7078,5272
2464.3413,5273
2428.7383,5274
2558.0205,5275
2708.7314,5276
2131.487,5277
1813.5602,5278
1737.3179,5279
2047.2192,5280
2657.6672,5281
2175.2786,5282
1698.188,5283
1539.6428,5284
1659.602,5285
2416.3816,5286
2526.0034,5287
2429.5354,5288
2442.4758,5289
2608.7449,5290
2030.3425,5291
2086.497,5292
1755.5522,5293
1685.9458,5294
3271.0466,5295
2702.198,5296
2370.2786,5297
2471.1023,5298
2259.676,5299
2374.9539,5300
2502.0803,5301
2207.2766,5302
2139.4119,5303
2355.9036,5304
2316.7039,5305
1835.8085,5306
1456.3961,5307
1881.8862,5308
2803.0671,5309
2684.6167,5310
2593.9395,5311
2854.908,5312
2426.2852,5313
2530.85,5314
2577.9336,5315
1993.2361,5316
1706.0103,5317
2442.4358,5318
2011.1969,5319
1606.6295,5320
1608.4893,5321
2005.9407,5322
2331.1035,5323
2305.668,5324
2436.055,5325
2751.6045,5326
2098.2913,5327
1784.7051,5328
1564.1125,5329
1528.2776,5330
1654.1128,5331
2930.8906,5332
2756.8015,5333
2919.619,5334
3299.8533,5335
2844.9795,5336
2394.142,5337
1995.3503,5338
1951.9113,5339
2045.5406,5340
1985.029,5341
1755.6981,5342
1726.815,5343
1550.6019,5344
2449.4102,5345
3230.167,5346
3105.328,5347
3154.853,5348
3269.6226,5349
2826.4185,5350
2576.1316,5351
2153.93,5352
2135.2546,5353
1953.46,5354
1736.2686,5355
1799.6127,5356
1669.5087,5357
1667.1221,5358
2225.3198,5359
2708.9592,5360
2405.3115,5361
3149.136,5362
2702.2693,5363
1772.2156,5364
1566.2542,5365
1300.1108,5366
1193.2017,5367
1965.1985,5368
2965.8596,5369
2872.5676,5370
3241.2441,5371
3189.8625,5372
3147.591,5373
2775.8613,5374
2390.2607,5375
2607.9353,5376
2672.128,5377
1675.9384,5378
1454.1771,5379
1451.1444,5380
1700.362,5381
3164.5999,5382
3231.1367,5383
3787.9504,5384
3558.4824,5385
3793.3328,5386
2981.667,5387
1927.6727,5388
2039.4146,5389
2159.9695,5390
1731.2788,5391
1356.0463,5392
1387.6783,5393
1328.4069,5394
1256.3639,5395
2745.6433,5396
3004.7427,5397
3516.1353,5398
2947.4065,5399
3109.7625,5400
2444.4673,5401
2175.6777,5402
2117.2004,5403
1771.6049,5404
2274.2249,5405
3417.8364,5406
3407.585,5407
3575.6401,5408
3234.4736,5409
2611.2693,5410
2882.9219,5411
2691.6802,5412
2838.3884,5413
2468.9648,5414
1923.3214,5415
1919.759,5416
1623.1318,5417
1506.2408,5418
2217.0078,5419
2578.6018,5420
2801.771,5421
2426.8386,5422
2330.8887,5423
2382.8325,5424
2835.0522,5425
2432.3657,5426
2385.3794,5427
2407.9727,5428
2113.4172,5429
1975.6732,5430
2001.9283,5431
1968.7705,5432
2355.632,5433
2368.2395,5434
2646.531,5435
2475.8743,5436
2544.928,5437
1870.8586,5438
1852.6552,5439
1700.4836,5440
1645.7124,5441
2322.9377,5442
2242.538,5443
1933.4849,5444
1823.1343,5445
1708.7684,5446
1761.1415,5447
2047.7999,5448
1981.1897,5449
2074.4534,5450
2372.6465,5451
1704.6931,5452
1789.5557,5453
1665.1991,5454
1541.9287,5455
2238.7776,5456
2250.0479,5457
1851.9337,5458
1781.1594,5459
1848.432,5460
2194.2002,5461
2415.8076,5462
2108.2546,5463
2303.4353,5464
2194.4407,5465
1745.4991,5466
1632.9027,5467
1512.1637,5468
1476.1274,5469
2167.4495,5470
2577.8074,5471
2194.141,5472
1996.565,5473
1998.557,5474
1646.652,5475
1558.476,5476
1434.9243,5477
1581.4016,5478
1887.169,5479
1843.2898,5480
1748.3491,5481
1526.748,5482
1374.0951,5483
1848.6605,5484
2002.0491,5485
1601.2117,5486
1996.1401,5487
1879.0118,5488
1303.4661,5489
1526.0391,5490
1470.7406,5491
1349.3723,5492
2426.1147,5493
1768.3278,5494
1573.0867,5495
1530.796,5496
1559.1588,5497
1796.5802,5498
1788.511,5499
1762.5922,5500
1489.8954,5501
2673.6123,5502
1699.2194,5503
1533.1244,5504
1415.1759,5505
1528.038,5506
2013.5281,5507
1905.3046,5508
1960.0842,5509
1711.3586,5510
1965.5281,5511
1612.0459,5512
1470.0529,5513
1306.7568,5514
1440.8156,5515
2319.5679,5516
1743.8258,5517
1567.922,5518
1389.8588,5519
1549.9335,5520
1820.5063,5521
1579.4553,5522
1524.571,5523
1543.2379,5524
2151.5793,5525
1689.2859,5526
1679.4274,5527
1546.0562,5528
1693.8079,5529
2584.9648,5530
2192.7354,5531
2186.2947,5532
2045.3124,5533
1845.4553,5534
2123.4097,5535
2346.9177,5536
1981.7562,5537
1622.6558,5538
1720.5669,5539
1484.0854,5540
1424.1335,5541
1325.549,5542
1477.7183,5543
2288.4731,5544
2159.2385,5545
2285.1729,5546
1947.9375,5547
2111.2822,5548
2139.1328,5549
2111.4058,5550
2041.8547,5551
1967.8302,5552
2275.1147,5553
1524.9097,5554
1633.8771,5555
1466.592,5556
1415.3453,5557
2421.685,5558
2668.9116,5559
2299.965,5560
2066.8354,5561
2181.2256,5562
1819.9612,5563
1715.5924,5564
1520.411,5565
1529.0319,5566
2239.6501,5567
2202.3127,5568
2160.2578,5569
1801.8181,5570
1931.8589,5571
2232.7712,5572
2102.5828,5573
1845.871,5574
1828.9398,5575
2499.2112,5576
2201.5579,5577
2128.2979,5578
1947.1836,5579
1815.1287,5580
2297.5205,5581
2494.8499,5582
2214.9116,5583
2034.9454,5584
2235.8481,5585
1814.583,5586
1689.9156,5587
1608.1764,5588
1610.8529,5589
2344.6035,5590
1985.7366,5591
1884.6415,5592
1897.5406,5593
1710.7974,5594
2056.5952,5595
2110.0496,5596
2044.0913,5597
1896.8529,5598
2287.8613,5599
1889.727,5600
1803.7052,5601
1953.902,5602
1757.3214,5603
2314.6877,5604
2068.4036,5605
1949.9326,5606
1750.3906,5607
1655.9393,5608
2449.5117,5609
2383.7983,5610
2302.837,5611
2101.6465,5612
1965.4148,5613
2214.2488,5614
2082.3354,5615
1942.0208,5616
2008.3358,5617
2659.1147,5618
1898.6903,5619
1811.8395,5620
1619.4404,5621
1868.2589,5622
1629.2185,5623
1709.7883,5624
1657.7328,5625
1709.2468,5626
2053.4973,5627
1768.3318,5628
1892.0953,5629
1864.6312,5630
1833.3881,5631
1799.6583,5632
1562.3707,5633
1811.7238,5634
1289.7374,5635
1936.1127,5636
1575.3494,5637
1772.6992,5638
1703.9608,5639
1632.3125,5640
1874.1019,5641
1647.0723,5642
1742.3461,5643
1744.8511,5644
1816.5879,5645
1876.9781,5646
1986.858,5647
1699.6786,5648
1292.2712,5649
2714.778,5650
2094.3477,5651
2136.7163,5652
2057.2507,5653
1789.2439,5654
2086.2068,5655
1804.6619,5656
1700.7853,5657
1729.4233,5658
2471.1626,5659
2038.8378,5660
1919.6147,5661
1771.3169,5662
1677.3921,5663
2062.0747,5664
2151.9878,5665
2209.8835,5666
2071.4304,5667
1764.8978,5668
1478.5181,5669
1379.0486,5670
1405.3999,5671
1381.4725,5672
2820.4841,5673
2617.6116,5674
2369.3254,5675
2392.802,5676
2237.2952,5677
2282.5051,5678
2434.563,5679
2206.036,5680
2087.705,5681
2853.2146,5682
1860.7115,5683
2200.0977,5684
2466.9644,5685
2508.5344,5686
2774.4912,5687
2646.5315,5688
2318.5017,5689
2117.8096,5690
1916.8793,5691
2575.3848,5692
2305.7583,5693
2114.129,5694
2144.6619,5695
3033.3977,5696
2640.656,5697
2797.6194,5698
2427.4558,5699
2192.521,5700
1706.1881,5701
1796.5258,5702
1612.3655,5703
1590.3818,5704
2196.94,5705
2767.586,5706
2435.0178,5707
2127.2996,5708
2445.7373,5709
2948.9106,5710
2778.137,5711
2657.374,5712
2333.101,5713
1925.4818,5714
2286.109,5715
2084.044,5716
1820.0988,5717
1865.1611,5718
2162.6467,5719
2275.0105,5720
2076.2563,5721
2036.4238,5722
2377.5728,5723
2758.441,5724
2335.7166,5725
2141.8926,5726
2099.6733,5727
1873.261,5728
2443.1777,5729
2442.7092,5730
2219.687,5731
2123.291,5732
2579.282,5733
2598.2034,5734
2368.768,5735
2260.1768,5736
2295.9397,5737
2380.7458,5738
2024.7534,5739
1873.1492,5740
1851.6976,5741
2084.3994,5742
2657.6238,5743
2942.3699,5744
2784.1338,5745
3087.1084,5746
2605.3577,5747
2804.101,5748
2395.6348,5749
2033.9827,5750
2345.3848,5751
1881.9828,5752
1919.471,5753
1918.5411,5754
2442.6597,5755
2543.5762,5756
2889.5996,5757
2673.7651,5758
2708.967,5759
2712.6616,5760
2092.1667,5761
1859.7579,5762
1980.6755,5763
2129.9353,5764
2199.5261,5765
2258.5107,5766
2119.841,5767
2335.4504,5768
2498.064,5769
2424.4753,5770
2480.2166,5771
2313.1985,5772
2131.801,5773
2151.5266,5774
2093.2295,5775
2102.43,5776
1910.5593,5777
1832.8116,5778
2023.3296,5779
2558.345,5780
3100.431,5781
3416.0894,5782
3586.7192,5783
2327.292,5784
2043.9026,5785
1830.8359,5786
1643.7336,5787
2074.3982,5788
1835.2675,5789
2179.7847,5790
2050.2847,5791
2377.6738,5792
2376.1028,5793
2418.649,5794
2772.523,5795
2641.9377,5796
2797.679,5797
2530.7007,5798
2171.3425,5799
2051.9595,5800
2256.8057,5801
2132.0132,5802
2447.1262,5803
2804.9338,5804
2858.752,5805
2125.3257,5806
2525.8037,5807
2615.7522,5808
2216.8062,5809
2084.565,5810
2170.9949,5811
2510.105,5812
2452.1265,5813
2290.4243,5814
2408.2192,5815
2412.8672,5816
3048.98,5817
2996.2551,5818
3266.3003,5819
3956.727,5820
2102.0818,5821
2039.4147,5822
1781.559,5823
1817.328,5824
2511.1985,5825
2359.96,5826
2172.1538,5827
2284.2551,5828
2783.7383,5829
2508.4307,5830
2345.7056,5831
2387.5134,5832
2281.8547,5833
2414.7524,5834
2029.1284,5835
2175.7788,5836
2126.777,5837
2653.3584,5838
2841.2227,5839
2897.6118,5840
2418.1829,5841
2518.183,5842
2815.371,5843
2848.1887,5844
2711.1953,5845
2305.9238,5846
2241.0361,5847
2165.2363,5848
2533.8896,5849
2650.979,5850
2659.7493,5851
2773.4536,5852
2569.7393,5853
2803.4807,5854
3316.236,5855
3401.795,5856
3042.0579,5857
2291.645,5858
1949.0747,5859
1829.8488,5860
1631.476,5861
2773.182,5862
3004.533,5863
3276.6694,5864
3285.6855,5865
3097.2766,5866
2958.0742,5867
2616.0547,5868
2811.6628,5869
2735.0564,5870
2750.7344,5871
2111.1084,5872
2219.9368,5873
2046.6117,5874
2477.1155,5875
2839.9045,5876
3487.2363,5877
3557.4116,5878
3416.8137,5879
3211.59,5880
2886.5208,5881
3415.9722,5882
3021.935,5883
3151.1877,5884
3059.967,5885
2778.3127,5886
3169.866,5887
3553.6692,5888
3859.4485,5889
4198.5864,5890
4424.83,5891
4614.5977,5892
4776.4844,5893
5420.0522,5894
3742.4133,5895
3293.442,5896
3846.4053,5897
4273.4873,5898
4279.133,5899
3541.6003,5900
4225.2285,5901
4255.485,5902
4610.4663,5903
4926.985,5904
5300.681,5905
5488.467,5906
5865.119,5907
4205.457,5908
3563.5354,5909
3053.8442,5910
3794.5347,5911
2388.3716,5912
2214.6084,5913
2551.9377,5914
2690.8696,5915
2769.9138,5916
3368.3464,5917
2696.6055,5918
3119.2256,5919
3071.409,5920
3635.9968,5921
3247.0083,5922
3154.9392,5923
2833.6382,5924
3182.891,5925
2805.2874,5926
2398.6218,5927
2665.953,5928
2681.0989,5929
2817.5505,5930
3423.009,5931
2441.01,5932
2860.7314,5933
3526.7053,5934
3955.7834,5935
2939.4065,5936
3369.5457,5937
3661.971,5938
3615.35,5939
3134.151,5940
2530.756,5941
2886.9495,5942
3023.6816,5943
3219.2979,5944
2773.987,5945
2350.682,5946
2001.1616,5947
2782.6262,5948
2517.1348,5949
2305.1802,5950
3080.7056,5951
3176.085,5952
3298.1558,5953
3887.3965,5954
2711.8135,5955
3019.1028,5956
2983.1074,5957
3648.7488,5958
3172.1855,5959
2842.4255,5960
2867.9392,5961
2984.4658,5962
2378.8833,5963
2631.5105,5964
3365.1843,5965
3131.3843,5966
3744.4802,5967
3964.0762,5968
2656.0435,5969
3152.9282,5970
3609.335,5971
4090.498,5972
2717.7354,5973
2569.9788,5974
2398.569,5975
2661.222,5976
2372.961,5977
2229.2473,5978
3215.334,5979
3129.936,5980
3180.8225,5981
3933.7075,5982
4770.0522,5983
4816.0054,5984
4568.8433,5985
4349.362,5986
3841.3818,5987
4045.901,5988
4304.0796,5989
4745.173,5990
5158.4956,5991
4286.984,5992
4056.825,5993
4233.1396,5994
4006.4067,5995
3703.6814,5996
3565.5789,5997
3812.147,5998
3191.321,5999
4121.781,6000
4227.334,6001
3732.2798,6002
4400.8174,6003
3746.272,6004
3110.4783,6005
2982.2673,6006
2752.0715,6007
2596.054,6008
2258.5703,6009
4315.137,6010
3752.5354,6011
3964.049,6012
3368.8945,6013
3765.7947,6014
3119.244,6015
3020.946,6016
3263.7925,6017
3912.0945,6018
3589.5947,6019
3753.9456,6020
3790.804,6021
3161.5369,6022
3215.913,6023
2476.3386,6024
2202.5012,6025
2068.4675,6026
2123.332,6027
4395.195,6028
4512.0244,6029
4062.7625,6030
3259.9565,6031
2563.0176,6032
3531.0256,6033
2896.9646,6034
3660.0696,6035
3798.2214,6036
3818.5803,6037
4164.6626,6038
3707.1187,6039
4343.8745,6040
2841.0574,6041
2501.9512,6042
2335.5007,6043
2005.5424,6044
1843.6984,6045
1596.0275,6046
3995.6775,6047
3763.363,6048
3795.3665,6049
3772.5254,6050
3569.1567,6051
3187.5059,6052
2768.3276,6053
2691.3306,6054
2868.752,6055
3897.3123,6056
3577.4114,6057
3708.1855,6058
3091.5264,6059
3286.0317,6060
1976.6207,6061
2042.1178,6062
1979.1667,6063
2308.6716,6064
4780.3555,6065
4535.917,6066
3799.9788,6067
3327.512,6068
2542.1145,6069
3006.4595,6070
2993.4036,6071
3709.2673,6072
3586.4814,6073
3425.2559,6074
4074.3745,6075
3255.6108,6076
4379.1465,6077
2581.963,6078
2517.8562,6079
2284.2124,6080
1874.2698,6081
1728.8562,6082
1743.7808,6083
4098.2974,6084
4257.2334,6085
3746.6863,6086
3584.4404,6087
3163.104,6088
3299.8486,6089
2923.6638,6090
2946.1426,6091
3036.7607,6092
3789.4639,6093
3878.3945,6094
3549.694,6095
3356.8086,6096
3620.813,6097
2130.9155,6098
2226.0898,6099
2193.1355,6100
2351.6028,6101
4665.2837,6102
4598.5767,6103
3775.1177,6104
3239.9934,6105
2815.667,6106
3595.0327,6107
3280.375,6108
3408.2017,6109
3701.0283,6110
3574.0508,6111
4232.818,6112
3200.4604,6113
4133.9927,6114
2700.233,6115
2477.2583,6116
2292.7532,6117
2092.4424,6118
1761.1345,6119
2168.9536,6120
4296.969,6121
4076.8945,6122
3713.046,6123
4221.1636,6124
2745.7915,6125
2418.1238,6126
1693.6537,6127
1677.3625,6128
2234.2747,6129
3648.0967,6130
3700.7698,6131
3011.031,6132
2456.4739,6133
2611.3452,6134
2051.2778,6135
2018.1897,6136
2131.8918,6137
2177.8,6138
4310.002,6139
3655.0603,6140
3617.7004,6141
3521.139,6142
4140.6245,6143
2099.7278,6144
2189.6235,6145
1933.6323,6146
1849.6207,6147
3341.1367,6148
3946.3704,6149
3333.7195,6150
3860.9158,6151
3721.3606,6152
2468.5493,6153
2221.9111,6154
1936.9255,6155
1725.1165,6156
2538.683,6157
3838.6943,6158
3830.333,6159
3579.6843,6160
4094.3682,6161
2718.911,6162
2524.481,6163
2551.1943,6164
2744.859,6165
2658.1978,6166
3779.934,6167
3672.5955,6168
3489.9004,6169
3490.6694,6170
3273.175,6171
2287.873,6172
2391.6802,6173
2192.0354,6174
2295.6084,6175
4711.6895,6176
4427.9194,6177
4098.798,6178
2868.1895,6179
2741.0842,6180
3522.2534,6181
3543.1777,6182
3358.684,6183
3997.345,6184
3340.1758,6185
4426.2324,6186
3692.2798,6187
3915.0366,6188
2847.4626,6189
2270.7456,6190
2156.2715,6191
2008.8674,6192
1675.0878,6193
3382.689,6194
4278.5127,6195
4232.0938,6196
3575.5583,6197
3488.0022,6198
2580.6072,6199
2865.5537,6200
2832.5083,6201
2433.1858,6202
2623.8567,6203
3286.8457,6204
3520.651,6205
3719.038,6206
3070.456,6207
2694.5122,6208
2201.9836,6209
2085.4126,6210
1945.1112,6211
2030.6592,6212
4664.4956,6213
4089.3618,6214
3836.7659,6215
2533.189,6216
2801.3223,6217
3050.7056,6218
3067.705,6219
3490.4683,6220
3834.17,6221
3405.4941,6222
4318.9863,6223
3269.275,6224
3424.863,6225
2640.5925,6226
2625.3816,6227
2253.646,6228
2036.0691,6229
1676.1405,6230
3672.2068,6231
4336.5156,6232
3546.9343,6233
3904.4114,6234
3949.8232,6235
2678.1484,6236
2658.4727,6237
2315.6008,6238
2437.4106,6239
2795.8198,6240
3402.803,6241
3212.607,6242
3607.5325,6243
3396.2349,6244
2803.4497,6245
2330.6995,6246
2127.4067,6247
2154.5889,6248
2024.745,6249
4323.1733,6250
4504.401,6251
3730.5198,6252
2918.738,6253
3105.1504,6254
3075.186,6255
3177.9382,6256
3518.5352,6257
3699.8623,6258
3788.5718,6259
4516.4404,6260
3663.7866,6261
3260.5234,6262
2622.7488,6263
4512.7856,6264
4196.0967,6265
3108.693,6266
2613.2983,6267
3189.9675,6268
2791.138,6269
3325.4294,6270
3438.621,6271
3096.4446,6272
3240.9006,6273
2802.8423,6274
2199.5874,6275
2156.927,6276
2777.8948,6277
3205.4485,6278
3870.4775,6279
3906.9978,6280
2666.71,6281
2063.4004,6282
2112.1812,6283
2089.605,6284
1979.7035,6285
2342.0662,6286
4540.8027,6287
3968.72,6288
3215.377,6289
3356.0059,6290
3412.5706,6291
2275.3323,6292
2027.2896,6293
2145.882,6294
2062.8284,6295
4025.8704,6296
3813.9546,6297
3905.0266,6298
3829.0115,6299
3398.154,6300
2059.1426,6301
1650.0337,6302
1686.3992,6303
1957.405,6304
4688.465,6305
4024.524,6306
4003.3152,6307
3779.2244,6308
3830.8503,6309
2783.6343,6310
2902.2834,6311
2828.102,6312
2931.9731,6313
3372.8635,6314
3374.8916,6315
3344.5515,6316
3852.8352,6317
3338.432,6318
2365.8992,6319
2319.6694,6320
2291.3635,6321
2268.3975,6322
2432.7488,6323
4648.057,6324
4083.1646,6325
3398.9465,6326
2959.5227,6327
3077.9329,6328
2836.8318,6329
3601.5461,6330
3862.6028,6331
3781.9224,6332
4059.7273,6333
3851.616,6334
3964.2065,6335
3188.3027,6336
2502.9788,6337
1923.286,6338
1681.3011,6339
1696.1284,6340
1913.831,6341
4200.301,6342
3895.493,6343
3820.303,6344
3963.4639,6345
3682.1006,6346
2865.6338,6347
2823.9453,6348
2819.9968,6349
2897.0227,6350
3331.2666,6351
3310.3472,6352
3336.6282,6353
3664.724,6354
3320.752,6355
1981.7401,6356
2204.7449,6357
2249.0283,6358
2195.991,6359
3005.635,6360
4455.7676,6361
4059.4006,6362
3754.7898,6363
3385.7498,6364
2883.9067,6365
3574.6067,6366
3618.8708,6367
3698.632,6368
3523.6362,6369
4424.1,6370
3639.9978,6371
4302.0195,6372
3242.784,6373
2539.8389,6374
2155.4292,6375
2011.1631,6376
1886.2451,6377
2334.649,6378
4140.469,6379
4593.4717,6380
3862.8135,6381
3512.8164,6382
3668.2437,6383
2932.1758,6384
2553.9958,6385
2525.984,6386
2779.9207,6387
3396.0854,6388
3744.9866,6389
3227.9688,6390
3622.6643,6391
3593.8499,6392
2288.9856,6393
2332.6272,6394
2070.72,6395
2048.244,6396
3848.4766,6397
4160.193,6398
4155.131,6399
3787.5164,6400
3496.096,6401
3482.733,6402
3733.7378,6403
4093.7644,6404
4065.0654,6405
3453.094,6406
4257.755,6407
3703.5884,6408
4325.9243,6409
3006.0864,6410
2637.935,6411
2224.2085,6412
2001.7002,6413
2015.6481,6414
2257.3643,6415
4587.685,6416
4023.3896,6417
3604.8806,6418
3560.987,6419
3471.5164,6420
2502.0862,6421
2100.5925,6422
2309.2886,6423
2038.6066,6424
3668.6624,6425
4232.6533,6426
3318.7322,6427
3226.4438,6428
3107.9734,6429
1964.357,6430
2348.004,6431
2141.914,6432
2316.2197,6433
4183.906,6434
3627.265,6435
4030.4531,6436
3806.071,6437
4048.3347,6438
2875.7957,6439
3048.2317,6440
2740.7317,6441
2480.9272,6442
2544.4185,6443
4297.623,6444
3545.8516,6445
4691.023,6446
3359.171,6447
2702.777,6448
2631.2263,6449
2357.0732,6450
2389.2463,6451
2194.8936,6452
4696.097,6453
3999.1963,6454
4052.8782,6455
3873.3025,6456
3881.2139,6457
2927.6643,6458
2470.4333,6459
2497.2036,6460
2570.4453,6461
3749.789,6462
4220.245,6463
3523.6694,6464
3173.0295,6465
3809.1191,6466
2240.1182,6467
2531.8687,6468
2330.2383,6469
2189.637,6470
4434.911,6471
4169.7173,6472
4177.0664,6473
3585.0015,6474
2976.5051,6475
3693.488,6476
4053.894,6477
3464.77,6478
3685.2185,6479
3606.36,6480
4147.273,6481
3406.5146,6482
4579.4644,6483
2853.819,6484
2535.7734,6485
2568.8672,6486
2083.9011,6487
2068.5017,6488
2259.718,6489
4728.352,6490
3751.302,6491
3461.928,6492
3999.8408,6493
3403.1807,6494
2953.281,6495
2559.8254,6496
2423.2366,6497
2622.1433,6498
3714.6736,6499
3494.706,6500
3623.271,6501
3118.6746,6502
3286.384,6503
2203.351,6504
2204.0547,6505
2068.6282,6506
2566.3167,6507
4753.16,6508
4571.3823,6509
4283.289,6510
3204.437,6511
2613.6304,6512
3593.8076,6513
3424.2373,6514
3431.876,6515
3381.2195,6516
3455.259,6517
4328.6685,6518
3501.73,6519
4036.5364,6520
3082.798,6521
2476.148,6522
2348.738,6523
1858.0994,6524
1834.798,6525
1963.0701,6526
4381.182,6527
3898.576,6528
3948.24,6529
4234.5503,6530
3605.4536,6531
3099.2915,6532
2733.624,6533
2513.032,6534
3062.7388,6535
3408.4114,6536
3581.5144,6537
3954.252,6538
2840.0925,6539
3220.1365,6540
2368.976,6541
2589.6438,6542
2183.0527,6543
2683.7454,6544
4903.0186,6545
4499.848,6546
4084.5225,6547
2899.199,6548
2697.5515,6549
4027.9675,6550
3976.3508,6551
3885.6255,6552
3642.7412,6553
3439.1987,6554
4728.478,6555
3288.3877,6556
4021.6628,6557
2805.251,6558
4374.351,6559
4055.5415,6560
2856.648,6561
2301.3328,6562
2448.1191,6563
3559.0552,6564
3577.953,6565
3845.2942,6566
4247.963,6567
3655.6077,6568
2912.406,6569
2508.7517,6570
2467.074,6571
2044.8107,6572
4000.382,6573
3484.547,6574
3766.4385,6575
2978.087,6576
2436.703,6577
2546.8767,6578
2704.1404,6579
2426.3687,6580
2598.9316,6581
4726.044,6582
4169.769,6583
4220.464,6584
4159.6177,6585
3841.6667,6586
3563.6245,6587
3876.0344,6588
3577.477,6589
3447.3926,6590
3401.2292,6591
4461.521,6592
3753.843,6593
3853.1206,6594
3675.754,6595
2476.1672,6596
2055.2935,6597
2191.261,6598
2254.8813,6599
3103.8804,6600
4697.21,6601
4692.7656,6602
3947.5945,6603
3713.457,6604
2638.8772,6605
2893.3367,6606
2961.1208,6607
2903.6848,6608
2654.489,6609
4153.535,6610
3350.9785,6611
3821.8015,6612
3144.9824,6613
2793.593,6614
2158.8755,6615
2314.3027,6616
2316.4668,6617
2532.3918,6618
5065.713,6619
4639.803,6620
4421.746,6621
3644.5508,6622
2942.572,6623
3915.4844,6624
3289.4954,6625
3606.906,6626
4057.6057,6627
3560.9338,6628
4611.248,6629
3591.3916,6630
3470.6873,6631
2726.7756,6632
1926.0693,6633
2163.4126,6634
1889.6572,6635
1868.0023,6636
3840.1223,6637
3942.168,6638
3750.9583,6639
3577.417,6640
3920.5764,6641
3024.0168,6642
2928.1606,6643
2482.1106,6644
2659.3306,6645
2812.7979,6646
3896.7239,6647
3381.3408,6648
3863.21,6649
3099.2068,6650
2686.6982,6651
2219.546,6652
2181.1262,6653
2153.8618,6654
2205.778,6655
5172.7876,6656
4606.7344,6657
3887.625,6658
3353.065,6659
2929.8997,6660
3108.2366,6661
3073.7856,6662
3501.6519,6663
3412.2954,6664
3225.4998,6665
4648.423,6666
3547.154,6667
3317.8167,6668
2713.858,6669
2073.6804,6670
2092.2124,6671
1942.8813,6672
1874.4602,6673
4006.955,6674
3955.7173,6675
4245.771,6676
3742.6853,6677
3567.3362,6678
2526.0215,6679
2732.687,6680
2722.5132,6681
2486.3354,6682
3169.78,6683
3668.103,6684
3258.0183,6685
3986.0146,6686
3139.9424,6687
2301.7566,6688
1908.2533,6689
2105.6272,6690
2116.4062,6691
2044.2614,6692
5382.7007,6693
5146.69,6694
4181.0386,6695
3232.6506,6696
3457.5972,6697
3016.509,6698
3363.0295,6699
3738.2708,6700
3671.957,6701
3895.0264,6702
4212.314,6703
3419.155,6704
3491.172,6705
2695.5864,6706
1896.4454,6707
2166.3037,6708
1839.6581,6709
1899.3716,6710
3952.7324,6711
3642.6316,6712
3830.8433,6713
3361.5356,6714
3756.8828,6715
2886.7554,6716
2235.2297,6717
2102.7727,6718
1850.1105,6719
2659.445,6720
3484.206,6721
2933.4404,6722
3824.5122,6723
2431.4646,6724
2112.3635,6725
1995.0469,6726
2116.293,6727
2127.7153,6728
2247.638,6729
4891.898,6730
4409.1865,6731
4236.1187,6732
4157.4717,6733
3493.441,6734
1792.4783,6735
1825.1556,6736
1773.0205,6737
1669.8029,6738
3975.4873,6739
4099.0054,6740
4103.3022,6741
3713.8845,6742
3380.54,6743
2047.8014,6744
2699.5984,6745
2009.1082,6746
2115.4404,6747
4592.6855,6748
3808.389,6749
4000.6921,6750
3567.584,6751
3813.3628,6752
2877.6145,6753
2554.3816,6754
2255.2017,6755
2638.5452,6756
3313.5771,6757
3298.4956,6758
3238.551,6759
3762.178,6760
3358.1401,6761
2304.6624,6762
2375.8877,6763
2048.537,6764
1897.039,6765
2528.2847,6766
5021.2983,6767
4964.4004,6768
3860.0283,6769
3024.7878,6770
3014.5347,6771
2840.2805,6772
3224.5325,6773
3880.3018,6774
4027.8906,6775
4118.329,6776
3764.3567,6777
3979.9888,6778
3085.693,6779
2431.444,6780
1979.7246,6781
2138.1572,6782
2258.229,6783
2021.2578,6784
4361.941,6785
3504.9492,6786
3892.9612,6787
3721.1223,6788
3757.0544,6789
2469.3572,6790
2525.715,6791
2621.736,6792
2296.8901,6793
3654.346,6794
3823.5298,6795
3656.5212,6796
4418.7305,6797
3303.9167,6798
2074.519,6799
1961.2721,6800
2004.091,6801
2001.3214,6802
3331.3286,6803
4849.0635,6804
4911.1655,6805
3357.456,6806
2523.7534,6807
2994.1858,6808
2948.2966,6809
3257.7295,6810
3606.2395,6811
3855.485,6812
4226.949,6813
3565.6396,6814
4286.6724,6815
3148.0938,6816
2591.1565,6817
1895.8074,6818
2456.0588,6819
1920.2684,6820
1782.6504,6821
4543.5176,6822
4272.2197,6823
4090.4536,6824
3649.2866,6825
3671.978,6826
2844.4983,6827
2692.7625,6828
2470.48,6829
2515.6646,6830
3397.2922,6831
3837.1775,6832
3797.2776,6833
3697.938,6834
3399.4175,6835
2261.6233,6836
2054.2793,6837
2121.8362,6838
2145.3208,6839
3912.4536,6840
4586.524,6841
4721.5493,6842
3472.709,6843
2830.995,6844
3591.3733,6845
3212.2964,6846
3329.9878,6847
3387.1897,6848
3557.4907,6849
4347.4917,6850
3296.0107,6851
4039.7751,6852
2923.0564,6853
3938.35,6854
3438.4026,6855
3537.2766,6856
2823.2205,6857
2248.182,6858
3498.9863,6859
3171.7688,6860
3510.3513,6861
4315.6987,6862
3515.4924,6863
3650.2366,6864
3497.7297,6865
3176.4927,6866
2567.613,6867
3632.3694,6868
4099.374,6869
3451.5344,6870
3256.65,6871
2501.219,6872
2228.5227,6873
2213.0261,6874
2001.7778,6875
2285.03,6876
4073.9097,6877
3537.276,6878
3910.037,6879
3835.4922,6880
4442.5913,6881
2776.523,6882
2369.5554,6883
1987.2509,6884
2025.4441,6885
2166.4824,6886
4147.313,6887
3745.0205,6888
4255.2866,6889
3547.7378,6890
2679.6394,6891
2416.5103,6892
2304.4443,6893
2410.465,6894
2513.6733,6895
5061.1084,6896
4179.3516,6897
3403.982,6898
4082.2769,6899
3795.6755,6900
3196.535,6901
2574.4907,6902
2561.3457,6903
2586.704,6904
3790.9846,6905
3982.8435,6906
3768.3396,6907
3755.3535,6908
2942.7444,6909
2193.6401,6910
2168.3452,6911
2160.657,6912
2286.3613,6913
4820.0986,6914
4126.457,6915
4096.6733,6916
3431.689,6917
3022.0342,6918
4268.842,6919
3450.8596,6920
3627.4866,6921
3586.5762,6922
3160.3196,6923
4180.1885,6924
3404.8677,6925
4289.767,6926
2714.2795,6927
2666.9702,6928
2555.807,6929
2188.6077,6930
2339.4382,6931
2316.6636,6932
4689.5522,6933
3854.5845,6934
3688.8137,6935
3550.7002,6936
3417.975,6937
3209.0054,6938
2838.8667,6939
2674.0044,6940
2998.0261,6941
3719.849,6942
3970.7432,6943
3518.6392,6944
3501.0955,6945
2841.4675,6946
2223.2822,6947
2150.812,6948
2199.0054,6949
2117.7437,6950
4791.195,6951
4487.865,6952
4152.1772,6953
3581.8936,6954
3152.9329,6955
3387.6748,6956
3317.5798,6957
3064.6746,6958
3430.0928,6959
3249.2014,6960
4221.363,6961
3492.1338,6962
4348.3867,6963
3001.6045,6964
2448.734,6965
2396.8777,6966
2212.6216,6967
2364.539,6968
2571.42,6969
4276.09,6970
3923.6104,6971
3604.6033,6972
3463.8435,6973
3062.7317,6974
2920.4377,6975
2730.3857,6976
2843.8298,6977
2774.348,6978
3715.9717,6979
4088.2947,6980
3587.613,6981
3487.379,6982
2658.3408,6983
2096.4932,6984
2212.035,6985
2052.3215,6986
2184.6335,6987
5050.142,6988
4695.6587,6989
4134.7793,6990
3600.0593,6991
3024.2463,6992
3430.3474,6993
3358.5115,6994
3492.835,6995
3592.0916,6996
3315.1216,6997
4348.6675,6998
3335.2341,6999
4009.5073,7000
2841.696,7001
2350.9675,7002
2164.3098,7003
2107.5642,7004
2188.852,7005
2830.1152,7006
4174.943,7007
3796.2473,7008
3462.0366,7009
3908.8213,7010
2932.6404,7011
2054.247,7012
1967.66,7013
1969.2423,7014
2049.0662,7015
4288.8335,7016
4030.7136,7017
3195.6414,7018
3579.851,7019
1862.2031,7020
2092.4739,7021
2213.9448,7022
2427.9497,7023
2339.775,7024
4844.7812,7025
4007.6523,7026
4001.046,7027
3900.2793,7028
3991.4976,7029
2761.917,7030
2470.53,7031
2407.0938,7032
2300.413,7033
3510.449,7034
3888.1062,7035
3734.3132,7036
4103.9756,7037
3548.047,7038
2079.0227,7039
1988.9377,7040
2148.203,7041
2335.2573,7042
3692.5964,7043
3928.259,7044
3893.3704,7045
3702.8342,7046
4047.8262,7047
2966.8755,7048
2651.0547,7049
2700.0486,7050
2667.4,7051
2487.7424,7052
3813.051,7053
3756.9768,7054
3613.0012,7055
3795.7148,7056
2495.2725,7057
2267.5,7058
2416.6406,7059
2262.5447,7060
2505.4788,7061
5092.29,7062
4958.3213,7063
3860.9924,7064
2744.7358,7065
2688.5322,7066
3344.86,7067
3478.194,7068
3544.5498,7069
3791.8699,7070
3695.7957,7071
4358.2954,7072
3875.4539,7073
3548.3196,7074
2897.5198,7075
2072.557,7076
1893.3395,7077
1994.1554,7078
2232.9417,7079
4469.654,7080
3904.287,7081
4100.608,7082
4048.8,7083
4175.0044,7084
2897.4717,7085
2598.0881,7086
2469.284,7087
2548.4219,7088
3133.4006,7089
3844.5356,7090
3369.509,7091
4007.3289,7092
3810.027,7093
2486.751,7094
2295.3513,7095
2364.696,7096
2172.0461,7097
2239.3647,7098
4786.203,7099
4687.953,7100
3730.7148,7101
2874.3035,7102
2804.3418,7103
3324.8572,7104
3507.8865,7105
3909.9744,7106
4138.7773,7107
3808.2908,7108
4280.4224,7109
3314.5168,7110
3444.9316,7111
3007.5657,7112
1885.2863,7113
1793.8146,7114
1888.6863,7115
2030.8264,7116
4504.594,7117
4114.8037,7118
3934.8093,7119
4128.7847,7120
4204.0444,7121
3452.8435,7122
3069.0635,7123
2918.424,7124
2817.9958,7125
3135.51,7126
3387.3237,7127
3223.6997,7128
3461.974,7129
3448.4824,7130
2478.6926,7131
2407.2012,7132
2340.612,7133
2327.481,7134
2555.877,7135
5035.0825,7136
4592.5303,7137
3326.5515,7138
2717.4922,7139
3169.9834,7140
3684.143,7141
3612.0393,7142
3574.4868,7143
4043.7266,7144
3591.5823,7145
4366.329,7146
3401.2065,7147
3308.066,7148
2749.596,7149
3901.841,7150
3501.0723,7151
3064.7683,7152
3113.6226,7153
3467.7542,7154
3012.5647,7155
3367.8179,7156
3645.8762,7157
3789.9788,7158
3643.4082,7159
3524.0884,7160
2793.6702,7161
2430.635,7162
3850.2598,7163
4210.7656,7164
3981.3657,7165
4502.0547,7166
4497.7627,7167
4202.329,7168
4028.8987,7169
4549.546,7170
4390.2363,7171
5361.685,7172
4348.4956,7173
4352.0303,7174
4235.9976,7175
4408.5815,7176
3829.1204,7177
3734.743,7178
3587.9282,7179
3730.384,7180
3656.789,7181
4401.7744,7182
3769.2266,7183
3714.7842,7184
3770.9744,7185
3567.0398,7186
3166.4714,7187
3136.1191,7188
2460.7544,7189
2533.2896,7190
4463.035,7191
4119.6284,7192
3624.2642,7193
3922.253,7194
3824.0051,7195
3187.7495,7196
3034.4414,7197
3413.9421,7198
3532.1567,7199
3244.1323,7200
3749.1045,7201
3023.795,7202
3398.2793,7203
3444.2786,7204
2388.0754,7205
2277.5457,7206
2295.4915,7207
2311.79,7208
2787.0857,7209
4041.6018,7210
4461.1807,7211
3212.8123,7212
2652.6794,7213
3461.3179,7214
2834.85,7215
3094.7915,7216
3852.528,7217
3991.3054,7218
3985.277,7219
3791.9775,7220
4067.1648,7221
3276.7695,7222
2517.4133,7223
2151.651,7224
2393.5654,7225
1930.0049,7226
1593.7396,7227
4456.8276,7228
3367.1384,7229
3940.681,7230
3524.1616,7231
3664.8813,7232
3110.2283,7233
2786.6113,7234
2870.1438,7235
3248.917,7236
3720.6711,7237
3572.685,7238
3445.7283,7239
3577.0051,7240
3401.654,7241
2260.9863,7242
2231.2134,7243
2172.0193,7244
2457.1025,7245
3452.0806,7246
4331.6636,7247
4257.077,7248
3258.3262,7249
2777.1406,7250
2955.8127,7251
2995.1772,7252
3322.3674,7253
3551.686,7254
3514.6597,7255
4177.0366,7256
3735.5742,7257
4121.427,7258
2907.8254,7259
2577.213,7260
2498.4731,7261
2308.1743,7262
1946.7139,7263
1648.3942,7264
4307.245,7265
3899.8804,7266
4197.1685,7267
3423.6633,7268
3594.444,7269
2598.6602,7270
2914.081,7271
2958.008,7272
2929.1125,7273
3657.4648,7274
3982.789,7275
3220.8594,7276
3262.5596,7277
3621.9734,7278
2268.0994,7279
2315.9106,7280
2138.5967,7281
2148.431,7282
4206.764,7283
4321.669,7284
3997.6653,7285
3200.8857,7286
2659.3997,7287
3762.3125,7288
3132.3699,7289
4032.933,7290
3942.0344,7291
3589.6746,7292
4047.302,7293
3513.9468,7294
4521.0625,7295
2826.231,7296
2285.8193,7297
2417.4475,7298
2122.5454,7299
2072.099,7300
1819.4761,7301
3857.8074,7302
3711.3596,7303
3655.284,7304
3860.655,7305
3335.9285,7306
1858.336,7307
2023.1478,7308
1985.2516,7309
1864.2556,7310
3667.3948,7311
3826.9705,7312
3575.52,7313
2654.3477,7314
2641.3884,7315
2077.2498,7316
2232.595,7317
1990.5471,7318
2254.2976,7319
4524.4,7320
4257.585,7321
3584.161,7322
3439.7637,7323
4010.279,7324
2326.8005,7325
1907.9171,7326
1808.7078,7327
1623.7781,7328
2929.1165,7329
4165.4424,7330
3783.004,7331
4533.2007,7332
3320.4492,7333
2585.2139,7334
2629.2776,7335
2234.684,7336
1995.5522,7337
1667.729,7338
4423.919,7339
3855.4736,7340
3899.5562,7341
3600.0408,7342
3847.0322,7343
3016.8665,7344
2836.9316,7345
2857.2856,7346
2632.5598,7347
3819.923,7348
3700.663,7349
3382.0737,7350
3022.2905,7351
3311.5251,7352
2118.3313,7353
2194.6177,7354
2060.544,7355
2107.956,7356
4364.1313,7357
4906.767,7358
3975.5178,7359
3268.1619,7360
2390.2842,7361
3486.9946,7362
3089.8271,7363
3868.9827,7364
3813.6333,7365
3416.557,7366
4466.383,7367
3430.734,7368
4267.7827,7369
2904.726,7370
2280.7654,7371
2252.1501,7372
1711.2086,7373
1576.363,7374
1784.7134,7375
3950.8423,7376
4322.16,7377
4093.0732,7378
4053.7678,7379
3109.209,7380
3043.2678,7381
2855.3562,7382
2883.7861,7383
2787.4521,7384
3570.0154,7385
3902.664,7386
3627.3816,7387
2992.789,7388
3292.6455,7389
2104.5918,7390
2077.769,7391
2115.6238,7392
1826.8688,7393
4601.829,7394
4466.716,7395
4062.6284,7396
2997.408,7397
2627.0974,7398
3100.5613,7399
2958.4263,7400
3555.559,7401
3427.4883,7402
3581.485,7403
4146.108,7404
3225.268,7405
3817.9646,7406
2573.782,7407
2430.7065,7408
2476.3232,7409
2125.6057,7410
1821.5332,7411
2259.566,7412
3723.7927,7413
3708.7502,7414
3663.9048,7415
3599.7043,7416
2778.417,7417
2974.3748,7418
3039.4841,7419
2737.4739,7420
2832.1155,7421
3686.6753,7422
3734.5444,7423
4041.0845,7424
3359.0757,7425
3118.6372,7426
2186.6616,7427
2038.1539,7428
1971.4927,7429
2272.805,7430
4666.0903,7431
4102.7183,7432
3558.3757,7433
2679.9446,7434
2666.948,7435
3241.252,7436
3216.1492,7437
3445.737,7438
3680.2695,7439
3483.3684,7440
4074.288,7441
3403.3687,7442
3881.5999,7443
2658.66,7444
4274.3823,7445
4132.2095,7446
3068.7358,7447
2145.0298,7448
2379.8608,7449
2923.2058,7450
3335.2385,7451
3461.9658,7452
3584.55,7453
3059.678,7454
3216.3333,7455
2529.5386,7456
2157.2974,7457
2272.0603,7458
3643.5093,7459
3511.5938,7460
4190.284,7461
2623.4841,7462
2427.291,7463
1973.4261,7464
2117.554,7465
1969.7288,7466
2176.693,7467
4804.068,7468
4098.1465,7469
3534.155,7470
3401.1614,7471
3755.4248,7472
2345.9075,7473
2163.669,7474
1879.351,7475
2006.6428,7476
3680.9111,7477
4090.27,7478
3536.672,7479
3832.5479,7480
3352.542,7481
2370.6646,7482
2010.0511,7483
1741.4105,7484
1815.3497,7485
3503.2637,7486
3715.3337,7487
3657.8423,7488
3947.1973,7489
3728.343,7490
3020.3855,7491
2976.91,7492
2676.5684,7493
2516.3757,7494
2730.3652,7495
3398.886,7496
3357.0498,7497
4221.8945,7498
3267.6438,7499
2661.691,7500
2109.03,7501
2049.9878,7502
1974.71,7503
2269.9314,7504
4698.914,7505
4155.8906,7506
3199.7463,7507
2638.3357,7508
2626.233,7509
3057.5896,7510
3192.4182,7511
3434.5925,7512
3846.3447,7513
3423.2056,7514
4599.042,7515
3278.873,7516
3443.8784,7517
2827.0925,7518
2146.5518,7519
2022.7686,7520
1739.9307,7521
1963.401,7522
3786.862,7523
3744.237,7524
3981.9827,7525
3765.3835,7526
3893.4038,7527
2665.5547,7528
2698.236,7529
2687.3093,7530
2915.5825,7531
2980.5557,7532
3609.7332,7533
3310.565,7534
4012.0068,7535
3452.082,7536
2475.0605,7537
2191.4238,7538
2182.5342,7539
2045.6661,7540
2123.414,7541
4826.576,7542
4236.2954,7543
3275.2188,7544
2780.6023,7545
2979.102,7546
2753.8376,7547
3232.4724,7548
3484.4429,7549
3597.6104,7550
3671.565,7551
4176.005,7552
3474.5183,7553
3438.0251,7554
2782.1404,7555
1934.0358,7556
1790.3066,7557
1664.2263,7558
2046.5009,7559
4016.6436,7560
3658.2642,7561
3696.7773,7562
3499.4983,7563
3461.2441,7564
3042.3428,7565
2732.0085,7566
2232.9001,7567
2507.5723,7568
3784.7097,7569
3320.53,7570
3778.0212,7571
3778.572,7572
3304.3066,7573
2190.4436,7574
2041.8048,7575
2082.3572,7576
1874.8135,7577
1970.2108,7578
4604.9575,7579
3985.6013,7580
3068.6794,7581
2938.945,7582
3172.1716,7583
2784.3604,7584
3264.1545,7585
3426.7522,7586
3362.971,7587
3697.6794,7588
3921.9792,7589
3787.618,7590
3141.704,7591
2588.985,7592
2029.4712,7593
1845.1671,7594
1843.1208,7595
2293.6487,7596
4163.243,7597
3906.903,7598
4019.9358,7599
3610.582,7600
3621.9983,7601
2800.767,7602
2647.3662,7603
2310.8804,7604
2420.9534,7605
3293.7593,7606
3246.0964,7607
3984.7358,7608
3522.0283,7609
3245.2446,7610
2237.4329,7611
2032.6228,7612
2134.227,7613
2161.6453,7614
2474.2988,7615
4188.368,7616
3932.176,7617
3933.6821,7618
3763.8662,7619
3127.3616,7620
2380.7954,7621
2537.4407,7622
2705.6008,7623
2588.7124,7624
3849.0188,7625
3596.6614,7626
4323.644,7627
3559.7642,7628
3244.0938,7629
2079.808,7630
1738.9995,7631
1983.6517,7632
2277.6409,7633
4799.7554,7634
4036.819,7635
3836.379,7636
3597.8894,7637
3799.9204,7638
3080.599,7639
2759.7368,7640
2569.5784,7641
2824.3147,7642
3391.067,7643
3310.1243,7644
3639.3967,7645
3510.762,7646
3392.8784,7647
2069.2073,7648
2111.5674,7649
2092.9592,7650
2291.0298,7651
3005.924,7652
4464.5557,7653
3822.4246,7654
3208.3464,7655
2994.1003,7656
3678.433,7657
3768.5994,7658
3736.4236,7659
3877.874,7660
3726.7676,7661
3971.8638,7662
3670.2634,7663
4015.0874,7664
3316.5244,7665
2543.2192,7666
1943.9071,7667
1901.6583,7668
1887.5874,7669
2410.2375,7670
4276.9976,7671
4291.412,7672
3847.4875,7673
3767.8054,7674
3664.8445,7675
3460.4697,7676
3150.4165,7677
2877.8936,7678
2960.496,7679
3586.4004,7680
3345.6182,7681
3365.662,7682
3276.3506,7683
3446.5786,7684
2287.565,7685
2462.227,7686
2193.0952,7687
2423.7893,7688
3976.202,7689
4309.9316,7690
4141.618,7691
3542.1792,7692
3062.4163,7693
3589.589,7694
3587.269,7695
4020.7036,7696
3344.6494,7697
3315.976,7698
3959.759,7699
3622.0996,7700
4395.281,7701
3107.3633,7702
2536.361,7703
2360.828,7704
1902.403,7705
1926.4806,7706
2087.2266,7707
4838.7964,7708
4538.5117,7709
3898.674,7710
3814.7415,7711
4073.4592,7712
3456.5815,7713
2869.4365,7714
2712.889,7715
2804.905,7716
3217.9734,7717
3637.7195,7718
3601.2761,7719
3214.819,7720
3965.49,7721
2415.5027,7722
2661.8179,7723
2342.5906,7724
2525.711,7725
4413.2944,7726
4160.3525,7727
4061.0942,7728
3573.3955,7729
3162.6672,7730
4178.6523,7731
4062.311,7732
4109.356,7733
4069.9863,7734
3827.9187,7735
4189.9595,7736
3520.3467,7737
4153.977,7738
2968.5332,7739
4005.6763,7740
4104.5537,7741
3358.905,7742
2942.1868,7743
2935.2285,7744
3948.1355,7745
3628.8594,7746
3927.188,7747
4263.6553,7748
3708.3494,7749
3403.159,7750
2490.4927,7751
2427.902,7752
2025.2732,7753
3491.9622,7754
4282.399,7755
3733.2417,7756
3676.4543,7757
2655.6472,7758
2601.9336,7759
2754.0583,7760
2442.6677,7761
2638.9893,7762
4497.5186,7763
4452.0913,7764
3768.0771,7765
3288.1284,7766
3452.4902,7767
3806.5554,7768
3517.1494,7769
3820.1025,7770
3341.6848,7771
3478.7444,7772
3890.4219,7773
3739.8745,7774
4268.151,7775
3386.4321,7776
2613.4006,7777
1890.0092,7778
2135.9678,7779
1913.9983,7780
1670.5494,7781
5024.79,7782
4554.6313,7783
4082.8528,7784
4193.911,7785
3104.3318,7786
2962.9297,7787
2980.502,7788
2847.7231,7789
2844.7683,7790
3688.5854,7791
3728.7559,7792
4199.126,7793
4211.502,7794
3149.5144,7795
2327.498,7796
2328.6143,7797
2256.0505,7798
2404.3176,7799
4821.99,7800
4260.3955,7801
3987.8984,7802
2887.532,7803
2593.446,7804
3802.7712,7805
3456.2612,7806
3504.007,7807
3937.6052,7808
3450.911,7809
3897.4277,7810
3331.759,7811
3999.9685,7812
2878.8083,7813
2328.7378,7814
1709.223,7815
1966.5181,7816
2020.5016,7817
1748.1417,7818
4375.794,7819
4418.405,7820
3723.1406,7821
4013.8352,7822
3622.29,7823
3119.9111,7824
2568.08,7825
2637.3774,7826
2747.9375,7827
3764.8982,7828
3648.84,7829
4011.6606,7830
3444.7761,7831
3108.0403,7832
2196.6814,7833
2354.3152,7834
2095.5122,7835
2517.2976,7836
4673.6343,7837
4460.9604,7838
3912.7278,7839
2939.9941,7840
2607.636,7841
3237.8652,7842
3307.6353,7843
3438.178,7844
3631.875,7845
3490.042,7846
4115.82,7847
3237.8494,7848
3965.1292,7849
2863.2432,7850
2061.5024,7851
1864.1434,7852
2039.5387,7853
2017.8427,7854
2575.2144,7855
4201.9453,7856
4740.992,7857
4070.6597,7858
3781.736,7859
3239.7273,7860
2925.656,7861
2705.3088,7862
2434.1575,7863
2518.673,7864
3761.7153,7865
3505.9116,7866
3975.453,7867
3498.771,7868
2749.587,7869
2291.805,7870
2353.1587,7871
2151.725,7872
2414.2898,7873
4805.0522,7874
4103.1914,7875
3886.8953,7876
2866.8884,7877
2663.67,7878
3586.12,7879
3472.636,7880
3871.9302,7881
3542.2695,7882
3222.1904,7883
4641.005,7884
3619.5535,7885
3923.0833,7886
3083.9446,7887
2210.0107,7888
2105.677,7889
2121.6987,7890
2162.6592,7891
3329.145,7892
4127.306,7893
4261.818,7894
3689.38,7895
3711.9526,7896
2470.0686,7897
2300.5168,7898
1891.172,7899
1878.7959,7900
2146.634,7901
4486.362,7902
3423.7036,7903
4137.4917,7904
2862.5664,7905
2679.9512,7906
2133.444,7907
2347.8962,7908
2298.241,7909
2575.726,7910
5054.387,7911
4076.8708,7912
4044.5178,7913
4214.14,7914
3966.8975,7915
2359.7925,7916
2159.5857,7917
2027.3433,7918
1944.954,7919
3422.1895,7920
4145.906,7921
3558.9841,7922
3589.9312,7923
3564.6897,7924
2347.2688,7925
2253.319,7926
2089.3335,7927
1959.6663,7928
3605.9468,7929
4015.6956,7930
4023.8787,7931
4148.849,7932
3747.3438,7933
2876.851,7934
2654.9805,7935
2615.861,7936
2569.1458,7937
2619.7078,7938
3996.125,7939
3505.2466,7940
4279.456,7941
3578.0437,7942
2343.1692,7943
2270.9678,7944
2150.8262,7945
2128.1362,7946
2199.281,7947
5037.257,7948
4349.3696,7949
4040.5261,7950
3023.2747,7951
3153.9695,7952
3177.1858,7953
3063.1924,7954
3218.7988,7955
3325.9355,7956
3572.0144,7957
4660.3335,7958
3612.1523,7959
3541.4463,7960
2911.8813,7961
2110.0713,7962
2158.0344,7963
2121.4812,7964
2027.7607,7965
4085.7888,7966
3944.77,7967
3881.9778,7968
3079.5378,7969
3528.254,7970
2879.7227,7971
2834.3909,7972
2518.5972,7973
2550.3826,7974
3461.6458,7975
3842.981,7976
3570.355,7977
3933.8748,7978
3016.0657,7979
2554.0989,7980
1881.3674,7981
2041.8438,7982
1979.7289,7983
1883.2297,7984
5269.3916,7985
5172.99,7986
4233.5737,7987
3224.1968,7988
3402.1172,7989
3043.494,7990
3207.591,7991
3654.6777,7992
3860.6648,7993
3653.358,7994
4258.0527,7995
3750.6685,7996
3300.1704,7997
2590.9727,7998
2137.9646,7999
2539.4048,8000
2080.0178,8001
1870.2719,8002
4159.217,8003
3906.6707,8004
3899.905,8005
3807.8806,8006
3594.0664,8007
2754.663,8008
2465.9194,8009
2371.497,8010
2520.498,8011
3640.0054,8012
3466.1514,8013
3292.6265,8014
3916.6553,8015
3164.9836,8016
2203.861,8017
2005.6254,8018
1958.8015,8019
1902.987,8020
2379.0571,8021
5259.325,8022
4796.396,8023
3613.7173,8024
3106.4915,8025
3363.646,8026
2916.886,8027
3171.8162,8028
3138.324,8029
3286.1191,8030
3875.0415,8031
4119.0537,8032
3961.4976,8033
3474.6077,8034
2697.6624,8035
3916.481,8036
4103.535,8037
2890.8948,8038
2809.839,8039
3361.188,8040
2805.6562,8041
3347.4133,8042
3269.1409,8043
3335.4692,8044
3679.0671,8045
3303.1902,8046
2598.6833,8047
2237.9185,8048
3117.804,8049
3582.0837,8050
3052.9875,8051
3717.5798,8052
2712.6216,8053
2307.6763,8054
2195.3762,8055
2110.3484,8056
2272.9358,8057
2717.0664,8058
4337.279,8059
3922.5781,8060
3764.0977,8061
4005.055,8062
2941.9849,8063
2238.5156,8064
2170.775,8065
2182.7727,8066
2190.5984,8067
4560.559,8068
4013.38,8069
3969.1328,8070
3967.0488,8071
3142.4368,8072
2267.4197,8073
1997.1945,8074
2164.874,8075
2471.139,8076
4428.963,8077
4205.8716,8078
4138.4766,8079
4080.0657,8080
3812.5615,8081
2826.9832,8082
2798.6978,8083
2847.271,8084
2525.4485,8085
3450.6216,8086
3321.2688,8087
3054.4946,8088
3980.0344,8089
3311.4458,8090
2379.598,8091
2369.4155,8092
2272.8672,8093
2084.0051,8094
3491.16,8095
4548.279,8096
4273.473,8097
3361.162,8098
3251.0295,8099
3321.785,8100
3476.5315,8101
4139.119,8102
3826.2114,8103
3843.3545,8104
4246.9976,8105
3716.059,8106
4209.1187,8107
3157.574,8108
2573.055,8109
2154.065,8110
1778.6819,8111
2219.7676,8112
2419.4033,8113
4528.192,8114
4287.7905,8115
3929.3557,8116
3996.0056,8117
3771.389,8118
3226.0593,8119
3028.293,8120
3209.677,8121
2868.6748,8122
3704.109,8123
3545.5847,8124
3367.4775,8125
3629.657,8126
2944.7512,8127
2247.098,8128
2382.1462,8129
2100.0085,8130
2185.6812,8131
4230.8755,8132
4054.816,8133
4081.468,8134
3447.309,8135
3664.1184,8136
3143.9092,8137
3074.364,8138
3216.563,8139
3526.0393,8140
3304.3113,8141
4420.799,8142
3682.0417,8143
4266.557,8144
2980.4844,8145
2740.391,8146
2150.491,8147
1858.8441,8148
2221.5322,8149
2491.4685,8150
4261.0225,8151
3714.159,8152
3653.9922,8153
3824.4434,8154
3597.2097,8155
3532.792,8156
3053.4792,8157
2877.268,8158
2814.3113,8159
3717.6638,8160
3661.8923,8161
3618.996,8162
3909.2605,8163
3288.9768,8164
2197.584,8165
1916.1387,8166
1962.652,8167
2001.7478,8168
4558.466,8169
4138.7017,8170
4218.5195,8171
3552.5327,8172
3677.7654,8173
3723.757,8174
3333.1887,8175
3652.3577,8176
3534.1553,8177
3307.403,8178
4564.133,8179
3634.7673,8180
4307.683,8181
2931.073,8182
2742.6433,8183
2344.5442,8184
2045.0154,8185
2291.4915,8186
2571.026,8187
4291.907,8188
3752.9612,8189
3418.999,8190
3725.1753,8191
3456.5767,8192
2415.5923,8193
1995.7396,8194
2199.3413,8195
1998.5145,8196
3702.2344,8197
4105.281,8198
3740.465,8199
3375.916,8200
2585.9924,8201
2262.36,8202
2215.031,8203
2143.3162,8204
2259.3406,8205
3967.6184,8206
3870.0532,8207
3798.8337,8208
3874.8237,8209
4094.4304,8210
3306.1902,8211
3265.193,8212
3051.3984,8213
2514.9133,8214
3081.5632,8215
4200.007,8216
3498.3865,8217
3837.4487,8218
3087.892,8219
2613.8552,8220
2489.2795,8221
2210.8298,8222
2288.917,8223
2440.353,8224
4620.885,8225
4018.1448,8226
3734.4941,8227
4355.724,8228
3898.119,8229
3132.5613,8230
2883.2993,8231
3059.5354,8232
3251.0808,8233
4126.1157,8234
4004.6143,8235
3390.1978,8236
3745.903,8237
2612.1877,8238
2564.6619,8239
2884.455,8240
2637.649,8241
2553.3162,8242
4571.904,8243
4370.28,8244
4198.496,8245
3805.2231,8246
4016.5015,8247
4043.2915,8248
3806.5708,8249
3873.1047,8250
3832.933,8251
3352.1028,8252
4548.3364,8253
3580.0579,8254
4356.0415,8255
3536.107,8256
3144.2473,8257
3478.811,8258
3477.3315,8259
4054.8533,8260
4435.3467,8261
4544.3447,8262
4282.555,8263
4469.6006,8264
4578.958,8265
4380.825,8266
5395.1587,8267
5781.472,8268
6006.405,8269
6254.3184,8270
4317.813,8271
4603.6826,8272
4220.6807,8273
4044.832,8274
2722.716,8275
2613.4873,8276
2804.2905,8277
3405.5962,8278
3587.3845,8279
4420.303,8280
4565.0034,8281
4419.3804,8282
4207.2236,8283
4434.1343,8284
3811.733,8285
3348.687,8286
3798.883,8287
4062.2666,8288
3518.4868,8289
3655.9753,8290
3792.7505,8291
3934.0017,8292
4129.138,8293
3312.7493,8294
3732.0415,8295
3688.3398,8296
3672.2378,8297
3401.4297,8298
4301.287,8299
4005.074,8300
4167.766,8301
4168.8193,8302
3034.017,8303
2778.8623,8304
2898.9458,8305
3379.7488,8306
3812.1306,8307
3596.2864,8308
3892.8418,8309
3279.2783,8310
3823.4214,8311
2709.6838,8312
2992.5134,8313
3066.2856,8314
3601.1377,8315
3830.3755,8316
4811.435,8317
4811.158,8318
4330.4526,8319
3996.971,8320
4214.7915,8321
3618.2212,8322
3007.8396,8323
3580.3362,8324
3722.7349,8325
3312.1213,8326
3870.023,8327
4021.303,8328
3691.5828,8329
4278.362,8330
5046.707,8331
5245.441,8332
4704.6846,8333
3978.7979,8334
3599.3538,8335
3165.3015,8336
2937.2312,8337
3238.857,8338
3517.8892,8339
2859.9043,8340
2845.4111,8341
3032.6672,8342
3239.6028,8343
3112.492,8344
4444.9595,8345
5754.7334,8346
6065.7944,8347
6109.3613,8348
5620.438,8349
5688.854,8350
5503.7866,8351
5813.083,8352
6191.741,8353
5537.1826,8354
5568.1416,8355
6155.8555,8356
5989.292,8357
6068.993,8358
5142.64,8359
5255.4937,8360
5203.1895,8361
5583.034,8362
4790.531,8363
4587.263,8364
4605.4307,8365
4722.09,8366
5371.742,8367
4510.9497,8368
4304.1587,8369
4334.8765,8370
4810.837,8371
4765.7095,8372
4348.716,8373
3862.9124,8374
4441.559,8375
4670.7944,8376
3159.2483,8377
3162.465,8378
3083.2158,8379
3731.7664,8380
3656.1304,8381
2845.069,8382
2726.3645,8383
2610.4814,8384
2854.7852,8385
2400.983,8386
2606.3237,8387
2740.48,8388
2488.6907,8389
2868.7012,8390
2681.428,8391
3123.819,8392
2660.8977,8393
2189.6047,8394
2265.824,8395
2381.8325,8396
2518.0042,8397
2266.6792,8398
2317.0269,8399
2250.091,8400
2441.4404,8401
2001.9078,8402
1889.5701,8403
2354.7075,8404
2109.6006,8405
2489.456,8406
1980.9673,8407
2139.384,8408
2101.429,8409
3819.2278,8410
2846.0037,8411
2513.653,8412
2550.3682,8413
2648.1812,8414
2302.813,8415
2168.1104,8416
2131.813,8417
2173.0498,8418
2458.2048,8419
1869.966,8420
1779.971,8421
1778.6711,8422
1740.9379,8423
2360.8625,8424
2449.1152,8425
2369.52,8426
2259.5117,8427
2690.9624,8428
3574.709,8429
2560.6775,8430
2368.7622,8431
2079.2104,8432
1836.0602,8433
1980.2762,8434
2156.0361,8435
2019.3701,8436
2171.776,8437
2279.7314,8438
2121.9902,8439
1920.0034,8440
1827.521,8441
2625.789,8442
2198.3135,8443
2211.5144,8444
2017.6359,8445
1823.728,8446
3633.2087,8447
2692.4453,8448
2149.119,8449
2687.2786,8450
2207.0762,8451
1979.1425,8452
1778.1085,8453
1948.196,8454
1978.1315,8455
2783.3003,8456
1825.1438,8457
1941.9479,8458
2103.5024,8459
2257.0166,8460
2508.5415,8461
2331.3455,8462
2507.2166,8463
2199.167,8464
3120.0867,8465
3481.3887,8466
2342.771,8467
2256.2178,8468
1736.9677,8469
2265.8237,8470
2189.1824,8471
2160.9072,8472
1942.8247,8473
1878.9674,8474
2100.6755,8475
1520.6357,8476
1590.6729,8477
1478.7197,8478
2192.3857,8479
2025.8895,8480
2003.3795,8481
1572.9282,8482
2249.2432,8483
3682.9658,8484
2826.384,8485
2001.1985,8486
2391.9253,8487
2384.7173,8488
1953.7588,8489
1955.1473,8490
2300.23,8491
1527.1588,8492
2725.5015,8493
1603.1377,8494
1657.3751,8495
1412.2074,8496
2305.1458,8497
2554.0242,8498
2540.535,8499
2349.7126,8500
1851.3599,8501
3228.5444,8502
3169.0015,8503
2310.6787,8504
1900.9178,8505
2187.1995,8506
2322.5562,8507
2527.0718,8508
2328.2642,8509
2158.734,8510
2043.4177,8511
2801.6926,8512
1762.706,8513
1946.4495,8514
1740.018,8515
2755.646,8516
2860.712,8517
2252.5293,8518
1942.5739,8519
2451.1206,8520
3664.3057,8521
2577.4773,8522
2006.2368,8523
1924.2932,8524
2513.9766,8525
2205.373,8526
2421.8364,8527
1936.0857,8528
1987.516,8529
2987.7825,8530
1875.3411,8531
1786.0546,8532
1926.6543,8533
2516.7493,8534
2498.478,8535
2328.5579,8536
2002.9657,8537
1894.1643,8538
3674.5771,8539
3017.7373,8540
2480.8723,8541
2242.88,8542
1763.312,8543
1979.6743,8544
1888.82,8545
1663.5312,8546
1768.2606,8547
3275.6165,8548
3002.2822,8549
2751.0076,8550
1853.7764,8551
1517.903,8552
2073.368,8553
1647.9011,8554
1276.9857,8555
1342.8949,8556
2360.7231,8557
3439.9656,8558
2309.767,8559
2108.68,8560
2120.3462,8561
2868.295,8562
2357.8948,8563
2316.88,8564
2130.3867,8565
1911.9753,8566
2776.2751,8567
1991.8909,8568
1767.563,8569
1572.6011,8570
2194.8179,8571
2305.2256,8572
1903.5787,8573
1799.4822,8574
1566.6975,8575
4364.2715,8576
3011.032,8577
2627.309,8578
1965.8124,8579
2260.252,8580
2051.9795,8581
2058.5852,8582
1803.8718,8583
1863.4547,8584
2555.1047,8585
2219.458,8586
1507.3224,8587
1563.1259,8588
2128.2397,8589
2444.8604,8590
2082.4924,8591
1868.4501,8592
1959.1616,8593
2590.2024,8594
4265.6924,8595
2659.6775,8596
2343.0469,8597
2364.9104,8598
2193.3374,8599
2193.7712,8600
1927.9178,8601
1769.669,8602
1952.8021,8603
2896.9226,8604
1780.565,8605
1785.4474,8606
1565.2899,8607
2290.1511,8608
2452.4465,8609
2465.7996,8610
2038.5482,8611
1843.425,8612
4533.132,8613
3258.3682,8614
2514.8833,8615
2541.8232,8616
2530.485,8617
2132.6511,8618
2052.9204,8619
2121.4846,8620
2016.6976,8621
2787.9932,8622
2290.6572,8623
1807.8607,8624
1802.834,8625
2244.5117,8626
2669.8516,8627
2162.729,8628
1926.2031,8629
1894.3649,8630
3199.8647,8631
3765.5857,8632
2685.7986,8633
2056.8528,8634
1988.2817,8635
2605.3162,8636
2733.6047,8637
2707.7346,8638
2479.061,8639
2066.2666,8640
3035.6963,8641
2053.5408,8642
1845.4652,8643
1952.9587,8644
2546.9902,8645
2715.089,8646
2371.086,8647
2467.4333,8648
2197.8716,8649
4532.827,8650
3716.8567,8651
2982.89,8652
2728.9343,8653
2450.1646,8654
2563.6047,8655
2289.8638,8656
2383.775,8657
1817.2899,8658
3237.9424,8659
2014.7561,8660
1770.6451,8661
1687.991,8662
2301.62,8663
3119.4707,8664
2469.0042,8665
2638.6519,8666
2283.2068,8667
3832.658,8668
4491.9053,8669
3240.2007,8670
3120.4778,8671
2445.458,8672
2530.4646,8673
2402.738,8674
1955.4423,8675
1801.6547,8676
2188.7134,8677
2892.6958,8678
1966.4777,8679
1861.7937,8680
1746.3151,8681
2787.053,8682
2836.0713,8683
2354.1777,8684
2431.5427,8685
2635.791,8686
4696.6147,8687
3965.8923,8688
2891.9797,8689
2921.784,8690
2232.178,8691
2286.5361,8692
2295.9548,8693
2032.929,8694
1969.7991,8695
3349.3823,8696
2227.745,8697
2006.8639,8698
1607.4636,8699
2174.7468,8700
3135.0679,8701
2906.0159,8702
2105.3035,8703
1746.5848,8704
4132.951,8705
4243.888,8706
3070.672,8707
2709.502,8708
2508.017,8709
2531.2092,8710
2411.0325,8711
2153.313,8712
2015.8883,8713
2374.8992,8714
2999.7432,8715
1900.1777,8716
1793.7827,8717
1885.7253,8718
3289.887,8719
2924.4429,8720
2358.5134,8721
2577.5967,8722
2889.89,8723
4779.6387,8724
3587.9194,8725
2878.7002,8726
3174.2317,8727
2547.0837,8728
2552.9458,8729
2334.9998,8730
2303.3787,8731
1753.9175,8732
3190.094,8733
2199.5046,8734
1933.5422,8735
1795.8116,8736
2761.886,8737
3258.5857,8738
2708.395,8739
2110.4668,8740
1803.374,8741
4521.251,8742
4006.394,8743
3106.0693,8744
2717.098,8745
2663.5498,8746
2450.1047,8747
2271.6433,8748
1944.005,8749
1691.5092,8750
2884.5776,8751
2862.6807,8752
1945.6505,8753
2162.4004,8754
1996.4551,8755
3045.6436,8756
2657.756,8757
2358.9395,8758
2102.6157,8759
3124.593,8760
4619.7734,8761
3553.2312,8762
2756.6357,8763
2877.07,8764
2542.737,8765
2552.8308,8766
2547.6895,8767
2443.4336,8768
2343.953,8769
3223.5247,8770
1990.1035,8771
2135.8567,8772
1820.3206,8773
2602.4773,8774
3019.4028,8775
2741.932,8776
2710.9895,8777
2277.7698,8778
4672.868,8779
3991.9917,8780
3211.0996,8781
3057.9673,8782
2869.388,8783
2449.4453,8784
2518.4597,8785
2649.6165,8786
1777.0789,8787
2864.0525,8788
2804.7524,8789
1865.2738,8790
1776.7462,8791
1792.233,8792
3269.8716,8793
2924.6057,8794
2541.5198,8795
2055.036,8796
2767.4426,8797
4212.2954,8798
2925.2175,8799
2572.2798,8800
2435.9338,8801
2523.075,8802
1990.2292,8803
2292.4597,8804
2173.3564,8805
2129.3254,8806
3224.7346,8807
2176.0698,8808
1825.9159,8809
2141.7964,8810
2526.614,8811
2602.4395,8812
2099.2034,8813
2140.4163,8814
1985.1772,8815
4556.4146,8816
3200.2559,8817
2510.0984,8818
2155.7302,8819
2016.4097,8820
2308.8098,8821
1935.5226,8822
2146.6436,8823
1744.5398,8824
3078.6362,8825
2457.2163,8826
1783.7192,8827
1946.9221,8828
1901.9694,8829
2765.2932,8830
2026.5168,8831
1938.2944,8832
1630.6528,8833
3453.428,8834
4199.75,8835
2872.8184,8836
2739.2354,8837
2292.3574,8838
2485.615,8839
2300.6455,8840
2147.018,8841
1785.4065,8842
2147.1167,8843
2941.2002,8844
1750.7126,8845
1825.8042,8846
1867.7748,8847
2178.3005,8848
2237.4875,8849
1946.8801,8850
2046.9171,8851
2219.3684,8852
4445.8145,8853
3263.749,8854
2726.1782,8855
2373.9878,8856
2130.2078,8857
2182.8943,8858
1673.3148,8859
2186.8655,8860
2027.3757,8861
3158.9524,8862
2460.3037,8863
1839.2029,8864
1810.2932,8865
2170.6929,8866
2772.3179,8867
2286.4524,8868
2320.8298,8869
2082.7905,8870
3937.7532,8871
4441.833,8872
3101.9734,8873
2623.143,8874
2290.266,8875
2526.346,8876
2054.8394,8877
2326.7144,8878
1799.2812,8879
2300.8477,8880
3142.3916,8881
2104.2288,8882
2198.4463,8883
2190.9297,8884
2599.3857,8885
2575.3804,8886
2172.7095,8887
1688.7802,8888
2206.1877,8889
4362.579,8890
3732.8708,8891
2460.4592,8892
2753.2861,8893
2584.459,8894
2344.8909,8895
2340.9666,8896
1870.5641,8897
1686.4541,8898
3197.464,8899
2143.4592,8900
1834.9546,8901
2046.2441,8902
2345.4602,8903
3123.5295,8904
2403.9604,8905
2464.8337,8906
2116.481,8907
4034.4438,8908
4422.6978,8909
3351.2214,8910
3070.6707,8911
2369.5571,8912
2482.3398,8913
1996.4249,8914
2313.3015,8915
1897.8845,8916
2608.6626,8917
2748.1995,8918
1934.835,8919
1949.7462,8920
1721.0962,8921
2760.9883,8922
2966.2473,8923
2626.2637,8924
2480.339,8925
2619.8984,8926
4406.6714,8927
3159.3113,8928
2412.471,8929
2550.8313,8930
2580.0234,8931
2633.4524,8932
2554.5352,8933
2333.935,8934
2095.2722,8935
2602.203,8936
1900.3499,8937
2268.311,8938
1794.6433,8939
1752.1367,8940
2721.3333,8941
2329.0962,8942
1927.5875,8943
2045.7568,8944
4331.4233,8945
4244.539,8946
3138.8118,8947
2990.8562,8948
1893.9175,8949
2036.7529,8950
2180.1685,8951
1978.9723,8952
2006.8008,8953
2282.6626,8954
2011.2701,8955
1673.5629,8956
1703.6681,8957
1944.6321,8958
2926.2583,8959
2607.7786,8960
2176.1655,8961
2479.9236,8962
2806.7014,8963
4745.88,8964
3374.1382,8965
2906.1235,8966
2734.849,8967
2273.059,8968
2105.2136,8969
2050.2148,8970
2110.7046,8971
1909.2317,8972
2660.1763,8973
1947.17,8974
1954.7462,8975
2186.5046,8976
2697.1123,8977
3020.3904,8978
2377.3743,8979
2139.5266,8980
2199.853,8981
4500.863,8982
4003.334,8983
3198.4043,8984
3046.232,8985
2433.5496,8986
2088.7642,8987
1994.9615,8988
1823.9512,8989
1882.3679,8990
2403.3655,8991
2028.374,8992
1509.559,8993
1786.7273,8994
2027.7512,8995
3100.4092,8996
2308.7263,8997
2039.6879,8998
2109.69,8999
3509.172,9000
4705.798,9001
3348.179,9002
2956.2693,9003
2857.7349,9004
2083.163,9005
2334.5647,9006
1952.7468,9007
1628.9843,9008
1912.76,9009
2723.1084,9010
1939.0652,9011
1794.0708,9012
1855.1656,9013
2878.315,9014
2940.2283,9015
2086.8037,9016
2021.2325,9017
1849.8723,9018
4606.689,9019
4098.1943,9020
2929.0686,9021
2654.1826,9022
2473.3735,9023
1963.606,9024
2052.56,9025
1783.5706,9026
1708.8969,9027
2476.292,9028
1848.1422,9029
1352.2029,9030
1830.0334,9031
1667.7598,9032
3200.912,9033
2293.5613,9034
1978.1951,9035
1826.3987,9036
3911.5652,9037
4522.7407,9038
3462.723,9039
3023.7844,9040
2976.883,9041
2209.3171,9042
2200.5415,9043
2134.8657,9044
1954.336,9045
2073.6975,9046
2882.588,9047
2121.4956,9048
1903.8136,9049
2113.2593,9050
2970.6284,9051
2701.4963,9052
2193.6003,9053
2118.9912,9054
1989.7899,9055
4864.2334,9056
4155.486,9057
3066.5256,9058
3014.8635,9059
2110.9893,9060
2061.2969,9061
2045.3341,9062
1879.4492,9063
1803.0721,9064
2480.2834,9065
1959.3688,9066
1627.6378,9067
1857.9431,9068
1845.1942,9069
3021.6877,9070
2258.412,9071
2231.1929,9072
1900.689,9073
3724.9744,9074
4199.169,9075
3277.2346,9076
2621.95,9077
2525.0723,9078
2321.4106,9079
1910.0135,9080
1669.6344,9081
1639.7817,9082
2175.7695,9083
2395.4688,9084
1642.5712,9085
1550.0337,9086
1539.2762,9087
2471.5957,9088
2318.8682,9089
1841.0486,9090
1581.855,9091
2041.2362,9092
4461.699,9093
3165.0686,9094
2089.108,9095
1957.6835,9096
1814.7833,9097
1727.9545,9098
1652.5884,9099
1469.925,9100
1287.7356,9101
2424.0383,9102
1570.9553,9103
1496.8568,9104
1336.0806,9105
1665.472,9106
3069.5576,9107
2112.7732,9108
1691.0137,9109
1498.3763,9110
3746.0107,9111
3780.3113,9112
2756.0093,9113
2139.3022,9114
2449.2554,9115
1883.5206,9116
1481.8958,9117
1536.603,9118
1318.6578,9119
2381.8193,9120
2196.5493,9121
1283.6123,9122
1386.4941,9123
1471.983,9124
3112.5374,9125
2809.932,9126
1934.1635,9127
1771.8486,9128
2272.4475,9129
4444.263,9130
2881.1648,9131
2132.9443,9132
2159.0725,9133
2041.6558,9134
2209.4084,9135
1795.4167,9136
1512.5209,9137
1946.7073,9138
2764.0354,9139
1917.4911,9140
1633.1481,9141
1450.5994,9142
1518.8588,9143
2392.4944,9144
1457.2607,9145
1312.8402,9146
1318.2883,9147
3632.8113,9148
3598.7117,9149
2599.4792,9150
2038.448,9151
2248.5293,9152
2170.8667,9153
1876.953,9154
1612.3972,9155
1480.2291,9156
2430.6516,9157
2023.8083,9158
1346.1854,9159
1543.3086,9160
1399.8143,9161
2365.879,9162
1719.9169,9163
1386.9169,9164
1591.0033,9165
2405.9453,9166
4353.881,9167
3112.324,9168
2453.0276,9169
2531.9294,9170
1951.094,9171
1988.6763,9172
1664.1581,9173
1524.0101,9174
1761.6173,9175
2499.5115,9176
1885.1007,9177
1771.4822,9178
1654.0123,9179
2618.8726,9180
2694.7239,9181
2167.5432,9182
1965.3052,9183
1612.7843,9184
4130.417,9185
3854.6865,9186
2558.9832,9187
2047.9639,9188
2088.313,9189
2056.7974,9190
1897.1798,9191
1732.7705,9192
1762.7443,9193
2235.9346,9194
1947.5121,9195
1444.0951,9196
1489.8768,9197
1509.728,9198
2867.1775,9199
2614.3962,9200
2207.046,9201
2053.2644,9202
2941.5947,9203
4286.158,9204
2964.6057,9205
2244.0999,9206
2300.4834,9207
2381.6072,9208
2236.8135,9209
2147.8936,9210
1854.2378,9211
1504.3458,9212
2579.8806,9213
1716.8391,9214
1513.0435,9215
1550.3737,9216
2428.9924,9217
2610.279,9218
1921.1138,9219
1811.5582,9220
1865.1841,9221
4554.841,9222
3648.6526,9223
2471.263,9224
2291.5447,9225
1944.9854,9226
1849.5469,9227
1537.944,9228
1539.2521,9229
1861.7247,9230
2739.5388,9231
2173.895,9232
2186.921,9233
2534.1145,9234
2264.363,9235
3150.2253,9236
2297.031,9237
2189.3096,9238
1805.8893,9239
3693.3691,9240
4443.825,9241
3644.1172,9242
3576.9377,9243
3632.9143,9244
2342.9402,9245
2100.2634,9246
1740.6342,9247
1770.2329,9248
2264.7664,9249
2562.9841,9250
2500.3337,9251
2263.1892,9252
2966.1284,9253
2950.0205,9254
2842.3948,9255
2151.8484,9256
2044.0924,9257
3100.8933,9258
4853.1006,9259
4253.4043,9260
3511.7607,9261
3538.2742,9262
2494.0283,9263
2445.904,9264
1864.101,9265
1854.9128,9266
2232.0703,9267
2581.816,9268
2230.534,9269
2521.7969,9270
3178.2795,9271
2670.462,9272
3457.2842,9273
2553.771,9274
2367.014,9275
2151.4785,9276
3962.3594,9277
4420.1226,9278
3651.7441,9279
3682.4402,9280
3638.0242,9281
2624.703,9282
2243.337,9283
1952.9603,9284
1874.5688,9285
2490.52,9286
2746.646,9287
2522.3916,9288
2272.4631,9289
2768.7573,9290
3403.2368,9291
3099.1125,9292
2493.5952,9293
2252.0303,9294
3486.064,9295
5084.2197,9296
4451.2515,9297
3628.4846,9298
3524.4238,9299
2734.4546,9300
2145.6206,9301
2012.3658,9302
2036.0891,9303
2790.8176,9304
3041.6445,9305
2707.1445,9306
3021.0847,9307
3444.0015,9308
2377.6792,9309
3462.3003,9310
2648.2864,9311
2487.4707,9312
2328.811,9313
3992.6233,9314
4380.2144,9315
3611.0913,9316
3912.6272,9317
3499.6562,9318
2490.655,9319
2451.035,9320
2587.1467,9321
2343.8477,9322
2982.5999,9323
2660.1353,9324
2701.8743,9325
2995.203,9326
3257.6582,9327
3138.4087,9328
2907.3203,9329
2533.3513,9330
2692.0857,9331
3086.812,9332
4763.9595,9333
4348.1523,9334
4272.3076,9335
4392.1777,9336
2875.076,9337
2693.176,9338
2519.069,9339
2777.903,9340
3113.1958,9341
3172.579,9342
2762.7905,9343
3013.2239,9344
3725.7324,9345
2982.6934,9346
3343.543,9347
2646.9314,9348
2743.4746,9349
3154.5215,9350
4378.1577,9351
4526.361,9352
3846.2976,9353
4402.9707,9354
3505.211,9355
2717.498,9356
2227.3567,9357
2201.8003,9358
2435.544,9359
2856.887,9360
2742.9155,9361
3061.3245,9362
3356.4082,9363
3471.8533,9364
3474.668,9365
3074.147,9366
2735.61,9367
2727.6926,9368
3246.908,9369
4983.5054,9370
4457.71,9371
4478.064,9372
4722.3315,9373
2809.5269,9374
2616.1897,9375
2597.811,9376
2585.6826,9377
3105.788,9378
2888.705,9379
3204.4739,9380
3356.2344,9381
4028.1084,9382
3327.5464,9383
3647.5115,9384
2885.7312,9385
2656.8228,9386
3663.4348,9387
4437.2827,9388
4391.605,9389
4262.8115,9390
4398.3657,9391
3458.5706,9392
2967.966,9393
2659.53,9394
3026.6658,9395
2833.884,9396
3430.9946,9397
3180.0146,9398
3606.5703,9399
4116.5864,9400
3899.242,9401
3689.0764,9402
3122.1353,9403
2586.0488,9404
2520.377,9405
3585.858,9406
4515.9473,9407
4040.9023,9408
4110.108,9409
4682.8735,9410
3435.2847,9411
2671.533,9412
3017.4243,9413
3103.946,9414
3316.8137,9415
3504.7708,9416
3934.933,9417
3952.9595,9418
4704.467,9419
4003.3772,9420
3315.975,9421
3140.9038,9422
3447.7686,9423
4005.537,9424
4619.0,9425
4322.7896,9426
4300.4375,9427
4884.49,9428
4270.574,9429
4219.6714,9430
4340.8364,9431
4809.2905,9432
5355.6704,9433
4505.319,9434
4267.4272,9435
5240.191,9436
5594.989,9437
5497.237,9438
4662.228,9439
4803.923,9440
5388.9233,9441
5963.215,9442
5305.9907,9443
4874.2524,9444
5784.7573,9445
5865.3633,9446
6288.696,9447
5909.878,9448
6296.1753,9449
6283.1064,9450
6395.0024,9451
4044.175,9452
5149.6646,9453
3935.6,9454
4437.908,9455
2866.142,9456
2197.3694,9457
3019.9214,9458
2920.5999,9459
3587.3806,9460
3637.7827,9461
4580.9907,9462
4390.9805,9463
4326.2803,9464
5044.126,9465
2952.4473,9466
3499.9453,9467
3084.634,9468
2959.5864,9469
2604.9612,9470
2546.9795,9471
2819.9585,9472
2533.7537,9473
3380.5276,9474
3279.0234,9475
4014.182,9476
4050.4258,9477
4243.7275,9478
4508.2236,9479
3066.281,9480
3489.085,9481
3262.638,9482
2931.276,9483
2653.3374,9484
2473.1125,9485
2943.7693,9486
3100.3374,9487
3543.423,9488
2590.9863,9489
3269.0273,9490
2667.252,9491
3025.3293,9492
2917.5527,9493
2196.7578,9494
2965.6372,9495
2768.4414,9496
3466.3867,9497
3550.1804,9498
4360.268,9499
4189.3296,9500
4287.286,9501
5340.672,9502
3012.0293,9503
3130.3394,9504
3011.4668,9505
3084.9736,9506
2807.624,9507
2389.3745,9508
2656.9165,9509
2567.1736,9510
3464.1826,9511
3197.5623,9512
4484.8853,9513
4599.769,9514
4776.594,9515
5284.3633,9516
3113.9207,9517
3138.252,9518
3504.8503,9519
3114.654,9520
3004.956,9521
2507.716,9522
2935.357,9523
3164.3762,9524
3624.596,9525
3764.107,9526
4790.826,9527
4769.376,9528
4093.494,9529
4966.502,9530
4639.998,9531
4360.2783,9532
4856.464,9533
5338.026,9534
5683.5107,9535
4923.37,9536
4933.5913,9537
4922.173,9538
4939.2017,9539
3818.7998,9540
3745.1946,9541
4066.848,9542
4203.419,9543
3717.0107,9544
4278.979,9545
3608.7637,9546
4560.761,9547
3288.323,9548
3215.891,9549
3576.1067,9550
2869.2356,9551
2470.8994,9552
3017.2651,9553
4512.2983,9554
5177.6045,9555
3614.4827,9556
3573.2312,9557
3116.123,9558
3724.7842,9559
3595.3696,9560
3462.0696,9561
4071.5627,9562
3800.2922,9563
3601.6917,9564
3221.1702,9565
2681.7593,9566
3030.6924,9567
2396.9402,9568
2462.4626,9569
2202.5564,9570
2578.1416,9571
4906.3853,9572
4683.435,9573
4443.04,9574
3229.367,9575
3387.3867,9576
2010.6289,9577
2140.6968,9578
1801.1969,9579
1792.1991,9580
3286.3052,9581
4378.2847,9582
3294.5815,9583
3680.1316,9584
2878.046,9585
2629.1423,9586
2892.1602,9587
2271.0671,9588
1665.0032,9589
3171.8037,9590
4581.4053,9591
4933.626,9592
3761.2566,9593
3262.3474,9594
3029.0999,9595
3278.845,9596
2846.3586,9597
3061.004,9598
3176.6206,9599
3616.825,9600
3551.081,9601
3307.8425,9602
2544.9207,9603
2844.2432,9604
2548.7751,9605
2349.1475,9606
2298.339,9607
2617.8428,9608
4848.8647,9609
4478.8887,9610
4154.174,9611
2960.4045,9612
3098.0376,9613
1969.1255,9614
2343.8591,9615
1766.6393,9616
1873.9011,9617
3278.3489,9618
4195.445,9619
3243.771,9620
3603.1667,9621
2895.4412,9622
2485.231,9623
2760.648,9624
2195.693,9625
1662.6232,9626
3740.9668,9627
4653.562,9628
4637.923,9629
3327.7937,9630
3224.7021,9631
2985.607,9632
3014.5435,9633
2766.907,9634
3012.0178,9635
3234.2925,9636
3416.182,9637
3281.8616,9638
3239.619,9639
2719.4065,9640
2690.3005,9641
2491.5867,9642
2361.6904,9643
2163.1355,9644
2190.6768,9645
4572.0005,9646
4499.52,9647
4022.5154,9648
2827.3906,9649
2898.1274,9650
1929.7566,9651
2210.5999,9652
1667.9927,9653
1557.482,9654
3702.964,9655
4466.1733,9656
3408.8108,9657
3686.8196,9658
2888.5698,9659
2452.0144,9660
2523.7131,9661
2150.4282,9662
1786.0243,9663
4337.8125,9664
4938.4995,9665
4364.151,9666
3797.2292,9667
2943.0989,9668
2589.0012,9669
2174.2295,9670
1837.6858,9671
1965.8615,9672
2278.2307,9673
3327.0088,9674
2921.034,9675
3437.8533,9676
2572.2732,9677
2701.788,9678
2389.6252,9679
2343.427,9680
2123.3464,9681
2131.5308,9682
4670.906,9683
4674.943,9684
3994.4087,9685
3058.093,9686
2808.2566,9687
2229.5823,9688
2041.7814,9689
1938.715,9690
1662.3438,9691
3563.2559,9692
4398.6133,9693
3620.3062,9694
3523.48,9695
2903.3699,9696
2987.218,9697
2742.4534,9698
2062.3706,9699
1699.4052,9700
4648.9175,9701
4975.573,9702
4262.0776,9703
3488.6108,9704
3171.9907,9705
3211.803,9706
2942.5913,9707
2668.1492,9708
2530.5723,9709
3130.5442,9710
3456.468,9711
3023.8145,9712
3649.529,9713
2640.1267,9714
2446.3086,9715
2395.1619,9716
2209.8823,9717
2028.3162,9718
2117.4133,9719
4745.9243,9720
4725.608,9721
3675.5598,9722
3030.531,9723
2808.2634,9724
2452.572,9725
1779.7903,9726
1963.3829,9727
1593.5002,9728
3711.239,9729
4066.5854,9730
3573.422,9731
3533.522,9732
2682.705,9733
2578.3765,9734
2682.0974,9735
1994.443,9736
1685.3087,9737
4686.749,9738
4697.7734,9739
3967.7197,9740
3166.845,9741
2633.5364,9742
3722.4773,9743
3616.444,9744
3344.653,9745
2942.903,9746
3775.0562,9747
3672.0295,9748
3314.1606,9749
3378.6033,9750
2694.1343,9751
2491.9937,9752
2261.8174,9753
2160.9011,9754
2046.5706,9755
2341.165,9756
4443.2866,9757
4610.768,9758
3318.5315,9759
2820.1772,9760
2545.3757,9761
2413.9626,9762
1744.592,9763
2097.4937,9764
1632.3589,9765
4172.109,9766
3918.0078,9767
3733.4688,9768
3260.173,9769
2636.4438,9770
2858.243,9771
2656.3547,9772
1883.2639,9773
1712.9956,9774
4894.871,9775
4619.0625,9776
4138.143,9777
2983.6,9778
2891.8257,9779
3572.5479,9780
2660.4355,9781
2453.2156,9782
2715.1653,9783
3354.0398,9784
3919.1692,9785
3040.9536,9786
3290.9385,9787
2537.8772,9788
2310.5596,9789
2453.557,9790
2104.4753,9791
2207.5964,9792
3226.0942,9793
4545.9316,9794
4863.2246,9795
3515.4583,9796
2929.454,9797
2325.0728,9798
2199.3503,9799
1604.7444,9800
1829.7926,9801
1552.3849,9802
4317.619,9803
3531.054,9804
3973.388,9805
3433.9817,9806
3624.1565,9807
4787.945,9808
4265.379,9809
2895.2048,9810
2372.9524,9811
3320.1252,9812
3594.293,9813
3135.6584,9814
1889.5281,9815
2070.6143,9816
3031.5415,9817
2799.2822,9818
2746.1094,9819
1835.5226,9820
3281.2546,9821
3944.1843,9822
3190.3813,9823
2850.255,9824
2573.3567,9825
2160.8364,9826
2402.5146,9827
1964.9119,9828
2018.2915,9829
4092.494,9830
4581.5596,9831
4634.0864,9832
3566.6526,9833
2923.3271,9834
2638.2202,9835
2176.7866,9836
1847.9667,9837
1689.3016,9838
1654.7242,9839
4140.603,9840
3601.1887,9841
4359.1084,9842
3085.92,9843
2511.5493,9844
2852.143,9845
2651.0354,9846
2013.971,9847
1623.3058,9848
4994.673,9849
4763.045,9850
4756.263,9851
3169.0525,9852
2951.9321,9853
3371.1106,9854
2956.1145,9855
2656.4536,9856
3109.4321,9857
3563.8462,9858
3878.57,9859
3724.4934,9860
2953.79,9861
2633.3953,9862
1991.2529,9863
2345.1885,9864
1996.1654,9865
2246.0073,9866
4788.9976,9867
4760.358,9868
4552.512,9869
3819.383,9870
2752.5417,9871
2577.8923,9872
2005.3158,9873
2056.33,9874
1930.0883,9875
2287.5618,9876
4162.342,9877
3515.3884,9878
4392.2065,9879
2933.684,9880
2470.3132,9881
2667.2563,9882
2285.5073,9883
2214.4883,9884
1773.345,9885
4484.3896,9886
4608.2075,9887
3994.9995,9888
2966.0444,9889
2739.4485,9890
3239.2869,9891
2773.8813,9892
3138.0322,9893
3056.104,9894
3591.1057,9895
3932.205,9896
3404.331,9897
2340.8962,9898
2801.2498,9899
2339.3962,9900
2604.7637,9901
2241.44,9902
2134.5518,9903
4924.0254,9904
4931.018,9905
4279.885,9906
3496.419,9907
2694.2363,9908
2589.2065,9909
1856.5748,9910
2102.9214,9911
1638.2969,9912
2675.6921,9913
3914.0098,9914
3244.9304,9915
4396.9414,9916
2765.7202,9917
2634.1553,9918
2889.2288,9919
2128.9636,9920
2044.0717,9921
1756.1426,9922
4513.1504,9923
4738.821,9924
3922.6448,9925
3076.7593,9926
2668.7927,9927
3329.9412,9928
2854.2556,9929
2936.8562,9930
2788.6409,9931
3657.5176,9932
3789.036,9933
3480.4553,9934
2593.3914,9935
2757.45,9936
2332.998,9937
2350.3645,9938
2149.7126,9939
2213.4895,9940
4941.8916,9941
4822.261,9942
4349.772,9943
3428.6409,9944
3010.2341,9945
2274.1912,9946
2286.556,9947
2280.3499,9948
2177.3284,9949
3125.7112,9950
4137.8486,9951
3213.9575,9952
4292.8286,9953
2858.809,9954
2681.4202,9955
2973.4858,9956
2472.716,9957
1929.8148,9958
2155.9243,9959
4349.7114,9960
5043.35,9961
3665.4104,9962
3513.076,9963
2959.2852,9964
2335.1855,9965
2032.677,9966
1678.9954,9967
2306.2505,9968
3731.3232,9969
3849.1882,9970
3300.9404,9971
2519.5933,9972
2910.304,9973
2336.2388,9974
2455.4185,9975
2318.6245,9976
2104.5378,9977
5153.842,9978
4740.2837,9979
4391.3843,9980
3164.751,9981
3213.746,9982
2335.6863,9983
2305.6604,9984
2326.271,9985
2363.7466,9986
3342.4282,9987
4013.542,9988
3416.819,9989
4158.3345,9990
2843.7268,9991
2864.803,9992
3161.4253,9993
2315.754,9994
1933.4789,9995
2516.1145,9996
4420.0557,9997
4708.621,9998
3405.8804,9999
3036.1301,10000
2806.0398,10001
2845.7751,10002
2769.5088,10003
2740.4067,10004
2518.4307,10005
3678.3748,10006
3663.2468,10007
3273.0454,10008
2642.016,10009
2796.109,10010
2580.5325,10011
2474.299,10012
2083.559,10013
2633.8093,10014
5079.7383,10015
4412.737,10016
3937.6497,10017
2949.4143,10018
2975.7688,10019
2673.4265,10020
3504.5137,10021
2889.5056,10022
3282.6472,10023
3544.026,10024
4416.7104,10025
3220.0896,10026
4048.203,10027
2985.9263,10028
2427.313,10029
2761.4338,10030
2155.2573,10031
1670.5466,10032
3094.8052,10033
4471.2725,10034
4724.5405,10035
3938.0923,10036
3557.9941,10037
3220.7124,10038
2604.698,10039
2324.981,10040
2490.6445,10041
2857.2239,10042
3732.8225,10043
3629.48,10044
3182.5396,10045
2542.1694,10046
2832.7703,10047
2586.122,10048
2222.631,10049
2317.9204,10050
2531.3862,10051
4772.5986,10052
4426.6694,10053
4122.9395,10054
2655.616,10055
2733.9126,10056
2985.121,10057
3351.3503,10058
2950.4453,10059
3360.199,10060
3336.4214,10061
4229.434,10062
3249.1533,10063
3391.7317,10064
2951.7332,10065
2706.8704,10066
2654.0723,10067
2288.807,10068
1639.1843,10069
3819.9792,10070
4722.1357,10071
4636.3823,10072
3946.5098,10073
3760.3872,10074
3440.2258,10075
3215.5312,10076
3039.0496,10077
2940.3987,10078
3079.321,10079
3270.1768,10080
3062.4182,10081
3317.4714,10082
2730.4897,10083
2670.3137,10084
2555.9695,10085
2379.2556,10086
2261.093,10087
2419.1257,10088
4719.1553,10089
4356.3877,10090
3771.2136,10091
2786.3955,10092
2784.814,10093
3392.956,10094
3591.931,10095
3320.0923,10096
3593.5325,10097
3553.5322,10098
4239.182,10099
3269.6875,10100
3423.4556,10101
2969.665,10102
4687.828,10103
4047.5422,10104
3356.061,10105
2497.703,10106
3038.7056,10107
4464.907,10108
4255.1616,10109
4338.6724,10110
3632.2222,10111
4050.4258,10112
2851.365,10113
2643.1816,10114
2240.7456,10115
2833.0142,10116
3542.2422,10117
4140.679,10118
4595.399,10119
2677.9878,10120
2643.0852,10121
2627.8699,10122
2684.22,10123
2505.6204,10124
2650.4292,10125
4796.613,10126
4370.39,10127
3550.5962,10128
2882.198,10129
3016.891,10130
3144.3699,10131
3039.65,10132
3571.0552,10133
3153.6523,10134
3916.4453,10135
4335.5312,10136
3548.608,10137
3352.0515,10138
2722.4363,10139
2185.1191,10140
1886.1365,10141
1671.4662,10142
1895.421,10143
4835.5737,10144
4737.508,10145
4668.9146,10146
3612.2893,10147
3386.3835,10148
3539.1492,10149
3067.9778,10150
2868.499,10151
2646.2969,10152
3427.9182,10153
3032.3472,10154
3480.6787,10155
3885.3003,10156
2886.749,10157
2434.5698,10158
2666.9055,10159
2456.2102,10160
2233.4185,10161
2292.7605,10162
4626.101,10163
4021.4688,10164
3276.452,10165
2966.0813,10166
3166.9973,10167
2312.2346,10168
2267.2122,10169
2243.0957,10170
2145.8723,10171
3911.3674,10172
3808.0996,10173
3992.9363,10174
3515.4497,10175
2743.0706,10176
1942.321,10177
1817.2098,10178
1631.5245,10179
2175.9443,10180
4819.7344,10181
4724.251,10182
4139.935,10183
3148.1875,10184
3063.624,10185
3086.9524,10186
2861.6663,10187
2489.6926,10188
2582.7515,10189
3315.1648,10190
3263.6753,10191
3154.7996,10192
3602.286,10193
2980.426,10194
2242.4675,10195
2563.9116,10196
2379.8606,10197
2362.6377,10198
2881.1396,10199
4522.8657,10200
3896.1506,10201
3119.1047,10202
3238.2163,10203
3035.6396,10204
1992.6362,10205
2250.5193,10206
1747.9424,10207
1343.3678,10208
3916.5803,10209
3701.2493,10210
4212.6826,10211
3312.447,10212
2522.8687,10213
2077.03,10214
1754.4509,10215
1826.0997,10216
1964.9905,10217
5107.2085,10218
4930.264,10219
3833.6194,10220
2966.0952,10221
2887.0237,10222
3021.509,10223
2527.1157,10224
2299.5137,10225
2406.0852,10226
3364.848,10227
3109.5728,10228
3338.7595,10229
3011.6514,10230
3224.1062,10231
2143.6804,10232
2521.4592,10233
2218.8237,10234
2059.023,10235
3558.022,10236
4245.8843,10237
4048.5762,10238
3423.9404,10239
3485.4902,10240
3320.54,10241
2100.025,10242
2213.439,10243
1835.4485,10244
1372.248,10245
4443.9395,10246
3341.9878,10247
4111.7686,10248
3163.576,10249
2573.5444,10250
2094.124,10251
2021.5612,10252
1962.5497,10253
2165.3381,10254
4989.948,10255
4791.769,10256
3474.876,10257
2797.006,10258
2762.6555,10259
2393.1624,10260
2200.9858,10261
2035.4639,10262
1599.1865,10263
3380.181,10264
3560.343,10265
3478.2485,10266
3008.4138,10267
3242.2239,10268
2058.509,10269
2439.2102,10270
2027.5267,10271
2079.0562,10272
4096.7085,10273
4154.9316,10274
4113.3696,10275
3233.6128,10276
3110.9878,10277
2804.2212,10278
2127.58,10279
2018.6707,10280
1721.4183,10281
1819.2867,10282
4256.092,10283
3478.141,10284
4321.7437,10285
2841.7031,10286
2510.8438,10287
2228.116,10288
2155.0295,10289
2035.9423,10290
2184.8918,10291
5090.181,10292
4650.4614,10293
3352.3777,10294
2605.1624,10295
2577.0007,10296
3009.0662,10297
2381.547,10298
2518.476,10299
2442.3167,10300
3380.1553,10301
3787.1074,10302
3356.179,10303
2597.0894,10304
3098.422,10305
2253.387,10306
2382.8113,10307
1982.6715,10308
2226.624,10309
4468.195,10310
4305.396,10311
3882.8035,10312
3526.6099,10313
3217.758,10314
2836.0725,10315
2188.3467,10316
1738.6311,10317
1564.3777,10318
2041.5347,10319
4162.9404,10320
3401.8508,10321
4105.7256,10322
2829.7983,10323
2467.125,10324
2702.8806,10325
2126.624,10326
2110.6738,10327
2182.9158,10328
4942.191,10329
4302.594,10330
3265.8843,10331
2419.5364,10332
2607.1145,10333
2898.498,10334
2434.9924,10335
2280.3296,10336
2483.9639,10337
3530.436,10338
3948.2192,10339
3247.954,10340
2654.18,10341
2903.3928,10342
1910.241,10343
2131.9626,10344
1829.1948,10345
2225.506,10346
4602.9917,10347
4454.652,10348
4009.0752,10349
3364.2727,10350
3166.6418,10351
2740.418,10352
2512.7017,10353
1925.2703,10354
1563.0597,10355
3115.6514,10356
4053.6113,10357
3789.6055,10358
3953.2996,10359
2625.093,10360
2560.0112,10361
2672.8792,10362
2121.664,10363
1921.7744,10364
1959.0499,10365
4912.406,10366
4424.3237,10367
3433.2239,10368
3094.9136,10369
3164.1943,10370
2659.187,10371
2416.1936,10372
2223.4927,10373
2220.9956,10374
3803.4258,10375
3705.5522,10376
3623.1858,10377
2357.0986,10378
2980.494,10379
1919.8402,10380
2135.084,10381
1821.3691,10382
2388.8848,10383
4911.8984,10384
4967.623,10385
4420.7715,10386
3202.4536,10387
2903.7693,10388
2502.0906,10389
1914.2318,10390
1550.8411,10391
1427.5375,10392
3185.731,10393
4062.1372,10394
3731.7358,10395
4085.4763,10396
2773.953,10397
4647.145,10398
4277.1855,10399
3301.5051,10400
2739.867,10401
2604.7588,10402
2970.8088,10403
2940.9775,10404
2266.5403,10405
2167.3745,10406
4140.696,10407
2978.4053,10408
2832.4307,10409
2847.4165,10410
2316.415,10411
3687.165,10412
3445.6296,10413
3636.1697,10414
2410.1216,10415
2763.6794,10416
2075.27,10417
2094.995,10418
1957.2998,10419
2170.6116,10420
5460.2876,10421
5178.893,10422
4022.7632,10423
3211.426,10424
2960.9917,10425
2677.07,10426
1939.4131,10427
1570.5048,10428
1676.8684,10429
3190.6492,10430
4159.386,10431
3556.7822,10432
3765.1055,10433
2973.1985,10434
2416.6296,10435
2577.3928,10436
2160.6716,10437
2166.0889,10438
2874.05,10439
4138.337,10440
3855.0225,10441
3227.5752,10442
3518.0178,10443
3349.2,10444
2858.812,10445
2213.2476,10446
2391.9873,10447
2468.322,10448
3843.6653,10449
3089.6235,10450
3703.422,10451
2487.5989,10452
2610.562,10453
2185.952,10454
2218.1978,10455
1987.0352,10456
2328.9563,10457
5025.2847,10458
5023.227,10459
3742.09,10460
3012.982,10461
2762.8582,10462
2525.5247,10463
1833.416,10464
1693.3284,10465
1848.765,10466
3320.362,10467
4272.1714,10468
3409.2458,10469
3803.0906,10470
2884.6172,10471
2060.37,10472
2348.8118,10473
1646.5621,10474
1701.2073,10475
3669.5215,10476
4381.424,10477
3839.1265,10478
3755.4517,10479
3165.56,10480
3301.3708,10481
2732.9243,10482
2252.371,10483
2427.5508,10484
2574.089,10485
3661.6152,10486
3253.734,10487
3709.7498,10488
2596.2412,10489
2457.8271,10490
2263.6436,10491
2205.8079,10492
2013.7697,10493
2207.6274,10494
5036.391,10495
4692.8584,10496
3362.2905,10497
2798.807,10498
2923.8206,10499
2321.0537,10500
2045.053,10501
1785.9523,10502
2220.9824,10503
3641.0356,10504
4036.932,10505
3491.6636,10506
3565.188,10507
2875.2874,10508
2011.4729,10509
2051.5166,10510
1573.7329,10511
1821.8483,10512
4353.1304,10513
4299.4644,10514
4274.27,10515
3579.3552,10516
3532.2827,10517
2926.9475,10518
2574.465,10519
2358.34,10520
2454.1992,10521
2967.3296,10522
3588.6702,10523
3437.5571,10524
3899.2246,10525
2759.0557,10526
2323.853,10527
2544.2104,10528
2186.157,10529
2105.81,10530
2311.2415,10531
4951.278,10532
4214.7485,10533
3222.9492,10534
2760.2827,10535
2921.1973,10536
2423.6387,10537
2366.3306,10538
2406.9407,10539
2309.872,10540
3732.0476,10541
4300.448,10542
3501.002,10543
3518.978,10544
2744.8372,10545
2063.1218,10546
1785.6044,10547
1581.3615,10548
2019.5117,10549
4464.708,10550
4536.617,10551
4105.8843,10552
3586.7683,10553
3069.3884,10554
2540.3853,10555
2326.6194,10556
2274.036,10557
2155.5513,10558
2508.7947,10559
3250.2417,10560
3926.7927,10561
3752.916,10562
2878.2378,10563
2317.517,10564
2469.8652,10565
2218.8027,10566
2331.5994,10567
2411.2388,10568
5106.1865,10569
4207.0405,10570
3055.064,10571
2768.4287,10572
2734.1248,10573
2670.658,10574
2700.3882,10575
3161.3792,10576
2792.5605,10577
3667.7764,10578
4147.781,10579
3657.7551,10580
3284.8188,10581
2575.4177,10582
1938.3455,10583
1701.0703,10584
1522.7522,10585
1840.9719,10586
4929.888,10587
4541.328,10588
4272.8354,10589
3699.4058,10590
3228.001,10591
3136.6829,10592
2602.8079,10593
2262.9402,10594
2201.5232,10595
3668.331,10596
2984.4526,10597
3667.2368,10598
3556.2612,10599
2558.3523,10600
2188.9587,10601
2459.1443,10602
2255.4055,10603
2297.244,10604
2925.4465,10605
4812.583,10606
4148.2207,10607
3178.2405,10608
3047.9404,10609
3212.537,10610
3253.3162,10611
3746.702,10612
4057.7722,10613
3676.2185,10614
4079.6833,10615
4167.9453,10616
3952.9993,10617
4175.8237,10618
3247.6057,10619
2440.3242,10620
2545.0452,10621
2856.3838,10622
4034.151,10623
4957.4126,10624
4769.415,10625
5154.226,10626
4808.11,10627
5005.69,10628
5571.557,10629
5594.0493,10630
5761.048,10631
6171.845,10632
4529.117,10633
4022.02,10634
4039.9583,10635
4410.1387,10636
2613.9915,10637
2335.8225,10638
2706.4663,10639
2563.8801,10640
2830.9988,10641
3482.2087,10642
4754.531,10643
4238.215,10644
3665.9868,10645
3671.0574,10646
3098.8552,10647
3655.1453,10648
2849.122,10649
3080.0417,10650
2976.4912,10651
3682.56,10652
4027.9812,10653
3386.8298,10654
3400.5015,10655
3378.7917,10656
2341.4668,10657
2285.6511,10658
2738.6167,10659
2827.9749,10660
4021.533,10661
4998.103,10662
4243.4976,10663
3297.5242,10664
3529.8188,10665
2389.5928,10666
2043.4596,10667
1601.1107,10668
1833.6907,10669
3086.7937,10670
3235.6965,10671
2641.6118,10672
3194.9187,10673
2825.3652,10674
2341.3403,10675
2994.977,10676
2900.2024,10677
2942.706,10678
3918.094,10679
4275.679,10680
4083.005,10681
3223.6326,10682
3100.8691,10683
3083.5198,10684
3566.3325,10685
2426.9585,10686
2639.3289,10687
2402.1028,10688
3587.0671,10689
3999.081,10690
3351.4333,10691
3545.1384,10692
4594.686,10693
4066.03,10694
3835.366,10695
3852.1565,10696
3194.7415,10697
3034.1677,10698
3027.0503,10699
2348.5706,10700
1491.4652,10701
1564.2601,10702
2303.9204,10703
2284.1167,10704
2124.4775,10705
1690.8253,10706
3660.3228,10707
4780.108,10708
4796.221,10709
4662.767,10710
4348.5005,10711
4012.897,10712
4747.7173,10713
4734.415,10714
5075.3657,10715
5595.497,10716
5094.1855,10717
4862.9854,10718
5073.85,10719
4735.346,10720
4312.8643,10721
3727.0315,10722
4074.8293,10723
4011.7864,10724
4877.6914,10725
4579.625,10726
4001.184,10727
4728.8335,10728
3580.8591,10729
3421.6475,10730
3455.1196,10731
2895.9958,10732
2989.0432,10733
2430.275,10734
4803.0293,10735
4508.2266,10736
4355.7446,10737
3293.5046,10738
3630.6792,10739
3813.4382,10740
3576.5564,10741
3610.7585,10742
4096.714,10743
3767.353,10744
4287.742,10745
3944.5518,10746
2722.1384,10747
2852.8262,10748
2257.733,10749
2302.2358,10750
2199.0134,10751
2485.8591,10752
4898.148,10753
5118.2705,10754
4352.2275,10755
3866.337,10756
2821.4194,10757
2521.7412,10758
1865.6407,10759
1988.3378,10760
1540.0233,10761
3220.508,10762
4232.287,10763
3748.4314,10764
4940.9927,10765
2841.0706,10766
2683.9875,10767
2473.826,10768
2090.5962,10769
1872.26,10770
1541.8187,10771
4808.6313,10772
4757.103,10773
4002.3018,10774
3284.9849,10775
3041.4155,10776
3767.6296,10777
3081.4749,10778
3185.6567,10779
3571.6367,10780
3571.6108,10781
4368.5366,10782
3974.6995,10783
2620.359,10784
2976.2974,10785
2326.7556,10786
2485.7305,10787
2140.8406,10788
2278.862,10789
5321.289,10790
5066.218,10791
4277.6646,10792
3761.5786,10793
3046.9016,10794
2283.797,10795
1797.243,10796
2029.5182,10797
1532.9841,10798
3098.3894,10799
4352.5596,10800
3457.8708,10801
4798.4956,10802
2956.21,10803
2539.268,10804
2722.27,10805
2079.913,10806
1792.508,10807
1751.5564,10808
4625.6724,10809
5164.5156,10810
4011.5132,10811
3568.1438,10812
3058.6797,10813
3997.5098,10814
3473.8047,10815
3509.8643,10816
3851.5068,10817
3740.7932,10818
4401.432,10819
3719.602,10820
2628.616,10821
2881.2698,10822
2312.458,10823
2326.9792,10824
2289.1392,10825
2276.2815,10826
5031.8706,10827
4999.7144,10828
4413.986,10829
3623.1057,10830
3168.1924,10831
1979.0128,10832
2015.2628,10833
1613.2009,10834
1802.6333,10835
3392.7395,10836
4580.328,10837
3513.1777,10838
4355.4644,10839
2983.3904,10840
2568.3528,10841
2559.6208,10842
2209.141,10843
1631.5673,10844
2359.6096,10845
4584.123,10846
5108.348,10847
3759.4028,10848
3523.677,10849
3195.02,10850
2665.9119,10851
1836.6997,10852
1601.4637,10853
1725.2971,10854
3829.8608,10855
3963.718,10856
3424.9683,10857
2639.6772,10858
2985.5613,10859
2381.9897,10860
2389.0615,10861
2213.592,10862
2497.2185,10863
5144.537,10864
4737.071,10865
4385.1084,10866
3070.3528,10867
3319.0015,10868
1878.0771,10869
2264.3945,10870
1658.8086,10871
2044.5923,10872
3413.399,10873
4869.139,10874
3464.7646,10875
4234.2007,10876
2982.328,10877
2688.2944,10878
2708.7144,10879
2192.0784,10880
1545.0077,10881
3242.3176,10882
4601.238,10883
5067.9546,10884
3678.67,10885
3227.5361,10886
3466.0984,10887
4098.543,10888
3518.3665,10889
3538.3264,10890
3791.5107,10891
3686.1982,10892
3851.5613,10893
3572.5383,10894
2727.319,10895
2981.243,10896
2310.357,10897
2233.3657,10898
2270.7124,10899
2377.123,10900
5212.847,10901
4684.026,10902
4814.778,10903
3170.6016,10904
3371.039,10905
1893.9243,10906
2273.5315,10907
1565.7871,10908
1900.7256,10909
3421.3552,10910
4867.0425,10911
3635.3179,10912
4161.1675,10913
3137.692,10914
2592.138,10915
2422.5222,10916
2125.7207,10917
1500.617,10918
4019.7993,10919
4898.529,10920
4958.536,10921
3936.8083,10922
3206.4707,10923
4027.0332,10924
4503.7563,10925
4002.6165,10926
4521.292,10927
3856.4578,10928
3614.111,10929
3590.7214,10930
3579.6184,10931
2728.7437,10932
3012.2253,10933
2348.47,10934
2315.6467,10935
2147.1008,10936
2466.2441,10937
5069.0854,10938
4535.3857,10939
4631.503,10940
3152.0752,10941
3372.5066,10942
1993.1147,10943
1938.2712,10944
1596.932,10945
1735.145,10946
3720.6396,10947
4972.52,10948
3753.3577,10949
3997.3884,10950
2996.1357,10951
2789.497,10952
2627.3948,10953
2208.775,10954
1903.058,10955
4541.1655,10956
5161.5264,10957
4676.3164,10958
4237.105,10959
3106.179,10960
4309.402,10961
4247.5737,10962
3726.7354,10963
3958.7278,10964
3345.4507,10965
3555.317,10966
3004.1746,10967
3773.0247,10968
2831.2034,10969
2962.691,10970
2328.643,10971
2404.498,10972
2220.529,10973
2353.904,10974
4885.521,10975
4809.0737,10976
4336.107,10977
3206.653,10978
3181.2173,10979
2193.7625,10980
1744.313,10981
1667.1588,10982
1498.8584,10983
3817.5427,10984
4756.7256,10985
3993.9006,10986
3999.9673,10987
2983.7158,10988
5087.421,10989
4932.4316,10990
3226.2395,10991
2880.1807,10992
3223.454,10993
3309.7598,10994
2682.4082,10995
2317.141,10996
1505.1409,10997
4262.321,10998
2991.6768,10999
2656.3389,11000
2437.5427,11001
2886.2297,11002
3747.9805,11003
3014.2498,11004
3802.0286,11005
2845.9114,11006
2716.986,11007
2356.139,11008
2301.5461,11009
2322.899,11010
2429.997,11011
4724.897,11012
4988.983,11013
4005.4995,11014
3260.5105,11015
3123.5332,11016
2527.2034,11017
1527.4404,11018
1867.4713,11019
1329.151,11020
4040.7556,11021
4626.1846,11022
3915.6145,11023
3543.4006,11024
2831.193,11025
2869.8005,11026
2933.6199,11027
1904.6274,11028
1768.295,11029
5021.3794,11030
5071.6553,11031
4615.9014,11032
3797.4377,11033
3108.789,11034
5149.6177,11035
5182.879,11036
4746.5024,11037
5123.688,11038
3734.5464,11039
4171.8765,11040
3183.9045,11041
4002.551,11042
2856.9194,11043
2805.6472,11044
2397.944,11045
2436.1687,11046
2335.189,11047
3044.4097,11048
4700.141,11049
5315.647,11050
3698.761,11051
3521.4404,11052
3011.8062,11053
2472.3794,11054
1477.364,11055
1937.4401,11056
1382.6637,11057
4096.4966,11058
4336.396,11059
4225.9194,11060
3628.6375,11061
2731.8213,11062
2424.0461,11063
2660.526,11064
1824.0404,11065
1633.7812,11066
5165.531,11067
4860.256,11068
4715.25,11069
3460.5269,11070
3336.5894,11071
5475.911,11072
5148.4775,11073
5046.2324,11074
5514.6167,11075
3390.2249,11076
4485.7197,11077
3440.0435,11078
3659.8652,11079
2949.5037,11080
2616.2256,11081
2543.3096,11082
2276.0947,11083
2502.617,11084
3832.122,11085
4704.05,11086
5160.037,11087
3841.7507,11088
3274.0527,11089
2954.6394,11090
2252.7476,11091
1616.1299,11092
1654.3937,11093
1387.352,11094
4575.89,11095
4055.0176,11096
4448.736,11097
3509.6172,11098
2729.5317,11099
2512.396,11100
2517.9668,11101
1915.369,11102
1640.9619,11103
5151.728,11104
4745.1675,11105
4991.848,11106
3134.3743,11107
3692.0762,11108
5653.917,11109
5212.9146,11110
5092.1675,11111
4913.4087,11112
3644.915,11113
4552.9546,11114
3564.551,11115
3189.9016,11116
2999.0388,11117
2594.999,11118
2571.3145,11119
2305.1006,11120
2401.5884,11121
4423.789,11122
4945.8413,11123
4996.2246,11124
4052.2915,11125
3138.299,11126
2888.253,11127
1841.1079,11128
1757.6564,11129
1570.8899,11130
1639.5408,11131
4647.5796,11132
3872.6694,11133
4719.4214,11134
3390.137,11135
2743.7751,11136
2586.9875,11137
2205.0562,11138
2028.3722,11139
1534.1704,11140
5077.8613,11141
4598.7334,11142
4887.702,11143
3026.5679,11144
3502.149,11145
1875.2263,11146
2059.0337,11147
1866.5458,11148
1342.5887,11149
3580.999,11150
4915.4355,11151
3842.0159,11152
2846.7922,11153
3001.2642,11154
2556.8777,11155
2625.625,11156
2269.3235,11157
2416.595,11158
4969.605,11159
5202.91,11160
4732.241,11161
4180.021,11162
3025.0007,11163
2728.8713,11164
1745.7014,11165
2003.7821,11166
1409.4507,11167
2604.5303,11168
4493.8584,11169
3893.8823,11170
4993.668,11171
3193.3018,11172
2691.542,11173
2842.212,11174
2180.831,11175
2112.8525,11176
1546.6475,11177
4964.7354,11178
4635.2085,11179
4561.413,11180
3114.0627,11181
3398.0251,11182
6084.401,11183
5443.1416,11184
5860.6294,11185
5964.5093,11186
3820.527,11187
4582.041,11188
4046.6262,11189
2800.5613,11190
2866.8616,11191
2416.5469,11192
2606.7148,11193
2250.4507,11194
2664.4956,11195
5181.671,11196
5277.261,11197
4451.884,11198
4151.9116,11199
2931.1392,11200
2420.92,11201
1663.2557,11202
1848.7467,11203
1441.6372,11204
2973.5862,11205
4549.5444,11206
3555.6343,11207
4949.7256,11208
3057.8318,11209
2745.629,11210
2543.4,11211
2140.6775,11212
1901.3043,11213
1645.01,11214
4798.443,11215
4992.988,11216
4205.799,11217
3421.9211,11218
3492.2402,11219
6202.239,11220
5454.893,11221
5897.962,11222
6043.4814,11223
3947.3718,11224
4366.2295,11225
3945.4211,11226
2616.9973,11227
2972.4163,11228
2392.3691,11229
2574.439,11230
2320.0132,11231
2730.9214,11232
5177.0234,11233
5124.7676,11234
4435.9204,11235
3850.5886,11236
2890.9353,11237
2206.5022,11238
1868.0328,11239
1595.5381,11240
1521.7112,11241
3312.5085,11242
4617.2275,11243
3577.2021,11244
4894.7744,11245
3128.4758,11246
2792.4,11247
2892.1948,11248
2239.028,11249
1732.109,11250
1967.2568,11251
4604.2993,11252
5379.6143,11253
3894.4312,11254
3606.2927,11255
3541.4023,11256
6133.556,11257
6029.914,11258
6282.996,11259
6025.0996,11260
3779.007,11261
4410.349,11262
3829.1282,11263
2499.0132,11264
2988.6523,11265
2354.7214,11266
2520.527,11267
2365.7527,11268
2516.6675,11269
5215.0093,11270
4921.5884,11271
4616.9478,11272
3471.335,11273
3118.6357,11274
1841.6349,11275
2096.242,11276
1498.1892,11277
1733.3483,11278
3264.6309,11279
4812.7324,11280
3529.7617,11281
4472.284,11282
3089.4514,11283
4996.1313,11284
4864.9224,11285
4068.6624,11286
2634.3625,11287
2763.178,11288
2942.2585,11289
3593.562,11290
2391.4749,11291
1992.1968,11292
4420.669,11293
4395.2227,11294
2833.9014,11295
2116.694,11296
2362.3633,11297
3681.1804,11298
4455.0854,11299
4768.5757,11300
4266.887,11301
5013.1704,11302
4918.5396,11303
4936.8667,11304
5234.8003,11305
5759.435,11306
5560.0947,11307
5093.112,11308
5643.8657,11309
5047.2915,11310
5309.94,11311
3779.6384,11312
4843.6562,11313
4083.0413,11314
4884.3276,11315
3154.607,11316
4110.3926,11317
3121.3516,11318
4035.626,11319
3118.4578,11320
3000.9695,11321
3127.5176,11322
2780.0688,11323
2228.1382,11324
3895.2087,11325
4744.311,11326
5197.003,11327
4199.6885,11328
3509.174,11329
4390.69,11330
6085.458,11331
6215.8623,11332
6585.7676,11333
5779.7246,11334
2270.5024,11335
1912.9623,11336
1552.3712,11337
997.1723,11338
1045.2538,11339
939.0949,11340
954.0246,11341
999.41437,11342
1305.1174,11343
5174.115,11344
4638.135,11345
4867.9937,11346
2853.8303,11347
3434.98,11348
1803.0205,11349
2013.8597,11350
1313.4531,11351
1756.112,11352
2702.7063,11353
3668.4585,11354
2268.483,11355
2376.9512,11356
1247.8673,11357
829.84485,11358
613.5999,11359
461.53735,11360
334.92154,11361
4200.475,11362
5008.125,11363
4765.9746,11364
4098.1978,11365
2986.993,11366
4617.012,11367
6007.411,11368
6081.856,11369
6457.805,11370
3461.7024,11371
2148.5095,11372
1613.23,11373
1370.2656,11374
734.19073,11375
507.61737,11376
408.7619,11377
323.80057,11378
301.22525,11379
319.36774,11380
5035.2095,11381
4675.872,11382
4607.512,11383
2910.1216,11384
3313.7173,11385
1938.1572,11386
1706.3654,11387
1390.7281,11388
1449.8418,11389
2685.5583,11390
3634.1064,11391
2380.9202,11392
2288.12,11393
1147.0973,11394
863.49554,11395
573.46136,11396
369.32736,11397
258.7928,11398
4634.7993,11399
5280.6104,11400
4684.2114,11401
4155.354,11402
2918.2876,11403
5162.0894,11404
5983.9365,11405
6238.9272,11406
6336.2603,11407
3219.3901,11408
2085.9648,11409
1299.4878,11410
1378.2451,11411
710.85455,11412
468.5167,11413
374.2088,11414
294.2951,11415
297.66962,11416
359.5818,11417
4986.1914,11418
4789.1035,11419
4244.6665,11420
3136.3672,11421
3163.8691,11422
2274.0613,11423
1533.1056,11424
1602.103,11425
1294.5988,11426
2736.4868,11427
3222.7283,11428
2468.8032,11429
2156.9763,11430
1051.5419,11431
785.66754,11432
542.7018,11433
302.0609,11434
309.04388,11435
4888.472,11436
5229.432,11437
4450.4424,11438
3986.8184,11439
2941.2205,11440
2548.9226,11441
1602.3193,11442
1498.6416,11443
1811.9666,11444
2560.7637,11445
2169.5972,11446
1344.5604,11447
1418.3708,11448
714.69165,11449
477.03638,11450
391.3029,11451
314.57663,11452
313.50156,11453
1470.2513,11454
4718.034,11455
5249.3755,11456
3826.8762,11457
3417.3635,11458
3020.0066,11459
2518.4358,11460
1390.3055,11461
1782.6995,11462
1211.8036,11463
2914.611,11464
3119.9243,11465
2652.3735,11466
2113.2466,11467
1012.1765,11468
1663.3684,11469
1500.4456,11470
705.17377,11471
575.9224,11472
5044.0205,11473
4951.5728,11474
4506.821,11475
3587.4373,11476
3112.4275,11477
5712.098,11478
5938.2817,11479
6323.816,11480
6286.619,11481
2998.3293,11482
2426.4065,11483
1274.9755,11484
1352.8218,11485
656.73334,11486
449.1044,11487
390.63947,11488
295.66913,11489
304.36475,11490
2886.6284,11491
4664.6396,11492
5327.0405,11493
3766.4397,11494
3383.899,11495
2886.4739,11496
2161.143,11497
1380.5627,11498
1628.8776,11499
1167.7356,11500
2985.6165,11501
2732.7004,11502
2802.3362,11503
1888.6005,11504
864.4741,11505
715.4643,11506
514.4398,11507
274.43362,11508
273.78006,11509
5100.2544,11510
4754.238,11511
4788.2866,11512
3223.12,11513
3377.6245,11514
5774.9336,11515
5963.1353,11516
6282.377,11517
6326.25,11518
2911.9587,11519
2743.5488,11520
1459.5011,11521
1211.3953,11522
661.35095,11523
454.4958,11524
398.00327,11525
301.082,11526
330.70593,11527
3930.5847,11528
4747.7246,11529
5081.0005,11530
3811.112,11531
3179.5217,11532
2840.4504,11533
1886.3289,11534
1515.1932,11535
1463.654,11536
1300.5216,11537
3070.5898,11538
2591.9346,11539
3114.4673,11540
1791.8248,11541
1136.6781,11542
1820.1991,11543
1309.2861,11544
820.7905,11545
529.0764,11546
5072.3857,11547
4541.1045,11548
4920.715,11549
2971.4692,11550
3498.272,11551
5935.9053,11552
5947.805,11553
6259.61,11554
6253.5146,11555
2794.7659,11556
2790.0588,11557
1583.0057,11558
1001.2853,11559
633.4347,11560
429.4203,11561
404.7195,11562
283.50153,11563
317.70602,11564
4609.016,11565
5013.932,11566
4845.711,11567
3863.617,11568
2949.918,11569
2799.2756,11570
1701.2129,11571
1718.4777,11572
1386.462,11573
1841.0273,11574
3132.7805,11575
2364.8325,11576
3259.0234,11577
1611.3861,11578
4107.691,11579
4944.5767,11580
3851.1353,11581
3146.1914,11582
2171.585,11583
3156.679,11584
2692.0986,11585
2638.6382,11586
1169.0475,11587
2618.9668,11588
3252.283,11589
3677.1045,11590
2639.577,11591
1647.1967,11592
2719.728,11593
2986.753,11594
2029.8704,11595
1065.1792,11596
1070.4731,11597
790.20624,11598
816.7204,11599
715.4107,11600
795.9513,11601
4907.6006,11602
5208.6484,11603
4697.2153,11604
4175.892,11605
3109.0422,11606
2661.6636,11607
1722.785,11608
1996.7618,11609
1425.1482,11610
2450.3982,11611
2978.8174,11612
2457.234,11613
3633.1335,11614
1662.9325,11615
1536.7821,11616
1778.141,11617
1100.4777,11618
975.28436,11619
587.4238,11620
4833.9697,11621
4744.127,11622
4430.284,11623
3238.8,11624
3523.6555,11625
6204.313,11626
5735.949,11627
6383.434,11628
6373.4814,11629
2709.5542,11630
2948.0515,11631
2160.898,11632
1115.8517,11633
1313.2588,11634
1017.2185,11635
1042.5824,11636
927.3192,11637
1032.854,11638
4896.501,11639
5142.865,11640
4535.3076,11641
3978.3594,11642
3235.1887,11643
2333.4973,11644
1824.3435,11645
1968.7776,11646
1598.4121,11647
2710.6655,11648
3108.0872,11649
2348.5989,11650
3337.7834,11651
1753.5748,11652
1291.7726,11653
1322.5851,11654
889.60815,11655
814.5392,11656
817.9223,11657
4749.126,11658
4992.569,11659
4102.7,11660
3656.0,11661
3642.6335,11662
6256.5737,11663
5890.265,11664
6429.0176,11665
6284.134,11666
2556.6675,11667
2885.6418,11668
2152.4377,11669
1173.4175,11670
1540.2543,11671
1204.4537,11672
1203.5035,11673
1093.874,11674
1297.0063,11675
4976.577,11676
5035.178,11677
4512.638,11678
3624.815,11679
3414.2622,11680
2135.3904,11681
2024.7615,11682
1883.8502,11683
1847.9257,11684
2787.224,11685
3264.4446,11686
2354.3713,11687
3279.9202,11688
1863.043,11689
1445.9951,11690
1547.2866,11691
1147.6992,11692
849.7201,11693
1841.3235,11694
4682.6157,11695
5317.497,11696
3865.499,11697
3981.7014,11698
3777.146,11699
6235.681,11700
6042.8213,11701
6517.134,11702
6212.822,11703
2509.513,11704
2725.4456,11705
2159.633,11706
1461.3765,11707
1774.3395,11708
1436.0836,11709
1417.5997,11710
1354.2795,11711
1569.0123,11712
4967.7896,11713
4790.2095,11714
4827.835,11715
3343.8994,11716
3797.8381,11717
2089.7654,11718
2409.4998,11719
1942.3402,11720
2325.6543,11721
2786.5054,11722
3707.94,11723
2456.4722,11724
3137.6968,11725
2101.1265,11726
1715.4363,11727
1678.817,11728
1446.3535,11729
984.8843,11730
2946.5732,11731
4694.3657,11732
5262.4785,11733
3885.6401,11734
3905.8284,11735
3549.6545,11736
3219.2607,11737
1929.2142,11738
1928.7542,11739
2262.642,11740
2421.4382,11741
2518.4385,11742
2219.1213,11743
1784.5817,11744
2064.1494,11745
1824.4135,11746
1596.3916,11747
1576.2139,11748
1827.464,11749
4940.705,11750
4633.3315,11751
5024.698,11752
3266.0825,11753
4247.599,11754
2140.6926,11755
2620.8225,11756
2079.1023,11757
2599.116,11758
2764.7393,11759
4139.305,11760
2643.6472,11761
3106.646,11762
2367.0642,11763
2277.6504,11764
2156.2205,11765
1867.1869,11766
1212.0295,11767
3666.6548,11768
4921.851,11769
5085.9717,11770
4142.3667,11771
3957.5342,11772
4769.452,11773
6375.072,11774
6471.9067,11775
6524.8086,11776
4933.977,11777
2393.6296,11778
2343.4968,11779
2369.1226,11780
2196.1794,11781
2264.5718,11782
2062.2222,11783
1868.7562,11784
1952.3818,11785
2032.1968,11786
4855.056,11787
4618.581,11788
5031.126,11789
3404.7527,11790
4292.3364,11791
2408.7537,11792
2527.5864,11793
2308.7454,11794
2466.7805,11795
2778.1445,11796
4183.8164,11797
2856.4714,11798
3244.6943,11799
2616.9573,11800
2244.5583,11801
2096.2124,11802
1815.0713,11803
1439.3177,11804
4086.6921,11805
5080.6865,11806
4886.293,11807
4387.276,11808
3978.1084,11809
5411.799,11810
6465.383,11811
6613.0493,11812
6611.6084,11813
5395.001,11814
2713.838,11815
3688.8257,11816
3122.1943,11817
4313.615,11818
3791.4414,11819
5121.9175,11820
6019.5176,11821
6630.6436,11822
6583.964,11823
5055.7754,11824
4654.9126,11825
4581.4634,11826
4284.5522,11827
4638.8438,11828
3293.452,11829
4017.3591,11830
4411.8027,11831
4571.835,11832
4263.7725,11833
5972.2295,11834
6556.3647,11835
6898.8545,11836
7099.41,11837
3463.4854,11838
4407.844,11839
4872.8984,11840
5622.5054,11841
4747.4023,11842
5042.322,11843
5187.54,11844
5291.9766,11845
5422.6323,11846
5477.5625,11847
6341.6797,11848
6322.7676,11849
6379.8423,11850
5770.4526,11851
4738.875,11852
5405.819,11853
4919.3975,11854
5356.0854,11855
4317.5566,11856
5159.5522,11857
5371.8706,11858
5403.425,11859
5249.627,11860
4832.527,11861
4867.917,11862
4426.207,11863
4579.446,11864
3705.7886,11865
4170.0815,11866
4018.0974,11867
4939.439,11868
4499.3213,11869
4390.7637,11870
5365.9893,11871
6277.8994,11872
5528.0957,11873
5304.5522,11874
4795.126,11875
5134.2847,11876
4281.454,11877
4694.979,11878
3565.249,11879
4443.604,11880
3896.5134,11881
4557.2627,11882
4721.7236,11883
4664.6904,11884
3841.6763,11885
4231.0405,11886
4334.552,11887
3340.1526,11888
4261.6284,11889
4186.868,11890
6015.727,11891
4996.79,11892
4568.6016,11893
4486.703,11894
5229.9854,11895
4856.9766,11896
5454.9136,11897
6077.802,11898
6027.4634,11899
6243.7236,11900
5878.643,11901
6015.8936,11902
5783.4062,11903
6190.459,11904
5762.4707,11905
6102.3555,11906
3359.4868,11907
3730.6465,11908
3900.532,11909
3601.261,11910
2985.8237,11911
2712.8896,11912
2828.456,11913
2940.2627,11914
3323.9504,11915
4034.7341,11916
4767.4473,11917
5711.235,11918
4267.079,11919
5227.536,11920
4478.915,11921
4737.249,11922
4674.761,11923
4202.066,11924
2879.7559,11925
2647.0107,11926
1442.493,11927
2128.3606,11928
1024.8417,11929
897.9285,11930
914.0403,11931
964.8836,11932
1066.0612,11933
1678.7871,11934
4376.3784,11935
4809.148,11936
4545.554,11937
2553.5474,11938
3158.1824,11939
3645.161,11940
2359.0574,11941
2977.2676,11942
2732.622,11943
2916.115,11944
2599.2048,11945
2794.5962,11946
1776.9531,11947
861.6071,11948
551.1375,11949
354.1372,11950
305.24182,11951
456.65802,11952
4113.381,11953
4688.4424,11954
4321.6426,11955
3554.0466,11956
2331.825,11957
1832.5629,11958
1555.5605,11959
1297.471,11960
1249.9052,11961
2794.4773,11962
2827.9495,11963
1358.21,11964
1430.356,11965
441.02023,11966
161.10603,11967
146.82127,11968
132.65767,11969
147.96776,11970
2127.3428,11971
4586.195,11972
4819.7773,11973
4312.0527,11974
3022.605,11975
2245.2412,11976
2329.3354,11977
1103.231,11978
1388.6692,11979
3012.3352,11980
2898.9978,11981
2491.528,11982
3075.208,11983
1666.835,11984
740.20807,11985
493.0936,11986
247.93742,11987
247.63509,11988
191.49179,11989
4242.279,11990
5023.1567,11991
4519.1763,11992
3486.684,11993
2744.7607,11994
2414.983,11995
2158.144,11996
1801.6632,11997
2147.0105,11998
2726.7827,11999
3074.856,12000
1429.375,12001
1223.8352,12002
392.96686,12003
130.03499,12004
113.902176,12005
96.241936,12006
96.560356,12007
2873.8564,12008
4789.405,12009
4855.7734,12010
4170.842,12011
3242.213,12012
2161.0525,12013
2294.5366,12014
894.29193,12015
4314.3257,12016
3132.5894,12017
2854.0898,12018
2259.6501,12019
3239.6099,12020
1571.7777,12021
739.5921,12022
477.53165,12023
229.92284,12024
164.19261,12025
167.14381,12026
4383.4316,12027
4942.362,12028
4569.3833,12029
3419.2654,12030
2728.97,12031
2403.928,12032
1814.9503,12033
2445.7258,12034
5177.2114,12035
2651.8628,12036
2942.8782,12037
1594.79,12038
1071.5187,12039
346.83017,12040
126.49621,12041
115.89102,12042
95.557236,12043
94.125244,12044
3484.8943,12045
4604.335,12046
4801.3794,12047
4136.358,12048
3085.2695,12049
2125.229,12050
2414.1072,12051
1212.2295,12052
5758.5786,12053
3161.862,12054
2754.2085,12055
2279.5808,12056
3330.772,12057
1380.8906,12058
747.6679,12059
445.77774,12060
256.40735,12061
188.28247,12062
191.58266,12063
4496.3394,12064
5053.409,12065
4404.5005,12066
3260.281,12067
2696.2046,12068
2373.7344,12069
1532.2837,12070
2812.3215,12071
5672.088,12072
2612.029,12073
2742.1921,12074
1617.3492,12075
954.745,12076
307.91492,12077
123.34606,12078
112.35432,12079
95.11506,12080
95.365906,12081
3817.9663,12082
4641.122,12083
4830.719,12084
4071.847,12085
2949.7383,12086
2211.9812,12087
2510.8184,12088
1317.0789,12089
5828.4995,12090
3101.8254,12091
2818.0364,12092
2161.9182,12093
3119.1697,12094
1298.9443,12095
730.5881,12096
435.91815,12097
260.5966,12098
184.45021,12099
412.7106,12100
4648.828,12101
5003.0264,12102
4426.9146,12103
3256.8577,12104
2612.6108,12105
2369.831,12106
1221.7449,12107
3369.933,12108
5364.881,12109
2632.2773,12110
2398.3467,12111
1732.6332,12112
856.151,12113
265.8667,12114
119.84255,12115
109.167946,12116
94.01386,12117
99.276245,12118
4019.8901,12119
4776.624,12120
4802.706,12121
3846.6748,12122
2859.0476,12123
2279.9094,12124
2541.3125,12125
1543.9443,12126
6071.3867,12127
3002.7559,12128
2962.2307,12129
2149.5288,12130
2771.3162,12131
1249.4984,12132
724.0376,12133
446.1986,12134
330.34274,12135
160.86949,12136
1011.48676,12137
4585.12,12138
4983.65,12139
4333.316,12140
3289.5867,12141
2462.2922,12142
2305.05,12143
963.8645,12144
4039.584,12145
4670.955,12146
2834.2734,12147
2098.3796,12148
1750.7881,12149
740.8173,12150
215.33707,12151
118.308235,12152
107.13186,12153
91.928505,12154
103.14736,12155
4017.5015,12156
4859.144,12157
4642.7754,12158
3766.44,12159
2778.052,12160
2353.7012,12161
2441.5225,12162
1766.0425,12163
6110.1963,12164
2887.089,12165
3243.3342,12166
2150.6511,12167
2608.1682,12168
1160.3291,12169
623.6565,12170
420.7065,12171
276.0348,12172
252.60773,12173
1930.2628,12174
4695.5146,12175
4740.529,12176
4401.725,12177
3268.7134,12178
2310.736,12179
2238.9988,12180
763.92694,12181
4819.3555,12182
3283.1855,12183
2775.999,12184
1860.6838,12185
1966.4707,12186
686.72,12187
191.56432,12188
117.94325,12189
104.61426,12190
92.15068,12191
118.43137,12192
4193.8994,12193
5053.097,12194
4646.3945,12195
3603.1934,12196
2753.7878,12197
2376.9712,12198
2223.1843,12199
2086.8806,12200
6080.088,12201
2778.1057,12202
3425.943,12203
2185.8008,12204
2338.792,12205
1153.4852,12206
616.2397,12207
397.1151,12208
326.6676,12209
166.55586,12210
2694.194,12211
4558.2085,12212
4929.4062,12213
4212.5776,12214
3306.2512,12215
2210.488,12216
2276.6968,12217
842.45935,12218
5298.8975,12219
3489.8198,12220
2675.335,12221
1616.1738,12222
2031.3352,12223
652.07166,12224
174.20712,12225
117.67979,12226
102.21245,12227
91.08411,12228
106.18715,12229
4103.634,12230
5074.1733,12231
4499.3506,12232
3561.502,12233
2781.6582,12234
2451.664,12235
1886.2461,12236
2410.35,12237
5923.823,12238
2790.239,12239
3397.366,12240
2227.0935,12241
2238.7803,12242
1111.3585,12243
571.57574,12244
381.57568,12245
216.76472,12246
290.40036,12247
3293.9802,12248
4518.973,12249
4664.095,12250
4069.5588,12251
3036.7002,12252
2137.862,12253
2371.857,12254
1139.0735,12255
5620.2515,12256
3177.2632,12257
2478.7317,12258
1543.4299,12259
2148.7756,12260
583.81934,12261
155.67152,12262
116.05783,12263
99.04112,12264
92.548256,12265
118.22558,12266
4398.916,12267
5286.755,12268
4498.412,12269
3349.734,12270
2709.6558,12271
2436.7773,12272
1628.2699,12273
2711.0088,12274
5670.3604,12275
2678.4873,12276
3335.7,12277
2368.156,12278
2118.5593,12279
995.9683,12280
545.3774,12281
339.87485,12282
252.98923,12283
171.63766,12284
3736.8398,12285
4492.0513,12286
4870.454,12287
4071.411,12288
2934.225,12289
2186.307,12290
2537.923,12291
1262.4563,12292
5875.044,12293
3130.1929,12294
2439.7903,12295
1422.6538,12296
2041.6368,12297
531.1784,12298
152.307,12299
115.629005,12300
96.38062,12301
90.42494,12302
237.90161,12303
4445.205,12304
4995.3735,12305
4564.236,12306
3335.2297,12307
2591.4055,12308
2369.443,12309
1299.5443,12310
3143.4026,12311
5811.518,12312
2735.727,12313
3009.4463,12314
2499.5425,12315
2033.2311,12316
926.18115,12317
545.94885,12318
286.38464,12319
171.31587,12320
247.19228,12321
3935.6714,12322
4558.147,12323
4533.679,12324
3936.6887,12325
2808.7212,12326
2217.7935,12327
2578.5222,12328
1459.3865,12329
6121.7607,12330
3023.5564,12331
2457.4768,12332
1384.3639,12333
1746.2281,12334
480.95377,12335
147.7775,12336
116.158424,12337
95.82191,12338
91.94038,12339
753.75586,12340
4626.5913,12341
5119.1885,12342
4477.7944,12343
3225.7178,12344
2517.743,12345
2338.4778,12346
1028.8975,12347
3901.0298,12348
5170.4004,12349
2830.881,12350
2762.5413,12351
2657.2866,12352
1872.6425,12353
845.14404,12354
531.188,12355
265.623,12356
248.12424,12357
181.58374,12358
4005.0288,12359
4684.194,12360
4622.2026,12361
3885.0798,12362
2807.701,12363
2287.4604,12364
2455.586,12365
1719.6227,12366
5957.1543,12367
2885.6926,12368
2578.9495,12369
1337.5933,12370
1564.0643,12371
455.17712,12372
141.0041,12373
115.28222,12374
96.697716,12375
92.61728,12376
1615.6356,12377
4715.8315,12378
4954.5044,12379
4330.3584,12380
3261.8655,12381
2299.6584,12382
2246.4702,12383
757.1028,12384
4499.183,12385
3826.4043,12386
3002.2095,12387
2569.0798,12388
2880.9683,12389
1721.9758,12390
776.9926,12391
482.2458,12392
247.44043,12393
160.99919,12394
190.51465,12395
4108.1934,12396
4769.977,12397
4618.9326,12398
3657.4202,12399
2712.7937,12400
2415.1492,12401
2272.8572,12402
1926.294,12403
6113.682,12404
2797.288,12405
2902.457,12406
1445.7129,12407
1292.7697,12408
423.71442,12409
135.1403,12410
114.16265,12411
96.103546,12412
94.00318,12413
2464.7134,12414
4642.1636,12415
4883.2056,12416
4246.8022,12417
3287.5933,12418
2211.21,12419
2267.6013,12420
746.1683,12421
5151.529,12422
3123.5955,12423
2865.0679,12424
2417.5999,12425
3147.2266,12426
1663.7302,12427
723.91376,12428
476.90552,12429
231.67638,12430
237.96973,12431
173.7444,12432
4290.199,12433
5086.823,12434
4522.601,12435
3474.3303,12436
2761.7786,12437
2466.5063,12438
2022.165,12439
2276.9778,12440
5930.5933,12441
2712.016,12442
3055.431,12443
1416.1434,12444
1179.7914,12445
379.6847,12446
128.02025,12447
112.79164,12448
96.98709,12449
94.91934,12450
3136.2756,12451
4724.0605,12452
4743.6797,12453
4197.8115,12454
3187.6736,12455
2214.3381,12456
2342.0352,12457
1018.8162,12458
5517.617,12459
3144.711,12460
2807.265,12461
2254.505,12462
3232.975,12463
1469.5499,12464
743.9239,12465
440.60043,12466
229.68279,12467
163.83336,12468
173.04485,12469
4378.261,12470
5016.111,12471
4582.6406,12472
3337.764,12473
2727.2766,12474
2399.8499,12475
1678.2607,12476
2705.599,12477
5791.063,12478
2652.572,12479
2873.2842,12480
1609.2963,12481
1007.4949,12482
335.11475,12483
124.806114,12484
113.28373,12485
95.39654,12486
96.32199,12487
3635.5532,12488
4636.7656,12489
4715.049,12490
4041.752,12491
3110.5134,12492
2202.768,12493
2496.126,12494
1212.9512,12495
5755.6,12496
3177.9336,12497
2816.2212,12498
2173.7402,12499
3326.386,12500
1340.5028,12501
719.2285,12502
439.88147,12503
273.1413,12504
181.9433,12505
193.2165,12506
4460.0605,12507
5143.847,12508
4408.6284,12509
3330.8257,12510
2657.177,12511
2385.7734,12512
1397.3842,12513
3103.7212,12514
5837.963,12515
2623.2996,12516
2588.9556,12517
1658.2444,12518
894.5867,12519
288.54404,12520
120.985725,12521
110.783516,12522
95.618576,12523
97.08526,12524
3848.7522,12525
4762.002,12526
4754.586,12527
3935.5283,12528
2869.7805,12529
2246.4204,12530
2584.411,12531
1413.9327,12532
6006.724,12533
3158.964,12534
2898.4465,12535
2146.246,12536
3033.4785,12537
1251.9144,12538
705.8702,12539
455.14227,12540
276.13474,12541
186.15126,12542
561.482,12543
4695.6685,12544
4932.379,12545
4458.7266,12546
3232.746,12547
2550.913,12548
2300.0134,12549
1168.7618,12550
3629.1008,12551
5376.0796,12552
2679.035,12553
2255.798,12554
1761.5558,12555
819.4289,12556
240.25671,12557
119.74035,12558
108.65077,12559
94.16028,12560
101.05191,12561
4012.9382,12562
4841.83,12563
4754.602,12564
3830.5642,12565
2812.6836,12566
2279.2861,12567
2529.217,12568
1644.3928,12569
6000.5854,12570
2934.3188,12571
3064.0542,12572
2241.8882,12573
2660.0527,12574
1200.4022,12575
698.56915,12576
453.41293,12577
345.1423,12578
164.96086,12579
1343.393,12580
4657.837,12581
4936.4434,12582
4320.9595,12583
3258.9153,12584
2366.9036,12585
2265.565,12586
835.0592,12587
4443.846,12588
5170.882,12589
2832.9153,12590
2001.3,12591
1786.8599,12592
724.4859,12593
206.70352,12594
117.95813,12595
106.03696,12596
91.52943,12597
102.57471,12598
4065.1511,12599
4904.411,12600
4729.1465,12601
3693.3813,12602
2751.6895,12603
2373.9797,12604
2403.1711,12605
1866.8689,12606
6080.0806,12607
2843.9963,12608
3295.0364,12609
2182.6282,12610
2463.8474,12611
1166.2795,12612
619.48334,12613
426.2671,12614
263.59955,12615
269.8859,12616
2215.959,12617
4664.5415,12618
4653.4946,12619
4318.761,12620
3289.4233,12621
2221.4072,12622
2261.8416,12623
875.407,12624
5034.2046,12625
3235.6125,12626
2759.9333,12627
1764.3737,12628
1970.9109,12629
669.1041,12630
183.46985,12631
117.342445,12632
104.38982,12633
90.82203,12634
104.81555,12635
4236.54,12636
5069.1157,12637
4629.7705,12638
3585.3455,12639
2782.318,12640
2454.5288,12641
2128.848,12642
2169.304,12643
5973.155,12644
2718.1953,12645
3326.2527,12646
2177.1902,12647
2261.6074,12648
1104.3335,12649
610.04376,12650
402.0279,12651
310.61267,12652
161.2629,12653
2965.3665,12654
4590.73,12655
4865.245,12656
4198.891,12657
3196.3435,12658
2181.8306,12659
2286.554,12660
1030.0688,12661
5477.7793,12662
3179.0425,12663
2594.1633,12664
1590.5219,12665
2115.5698,12666
801.5689,12667
657.77,12668
868.12555,12669
1134.7098,12670
1603.9696,12671
2187.1738,12672
4392.4985,12673
5296.9834,12674
5460.76,12675
5612.575,12676
5954.3315,12677
6482.059,12678
7001.5425,12679
7168.556,12680
7195.238,12681
2818.0881,12682
4202.869,12683
3034.3118,12684
3671.0972,12685
3187.2688,12686
3111.6711,12687
4165.2173,12688
4379.621,12689
5046.811,12690
5343.2373,12691
6048.941,12692
6815.9595,12693
6828.5493,12694
7294.6787,12695
7146.267,12696
7324.137,12697
7135.6797,12698
7068.747,12699
6001.852,12700
4972.215,12701
4263.124,12702
5027.034,12703
2381.7312,12704
1735.3057,12705
2029.1053,12706
2210.0906,12707
2578.809,12708
3448.4265,12709
4642.299,12710
5395.7095,12711
5822.3457,12712
5716.3823,12713
3409.1624,12714
3004.57,12715
2256.8972,12716
3100.3296,12717
792.7851,12718
781.4286,12719
815.6883,12720
984.6841,12721
1206.9834,12722
1528.5793,12723
2578.2756,12724
3170.513,12725
3976.8833,12726
4454.9517,12727
2915.377,12728
3542.2605,12729
1874.1687,12730
1906.8085,12731
668.91437,12732
362.616,12733
435.76785,12734
370.26514,12735
536.6269,12736
2561.4136,12737
2168.1475,12738
1402.4036,12739
2379.582,12740
624.9697,12741
455.50467,12742
473.70404,12743
425.7218,12744
448.37988,12745
430.23508,12746
4439.1772,12747
4978.003,12748
4359.893,12749
3292.0518,12750
3065.0063,12751
2645.615,12752
1405.8804,12753
1468.5782,12754
469.11716,12755
213.48076,12756
243.00294,12757
205.64478,12758
192.65065,12759
142.7199,12760
201.38353,12761
279.98746,12762
299.56323,12763
429.16833,12764
2858.1128,12765
3665.2292,12766
1913.7854,12767
1553.4197,12768
589.3013,12769
245.46344,12770
215.74654,12771
124.3899,12772
113.31724,12773
114.6041,12774
135.39642,12775
165.63336,12776
192.43332,12777
255.0408,12778
350.23566,12779
520.3156,12780
1346.9799,12781
4742.0015,12782
4568.706,12783
4612.4673,12784
4224.7744,12785
3647.0898,12786
3761.1597,12787
3927.165,12788
4063.3215,12789
3858.76,12790
3862.5007,12791
4341.787,12792
4922.5986,12793
4507.6665,12794
4833.9053,12795
4888.83,12796
4613.0923,12797
4630.534,12798
4215.1123,12799
3772.8906,12800
4356.143,12801
4452.22,12802
4763.8057,12803
4625.7964,12804
4677.7617,12805
5047.107,12806
4996.6865,12807
4968.083,12808
5218.2036,12809
5166.422,12810
5064.5225,12811
5073.14,12812
4442.1943,12813
4080.4087,12814
5131.4136,12815
5184.909,12816
5448.37,12817
5188.081,12818
5345.09,12819
5204.293,12820
5346.435,12821
5357.2554,12822
5559.6343,12823
5730.458,12824
5537.3413,12825
5473.162,12826
5145.734,12827
4980.4736,12828
5662.6875,12829
5719.6562,12830
5772.222,12831
5741.99,12832
5669.0425,12833
5669.9453,12834
5633.679,12835
5644.9707,12836
5682.4956,12837
5613.228,12838
5473.3447,12839
5588.0645,12840
5522.0312,12841
5548.8413,12842
5947.6743,12843
5830.298,12844
5469.8667,12845
5540.6147,12846
5472.148,12847
5591.568,12848
5684.754,12849
5683.349,12850
5858.2886,12851
5558.541,12852
5606.908,12853
5705.0386,12854
5714.0684,12855
5762.1865,12856
5705.3325,12857
5443.804,12858
5717.2485,12859
5866.785,12860
5489.643,12861
5707.6094,12862
5527.8477,12863
5435.1035,12864
5727.5034,12865
5506.998,12866
5499.151,12867
5581.9253,12868
5505.499,12869
5557.4067,12870
5595.538,12871
5650.1865,12872
5716.402,12873
5565.892,12874
5732.244,12875
5724.2627,12876
5632.7534,12877
5804.6113,12878
5552.0957,12879
5757.6875,12880
5552.021,12881
5626.8975,12882
5794.7036,12883
5671.4883,12884
5541.935,12885
5797.768,12886
5610.946,12887
5672.861,12888
5573.034,12889
5779.8345,12890
5514.047,12891
5636.943,12892
5623.5107,12893
5664.567,12894
5486.766,12895
5511.3643,12896
5596.106,12897
5596.9595,12898
5504.048,12899
5591.0347,12900
5794.751,12901
5431.2627,12902
5451.8994,12903
5662.559,12904
5510.9736,12905
5669.0425,12906
5639.222,12907
5363.248,12908
5511.6846,12909
5746.5757,12910
5476.9053,12911
5777.7373,12912
5449.1226,12913
5416.767,12914
5684.27,12915
5716.4517,12916
5559.9023,12917
5545.1113,12918
5843.418,12919
5458.303,12920
5376.1763,12921
5535.356,12922
