@RELATION 'Music feature'
%rows=1
%columns=14720
%sample_rate=22050
%window_size=512
%step_size=512

@ATTRIBUTE 'Root mean square' NUMERIC
@ATTRIBUTE WindowNumber NUMERIC

@DATA
0.0,1
7.136645101E-6,2
0.004314599257,3
0.002550755596,4
0.001275447325,5
0.004354364767,6
0.001739462216,7
0.002877828514,8
0.002161798566,9
0.001656041103,10
0.001280726732,11
0.002586068992,12
6.649524518E-4,13
0.001861282037,14
0.001900537728,15
0.001474913369,16
0.001227365878,17
0.001758931221,18
0.003460537848,19
0.00833300219,20
0.01042896678,21
0.009715405808,22
0.009155790891,23
0.007108911225,24
0.005011877654,25
0.005110613509,26
0.00497978539,27
0.005231312985,28
0.004933171128,29
0.004127225893,30
0.004834777962,31
0.003946799104,32
0.002828504454,33
0.001949922816,34
0.002549067444,35
0.003381846383,36
0.004131287859,37
0.002766212539,38
0.01465630674,39
0.0309487947,40
0.02692040837,41
0.02107800653,42
0.01671316533,43
0.01359988248,44
0.01059409915,45
0.004916438532,46
0.003028780446,47
0.002964316173,48
0.003740566222,49
0.004674613637,50
0.004865229509,51
0.01201697953,52
0.01362054512,53
0.01540189548,54
0.01541625621,55
0.01353485252,56
0.01069233309,57
0.009720591931,58
0.008549316694,59
0.008948582897,60
0.007054187806,61
0.02039266769,62
0.04998624304,63
0.05223922691,64
0.03673073855,65
0.02996840651,66
0.02258792502,67
0.01650819955,68
0.01092298096,69
0.008122264266,70
0.008745323792,71
0.01096091967,72
0.01180167231,73
0.03942854197,74
0.05086732258,75
0.04901892688,76
0.04610610258,77
0.0377977171,78
0.02745621427,79
0.02383171724,80
0.02668813469,81
0.0199624457,82
0.01973966709,83
0.01389758604,84
0.0238107785,85
0.04176408975,86
0.05635109225,87
0.03937265412,88
0.0317809078,89
0.01964169601,90
0.01014056229,91
0.01745903659,92
0.01746291298,93
0.01101667374,94
0.01316572522,95
0.01316936436,96
0.0120044203,97
0.01579016119,98
0.03900830558,99
0.04309474802,100
0.04168633523,101
0.04152977355,102
0.04235512231,103
0.03696728807,104
0.04044192603,105
0.03918479107,106
0.03706083792,107
0.03291347417,108
0.02930153298,109
0.02526670065,110
0.02343765212,111
0.02138610668,112
0.02096915388,113
0.01756995908,114
0.01325546304,115
0.01252854534,116
0.01399087197,117
0.01818985297,118
0.017455744,119
0.01844793272,120
0.01844801357,121
0.01937102356,122
0.01960303662,123
0.01782722166,124
0.01851728499,125
0.02607319158,126
0.05503277325,127
0.06546986001,128
0.06252594672,129
0.06056607264,130
0.07052337446,131
0.06844027719,132
0.06962129683,133
0.06779811015,134
0.06352383461,135
0.05510531787,136
0.05705208734,137
0.04609134513,138
0.04032679733,139
0.04152899194,140
0.03551469874,141
0.03224229006,142
0.02631181711,143
0.02378888823,144
0.02578504551,145
0.02757326703,146
0.02952696092,147
0.02912208669,148
0.03145149414,149
0.04062775885,150
0.07482815976,151
0.08250453312,152
0.08468027358,153
0.0759703991,154
0.07334977801,155
0.0726304674,156
0.07301695852,157
0.06592322406,158
0.06368728843,159
0.05607937046,160
0.04547374461,161
0.03904941554,162
0.03724916771,163
0.03541052179,164
0.03152451883,165
0.02987712737,166
0.03171385661,167
0.0317061457,168
0.03129181995,169
0.03236713471,170
0.03418094245,171
0.03424826224,172
0.03356365004,173
0.03415053923,174
0.04224470054,175
0.08223886653,176
0.09378345779,177
0.08166733646,178
0.07960153321,179
0.07409268592,180
0.06257292515,181
0.06677584099,182
0.06681870297,183
0.06087178126,184
0.05329350381,185
0.04850485139,186
0.03977798582,187
0.03568642238,188
0.03150914792,189
0.03142147966,190
0.02635355666,191
0.02121192531,192
0.02029699601,193
0.02024392778,194
0.01969202471,195
0.02187985739,196
0.02162923506,197
0.01928293792,198
0.02165958435,199
0.02029312869,200
0.02055079013,201
0.01984127843,202
0.01943959597,203
0.02373203952,204
0.04018085693,205
0.0550326657,206
0.04663061113,207
0.04589750442,208
0.04065916311,209
0.03666655785,210
0.03826300184,211
0.03575397777,212
0.03468494179,213
0.0365271202,214
0.03510969306,215
0.03109575287,216
0.03064502702,217
0.02981040287,218
0.0583039052,219
0.08917951834,220
0.07843009307,221
0.07579485748,222
0.0767363913,223
0.06667487875,224
0.06697235181,225
0.06846526704,226
0.06493620075,227
0.05225802354,228
0.04581904709,229
0.03959104935,230
0.05150058523,231
0.06477475082,232
0.08971208217,233
0.09109531311,234
0.08703402356,235
0.08619303858,236
0.07438967207,237
0.07014660317,238
0.05513080737,239
0.05515956954,240
0.04836403376,241
0.08919417084,242
0.1702286002,243
0.1589014758,244
0.1395292933,245
0.1269564491,246
0.1198484144,247
0.1165734418,248
0.09864727546,249
0.09200326625,250
0.08735987336,251
0.07881196916,252
0.06852059822,253
0.06396422205,254
0.05828031282,255
0.05145551792,256
0.04625967663,257
0.08879698189,258
0.07619859574,259
0.08402888919,260
0.04743031763,261
0.04785495357,262
0.04407764175,263
0.03911680692,264
0.04128521661,265
0.03666162329,266
0.04140372167,267
0.04282789251,268
0.0396702343,269
0.03968518966,270
0.04406615134,271
0.03033441875,272
0.03133628596,273
0.03159976835,274
0.02693682868,275
0.02276366337,276
0.02330428275,277
0.0216511181,278
0.02206922786,279
0.01770723589,280
0.01455999756,281
0.01708156628,282
0.01557279347,283
0.01542060135,284
0.01768351742,285
0.01443403686,286
0.02246200675,287
0.03910029334,288
0.04073160708,289
0.04399319146,290
0.04153626198,291
0.04158343462,292
0.04063801276,293
0.03940690739,294
0.03846307918,295
0.03198807278,296
0.03068299378,297
0.02710404624,298
0.02391633098,299
0.02586251533,300
0.02221479315,301
0.02657226963,302
0.02087233758,303
0.02373141929,304
0.02316219639,305
0.02226396004,306
0.02431048266,307
0.02285099278,308
0.02200337914,309
0.02410163302,310
0.01856137775,311
0.01908115609,312
0.01962181043,313
0.01642384084,314
0.02762659502,315
0.03430636888,316
0.02940266153,317
0.029712967,318
0.03095746966,319
0.02714658163,320
0.02939968423,321
0.02893735809,322
0.02692332838,323
0.02592200673,324
0.02480586622,325
0.02535069661,326
0.02424891675,327
0.02257932801,328
0.02046832263,329
0.01922247499,330
0.02041403342,331
0.0226780571,332
0.01918388792,333
0.01990215014,334
0.01737780435,335
0.01695159566,336
0.01924954597,337
0.01777889354,338
0.01657602028,339
0.01858279367,340
0.01943020092,341
0.01686046112,342
0.01796822469,343
0.01772896278,344
0.01717107225,345
0.01699242601,346
0.01536230653,347
0.01603296232,348
0.01491023713,349
0.01524600996,350
0.01609553831,351
0.01459931542,352
0.01445384043,353
0.0150065205,354
0.02124241643,355
0.02020227468,356
0.02369076433,357
0.03677483877,358
0.03545223994,359
0.03367435087,360
0.03054431692,361
0.02124378047,362
0.02180677965,363
0.02392865966,364
0.01968822061,365
0.0211158583,366
0.0188211822,367
0.01631532675,368
0.01879685163,369
0.01773378139,370
0.01656968812,371
0.01863980924,372
0.02632581073,373
0.06053333837,374
0.09488539571,375
0.07756220841,376
0.06568285181,377
0.05578677454,378
0.04583776279,379
0.04105666657,380
0.03030916076,381
0.03459189792,382
0.03527132966,383
0.04060426142,384
0.04670069296,385
0.04203833714,386
0.0452777602,387
0.0586673824,388
0.0789900716,389
0.09530988365,390
0.08297020801,391
0.07559491461,392
0.06711139328,393
0.06540512291,394
0.07973218698,395
0.08890258463,396
0.08802455705,397
0.0814131139,398
0.0748949003,399
0.06125153808,400
0.1173235736,401
0.1214406348,402
0.09527968826,403
0.08050139189,404
0.0665213403,405
0.1156833629,406
0.146726049,407
0.1534204798,408
0.1277376972,409
0.1162688203,410
0.1728405573,411
0.189243849,412
0.1769725972,413
0.1683108658,414
0.1576636257,415
0.1318234579,416
0.1267179619,417
0.1667587363,418
0.2917179593,419
0.2469700969,420
0.1988329413,421
0.1550976922,422
0.1225786063,423
0.09543785611,424
0.1110376863,425
0.1381543548,426
0.1152449959,427
0.118719304,428
0.1000577126,429
0.07598598484,430
0.1005875896,431
0.1514747832,432
0.1283548089,433
0.1027338033,434
0.08356518275,435
0.05286387672,436
0.06169127824,437
0.07852964737,438
0.1057526988,439
0.1282916216,440
0.1169009125,441
0.1063135219,442
0.1088310473,443
0.09988946533,444
0.1002540526,445
0.09816620477,446
0.09471610574,447
0.1299277444,448
0.1311696895,449
0.09317020464,450
0.08075382055,451
0.05925406702,452
0.08098991054,453
0.1049292805,454
0.08456723604,455
0.07434786584,456
0.06637782958,457
0.05774808716,458
0.06747625702,459
0.06276286884,460
0.06829343539,461
0.08654702875,462
0.08826004736,463
0.08458164456,464
0.08424548766,465
0.09269488137,466
0.09264028445,467
0.1007241618,468
0.1366281163,469
0.1347594622,470
0.1151131287,471
0.1157981327,472
0.09584879109,473
0.08322152136,474
0.08861438874,475
0.08210557461,476
0.07626628082,477
0.1167418684,478
0.1022269234,479
0.08995059625,480
0.08107782505,481
0.07450409405,482
0.06426850833,483
0.06242653066,484
0.05583147263,485
0.05968612819,486
0.08440357743,487
0.0996626691,488
0.09503978151,489
0.09187134316,490
0.08009410307,491
0.07830311821,492
0.09262175961,493
0.1554389035,494
0.1595679596,495
0.1510961095,496
0.1460277157,497
0.1400724485,498
0.1340412223,499
0.1272348537,500
0.1162201943,501
0.09338013309,502
0.08091871872,503
0.06725654161,504
0.09501052556,505
0.1088658467,506
0.09177836473,507
0.08951718108,508
0.09746355033,509
0.1055350907,510
0.09634657061,511
0.08244642186,512
0.07379535566,513
0.07045463184,514
0.06633439612,515
0.101803909,516
0.1069611737,517
0.10770222,518
0.1934314293,519
0.2260967739,520
0.1685763724,521
0.2019960897,522
0.2207423379,523
0.2085239677,524
0.1919775539,525
0.171292676,526
0.1640691373,527
0.2983215977,528
0.2658319438,529
0.2263765588,530
0.2246534469,531
0.3035824579,532
0.2142287125,533
0.1919471165,534
0.2330177635,535
0.2464846725,536
0.2269351207,537
0.2440245948,538
0.2534549557,539
0.2040054127,540
0.1406099196,541
0.2607544767,542
0.2478386734,543
0.1611937023,544
0.224277811,545
0.1796635444,546
0.1851140137,547
0.1632602352,548
0.1465719148,549
0.173308136,550
0.1273446153,551
0.1051757908,552
0.09915120677,553
0.09195728245,554
0.08351165168,555
0.07300971313,556
0.06817798892,557
0.05910282142,558
0.0562562984,559
0.05392010653,560
0.05356729737,561
0.05499972846,562
0.04849616418,563
0.04116705949,564
0.04068850708,565
0.04807140882,566
0.04001239644,567
0.03800553061,568
0.0340830024,569
0.03474901705,570
0.0340750169,571
0.03708771894,572
0.04024929235,573
0.04816432723,574
0.06907943885,575
0.06917179699,576
0.06996759062,577
0.06410336696,578
0.06471828669,579
0.0586665373,580
0.05170750092,581
0.04137827267,582
0.03528486204,583
0.06659263269,584
0.06605089068,585
0.05638475234,586
0.05192896241,587
0.03866162773,588
0.03582117162,589
0.03080549562,590
0.03209651599,591
0.02997048558,592
0.03217065522,593
0.03307018168,594
0.03227084593,595
0.03429522974,596
0.03139274243,597
0.02626693821,598
0.02717209512,599
0.02484565412,600
0.01890659056,601
0.01921696305,602
0.01934459599,603
0.02108109573,604
0.02185667463,605
0.01574167251,606
0.01944678813,607
0.01882557787,608
0.01546972808,609
0.01776013507,610
0.01827211927,611
0.01855637611,612
0.01961367461,613
0.01928969121,614
0.01921694838,615
0.03177337449,616
0.03735533907,617
0.04004155485,618
0.03977674388,619
0.0379321345,620
0.04038115328,621
0.03586132992,622
0.03689569336,623
0.03289197024,624
0.02819306637,625
0.02711329002,626
0.02526573202,627
0.0226372968,628
0.02025966437,629
0.01843879545,630
0.01846234452,631
0.0193373441,632
0.02072427904,633
0.01852467759,634
0.02065369396,635
0.02145378379,636
0.01955116089,637
0.02017582128,638
0.01814672519,639
0.01811524148,640
0.01744999777,641
0.01791523856,642
0.02377799698,643
0.03783837498,644
0.03670612209,645
0.03279554875,646
0.03332451859,647
0.0346863663,648
0.03301227633,649
0.02915193338,650
0.03191832075,651
0.02902065431,652
0.03001443877,653
0.02846178636,654
0.02471983623,655
0.02539264997,656
0.02287480436,657
0.0245144955,658
0.0195393438,659
0.01918400759,660
0.01905326663,661
0.01904462481,662
0.01813006778,663
0.01783169985,664
0.01739987386,665
0.01545846774,666
0.01759458923,667
0.01608555292,668
0.0166569823,669
0.01605931528,670
0.01650126573,671
0.01584484603,672
0.01437175051,673
0.01440983437,674
0.01354162121,675
0.01231361078,676
0.01340019337,677
0.0133803131,678
0.01210129903,679
0.01255550931,680
0.01147749088,681
0.01109438382,682
0.01240914791,683
0.01082534213,684
0.01147666349,685
0.01587041852,686
0.02308888078,687
0.02382022979,688
0.03199226096,689
0.037850283,690
0.03541783284,691
0.03133184156,692
0.02782242664,693
0.02118238263,694
0.02019223879,695
0.02248859517,696
0.01995584064,697
0.01916992882,698
0.01729449103,699
0.01656029295,700
0.01635271349,701
0.01540102026,702
0.01460070439,703
0.01343647485,704
0.01499270716,705
0.01447838063,706
0.01330041502,707
0.01899697675,708
0.01971366304,709
0.01840975761,710
0.01861078273,711
0.02021199874,712
0.02196442153,713
0.02028037328,714
0.02114483774,715
0.01929651815,716
0.02292361954,717
0.05646234228,718
0.09436374889,719
0.09135926064,720
0.08005958245,721
0.08148905945,722
0.06753986005,723
0.06688376258,724
0.0738397438,725
0.06263410318,726
0.06109892573,727
0.05950842345,728
0.05720211868,729
0.04588994462,730
0.04628348647,731
0.04377638447,732
0.03687564435,733
0.03527806617,734
0.02798432411,735
0.02748611131,736
0.02626866962,737
0.02618720289,738
0.02804374439,739
0.02509930804,740
0.1181928746,741
0.1509414336,742
0.1349676371,743
0.1333505048,744
0.1156885681,745
0.08545636701,746
0.08830686991,747
0.09133188201,748
0.06724431162,749
0.07347132624,750
0.06483213417,751
0.04803364296,752
0.05877148462,753
0.05536539343,754
0.05726610984,755
0.04857491215,756
0.04598189015,757
0.04469978046,758
0.03917109026,759
0.03678587834,760
0.03984549014,761
0.03833092141,762
0.03566166814,763
0.03817660661,764
0.04427948778,765
0.0467047423,766
0.07846707773,767
0.1214528781,768
0.1475899961,769
0.1351776525,770
0.1215565924,771
0.1107750763,772
0.1068071033,773
0.1114901185,774
0.1115136421,775
0.1178487383,776
0.1234633523,777
0.1164664917,778
0.1042163171,779
0.08742713285,780
0.08070909307,781
0.07198821487,782
0.06086710495,783
0.04848830785,784
0.04439301369,785
0.0382064647,786
0.03141498324,787
0.04010686314,788
0.03521299643,789
0.03258633092,790
0.0317686627,791
0.03180791765,792
0.03262124677,793
0.02996764124,794
0.02885234119,795
0.03044783075,796
0.03023032216,797
0.03135426637,798
0.03030963508,799
0.03232577274,800
0.05201657142,801
0.07638434936,802
0.0765862752,803
0.0865476222,804
0.08240007327,805
0.0808365581,806
0.08145309403,807
0.07803166813,808
0.07621362595,809
0.06531463925,810
0.06546181583,811
0.06564415968,812
0.05350983064,813
0.05444065859,814
0.05205894081,815
0.04661846778,816
0.04614790045,817
0.05368125943,818
0.05032889647,819
0.05132308314,820
0.05397581822,821
0.05917306288,822
0.06440749269,823
0.06406552286,824
0.05043494877,825
0.05600385961,826
0.05117154771,827
0.04539297975,828
0.04551180124,829
0.04328653421,830
0.04157828893,831
0.04888952788,832
0.05034661575,833
0.05081644346,834
0.04449198584,835
0.03933617289,836
0.04110631173,837
0.03670457705,838
0.03842284873,839
0.03804488429,840
0.0357681064,841
0.03928086635,842
0.04107785743,843
0.04119899198,844
0.03838065325,845
0.03852588315,846
0.04046483841,847
0.04695753815,848
0.06803020322,849
0.05042835643,850
0.04048803609,851
0.03402925381,852
0.03251013729,853
0.02791939069,854
0.0282900932,855
0.0279456113,856
0.02845906632,857
0.02747515166,858
0.02920110292,859
0.0312136646,860
0.03029431785,861
0.02740114302,862
0.0255548423,863
0.0330659669,864
0.03338655028,865
0.03144486908,866
0.0326098952,867
0.03067524545,868
0.0356504507,869
0.03272938452,870
0.03035420854,871
0.02816397311,872
0.02582642435,873
0.02324034056,874
0.02266671572,875
0.02455966825,876
0.02388467549,877
0.03402714954,878
0.03768800814,879
0.03834180485,880
0.03428395882,881
0.03207309558,882
0.03139328489,883
0.03461217294,884
0.0341480356,885
0.03063932014,886
0.03123948855,887
0.03036775822,888
0.03419665978,889
0.03393247675,890
0.03187849199,891
0.04731308736,892
0.09818558186,893
0.08800750989,894
0.0771820998,895
0.07892913358,896
0.07161594006,897
0.06947898264,898
0.06434008578,899
0.05635871741,900
0.05128826903,901
0.04953981273,902
0.04522731751,903
0.06280763374,904
0.07058227501,905
0.06832459449,906
0.07028052032,907
0.06955251928,908
0.0646545202,909
0.05901576048,910
0.06227360024,911
0.05846524343,912
0.04870382857,913
0.04749845841,914
0.06526280775,915
0.076428483,916
0.05783813189,917
0.05224594747,918
0.03666607989,919
0.02728215983,920
0.03443498464,921
0.03627540205,922
0.02722235501,923
0.03031880854,924
0.02787237285,925
0.02554546367,926
0.02832984472,927
0.02578065393,928
0.02359803228,929
0.02312661362,930
0.02177883225,931
0.02085142658,932
0.02262839789,933
0.02395302206,934
0.02449943799,935
0.03260968622,936
0.05758799332,937
0.06148467557,938
0.05972607489,939
0.05831756316,940
0.05891461553,941
0.05406688187,942
0.05933323096,943
0.05493682512,944
0.05188668987,945
0.04562937115,946
0.0433858891,947
0.0376903687,948
0.03476877091,949
0.03122324984,950
0.03041211846,951
0.02568687903,952
0.02599948504,953
0.02672637226,954
0.02276051867,955
0.02203140869,956
0.0207756209,957
0.0244785848,958
0.02432312813,959
0.02440939739,960
0.02068075877,961
0.02070817028,962
0.01744333973,963
0.01743002259,964
0.01762214503,965
0.0154997337,966
0.01734530546,967
0.02125422919,968
0.02529081981,969
0.02623215351,970
0.02637193685,971
0.02516524965,972
0.02393404681,973
0.02346526208,974
0.02475745553,975
0.02412053835,976
0.02297088951,977
0.02411500466,978
0.02477531625,979
0.02626188281,980
0.02499934531,981
0.02233230727,982
0.02269399529,983
0.02053386265,984
0.01622838411,985
0.01933475621,986
0.0192684253,987
0.01945942178,988
0.02040308471,989
0.03036488477,990
0.04271312046,991
0.04640418633,992
0.05064537289,993
0.04338840833,994
0.04780172628,995
0.0454585333,996
0.04255049971,997
0.04203664238,998
0.03236141045,999
0.03139047808,1000
0.02817511759,1001
0.02070867095,1002
0.03020720082,1003
0.03577626826,1004
0.03519366266,1005
0.03445346978,1006
0.04079391866,1007
0.04121549102,1008
0.04354372251,1009
0.04247775239,1010
0.04084662689,1011
0.03916147012,1012
0.0348080046,1013
0.03105917477,1014
0.03081152574,1015
0.02543871941,1016
0.02612037654,1017
0.02452702455,1018
0.02207910479,1019
0.01993990842,1020
0.01786521622,1021
0.01535958259,1022
0.01734855626,1023
0.01977127108,1024
0.02162764436,1025
0.02748444413,1026
0.04959690324,1027
0.07301866544,1028
0.08611085711,1029
0.08627716591,1030
0.08434577572,1031
0.07745635286,1032
0.0683280855,1033
0.05959093949,1034
0.0401796546,1035
0.03579626241,1036
0.03310666875,1037
0.03972663899,1038
0.05406202625,1039
0.05738291679,1040
0.05136498562,1041
0.04358942305,1042
0.03969268961,1043
0.04128464604,1044
0.03708854677,1045
0.03277164545,1046
0.02787110839,1047
0.02732846349,1048
0.02803315549,1049
0.02723105384,1050
0.02410155412,1051
0.0219375522,1052
0.0203491801,1053
0.01897206378,1054
0.02920714426,1055
0.08579310877,1056
0.1224386969,1057
0.1045267561,1058
0.09871385473,1059
0.1024442575,1060
0.08328726847,1061
0.08521968783,1062
0.08241275731,1063
0.07719511046,1064
0.06307690496,1065
0.05510254984,1066
0.04466896605,1067
0.03867054236,1068
0.03584843758,1069
0.04291737511,1070
0.04426925013,1071
0.06812071276,1072
0.09809466371,1073
0.1094275542,1074
0.1141493086,1075
0.1218221616,1076
0.11794067,1077
0.1010699004,1078
0.09150055763,1079
0.06762953263,1080
0.06036788773,1081
0.1093405429,1082
0.2118794556,1083
0.2050345647,1084
0.1903534988,1085
0.1723838146,1086
0.1288100472,1087
0.132196885,1088
0.1238342617,1089
0.1197629518,1090
0.09978299697,1091
0.1080140493,1092
0.1054737722,1093
0.1242459487,1094
0.1130408759,1095
0.1230065055,1096
0.1025239341,1097
0.1092025635,1098
0.09969397296,1099
0.08964867413,1100
0.1047085299,1101
0.0870789026,1102
0.09594222951,1103
0.08787250793,1104
0.0818003133,1105
0.09212927446,1106
0.07609745938,1107
0.08139888912,1108
0.06588207051,1109
0.1288577312,1110
0.07897027506,1111
0.1174117819,1112
0.07660998271,1113
0.09164973116,1114
0.09326869833,1115
0.0745293715,1116
0.07332708176,1117
0.05334019074,1118
0.0573828569,1119
0.04401963625,1120
0.04653971494,1121
0.04367318992,1122
0.04253858305,1123
0.04493866041,1124
0.03762131103,1125
0.04693582627,1126
0.04053928774,1127
0.04331071574,1128
0.04525140999,1129
0.0410728862,1130
0.03734568035,1131
0.03739144733,1132
0.03851714438,1133
0.03828685973,1134
0.03805530035,1135
0.03379813056,1136
0.03535880331,1137
0.03069413972,1138
0.03178911271,1139
0.05626515648,1140
0.0627494202,1141
0.06445769264,1142
0.06334902722,1143
0.0588619068,1144
0.05708114256,1145
0.04982030824,1146
0.04601020185,1147
0.0421344107,1148
0.03912584405,1149
0.05393576249,1150
0.0542711338,1151
0.05300631812,1152
0.05816069498,1153
0.05111616824,1154
0.04871605443,1155
0.04937943779,1156
0.04532306524,1157
0.0499091757,1158
0.05065586034,1159
0.08811809264,1160
0.2262085274,1161
0.2370379464,1162
0.212333222,1163
0.1935891791,1164
0.1580544809,1165
0.1396173589,1166
0.1638520175,1167
0.1408181595,1168
0.1298824129,1169
0.1285570899,1170
0.1251834142,1171
0.1222870692,1172
0.1276426021,1173
0.1380754047,1174
0.1180505575,1175
0.1090993575,1176
0.1021463375,1177
0.100845094,1178
0.1040096588,1179
0.09723060711,1180
0.09245552822,1181
0.1014806708,1182
0.08438742027,1183
0.08255066723,1184
0.08035827886,1185
0.07399730115,1186
0.07400443782,1187
0.06822137563,1188
0.05643331233,1189
0.07161749866,1190
0.09202167109,1191
0.1103971984,1192
0.1025694424,1193
0.1085486757,1194
0.107198968,1195
0.0872327516,1196
0.08239488179,1197
0.05015775895,1198
0.04306465108,1199
0.03889185253,1200
0.04031418098,1201
0.05742497855,1202
0.06395692902,1203
0.06241931047,1204
0.05213572112,1205
0.05503557686,1206
0.05654285467,1207
0.04974905629,1208
0.04965671744,1209
0.04686250291,1210
0.04787478644,1211
0.04884390461,1212
0.04777822724,1213
0.0447061039,1214
0.03987199133,1215
0.03713812328,1216
0.03443490319,1217
0.0337583945,1218
0.04924080517,1219
0.08476499029,1220
0.08010548238,1221
0.07693084987,1222
0.07448332352,1223
0.06677598102,1224
0.06072773932,1225
0.06149632957,1226
0.0587899402,1227
0.0499703789,1228
0.04633074298,1229
0.03874788028,1230
0.03158251273,1231
0.05312354394,1232
0.07733308745,1233
0.07957434852,1234
0.08925040329,1235
0.08894533682,1236
0.08761585628,1237
0.0771518762,1238
0.07337278522,1239
0.05636320589,1240
0.04789718468,1241
0.04463942828,1242
0.04680549686,1243
0.0731007206,1244
0.1330674467,1245
0.1343338127,1246
0.1169718245,1247
0.09892407407,1248
0.08730666586,1249
0.07555654502,1250
0.08411650314,1251
0.08372466844,1252
0.07087670113,1253
0.07285436278,1254
0.07080921929,1255
0.06893709606,1256
0.06589815636,1257
0.08299987822,1258
0.08758710132,1259
0.08903499163,1260
0.08627313752,1261
0.08347739899,1262
0.07638629895,1263
0.07602572995,1264
0.06420232271,1265
0.05312885763,1266
0.0496886618,1267
0.04950600147,1268
0.05131102182,1269
0.0563155647,1270
0.05837089138,1271
0.04988960571,1272
0.05306467404,1273
0.03963670384,1274
0.06010002996,1275
0.0666230102,1276
0.06427267048,1277
0.05752158155,1278
0.05556759537,1279
0.05362376714,1280
0.05829062763,1281
0.05839848317,1282
0.05413495606,1283
0.0476922726,1284
0.04785372264,1285
0.04193880739,1286
0.03806880641,1287
0.03559764908,1288
0.03517730442,1289
0.03433336903,1290
0.03473721717,1291
0.03725375639,1292
0.03801708544,1293
0.0341536416,1294
0.03282811455,1295
0.03564549915,1296
0.036004308,1297
0.03671112904,1298
0.03481402023,1299
0.03141136523,1300
0.02943778372,1301
0.02984890022,1302
0.030408494,1303
0.03314123539,1304
0.03301936577,1305
0.03232232615,1306
0.03034557139,1307
0.03027231497,1308
0.03013116787,1309
0.03141541012,1310
0.029010445,1311
0.02802841395,1312
0.02582148837,1313
0.02483701965,1314
0.02495440428,1315
0.02406378958,1316
0.02576824265,1317
0.0242912175,1318
0.0225930449,1319
0.02235068248,1320
0.01985460136,1321
0.02097197723,1322
0.02054203152,1323
0.02012817742,1324
0.01924132686,1325
0.02160667645,1326
0.02076233138,1327
0.02035769671,1328
0.02099562717,1329
0.02086732137,1330
0.01938374098,1331
0.01972285477,1332
0.01896228331,1333
0.01894335923,1334
0.02239624143,1335
0.02856580818,1336
0.0310400302,1337
0.02932845338,1338
0.02748363775,1339
0.02717918017,1340
0.02627627116,1341
0.0284517199,1342
0.02613872721,1343
0.0253951731,1344
0.0236654688,1345
0.02419258859,1346
0.02158506268,1347
0.01943167233,1348
0.01865545049,1349
0.01814903623,1350
0.01905948841,1351
0.01790435121,1352
0.0170782154,1353
0.0158752727,1354
0.01736368753,1355
0.01690592494,1356
0.01580916307,1357
0.01543188642,1358
0.01582273486,1359
0.01586947624,1360
0.01488438982,1361
0.01372117422,1362
0.01411195116,1363
0.01567941886,1364
0.01700580088,1365
0.01542835563,1366
0.01430718471,1367
0.01473767917,1368
0.01414638023,1369
0.01377147294,1370
0.0132813783,1371
0.01365839837,1372
0.01332095808,1373
0.01339460432,1374
0.01312739116,1375
0.01216337078,1376
0.0119115944,1377
0.01154805958,1378
0.01121574826,1379
0.01195874373,1380
0.01128090275,1381
0.01041245517,1382
0.01041731244,1383
0.01047365271,1384
0.009933329305,1385
0.009746787223,1386
0.01030487945,1387
0.00961148433,1388
0.009541302354,1389
0.009097353091,1390
0.00886901763,1391
0.008064983665,1392
0.007768870157,1393
0.007733988726,1394
0.008591471268,1395
0.007111123172,1396
0.006904673971,1397
0.006865162595,1398
0.006806869256,1399
0.007268922031,1400
0.005482442479,1401
0.004767781603,1402
0.004616088897,1403
0.006688409462,1404
0.01603216008,1405
0.02254432022,1406
0.0217648756,1407
0.02077244241,1408
0.02092213873,1409
0.0184620719,1410
0.01394758805,1411
0.01370331828,1412
0.01523804017,1413
0.01329535988,1414
0.01404125162,1415
0.01332613318,1416
0.01293722802,1417
0.01141461757,1418
0.01234137762,1419
0.01110048638,1420
0.01098632374,1421
0.01090077035,1422
0.01017935552,1423
0.01009283329,1424
0.0094834639,1425
0.009783145807,1426
0.009177329298,1427
0.01028788306,1428
0.009837802129,1429
0.009298137956,1430
0.01155089844,1431
0.01114507792,1432
0.01196118128,1433
0.01324940459,1434
0.01034548474,1435
0.03770093038,1436
0.08986600281,1437
0.09134909026,1438
0.07272506531,1439
0.05705275498,1440
0.04624428634,1441
0.03835819845,1442
0.0224952473,1443
0.0144404031,1444
0.01399903392,1445
0.01405803453,1446
0.0173967164,1447
0.01825486862,1448
0.03201303076,1449
0.04549624636,1450
0.07077364008,1451
0.07072987168,1452
0.07050181863,1453
0.06179531767,1454
0.05670477518,1455
0.05439179811,1456
0.05305326788,1457
0.04459231658,1458
0.04343704457,1459
0.07964543485,1460
0.1160197122,1461
0.1033103015,1462
0.07930723176,1463
0.06122759664,1464
0.04890476919,1465
0.03951722144,1466
0.0322567549,1467
0.03225674444,1468
0.04086420615,1469
0.1094182091,1470
0.2147130139,1471
0.1745503236,1472
0.1453358816,1473
0.1596697077,1474
0.1450839426,1475
0.1084412713,1476
0.09827511337,1477
0.07311405637,1478
0.06168240302,1479
0.06839464928,1480
0.06448426311,1481
0.05721840273,1482
0.05200641641,1483
0.05127111852,1484
0.1157543413,1485
0.1673574421,1486
0.122962648,1487
0.1000761022,1488
0.07251433969,1489
0.04847219976,1490
0.05845735162,1491
0.06728945117,1492
0.04867512679,1493
0.05392136116,1494
0.05063589675,1495
0.04323732787,1496
0.04816790417,1497
0.05039688057,1498
0.06674317902,1499
0.09868050342,1500
0.105862116,1501
0.09995908441,1502
0.09908578148,1503
0.08890812604,1504
0.08975329537,1505
0.09380147448,1506
0.09173139298,1507
0.08029677259,1508
0.07098698162,1509
0.06649789194,1510
0.05907991052,1511
0.05715354095,1512
0.0566076916,1513
0.05115027046,1514
0.04414653303,1515
0.03507777882,1516
0.03198961713,1517
0.0279451747,1518
0.02531133656,1519
0.02987827522,1520
0.0218689929,1521
0.02471543746,1522
0.0232955331,1523
0.02023885693,1524
0.02523864104,1525
0.02158491339,1526
0.02298380361,1527
0.02495965902,1528
0.02345361224,1529
0.02518347238,1530
0.02680214742,1531
0.06697611564,1532
0.0892531605,1533
0.08554673455,1534
0.083108692,1535
0.08894283217,1536
0.07938264115,1537
0.08134352357,1538
0.08132961035,1539
0.07409070447,1540
0.06764799813,1541
0.05559427552,1542
0.0479786015,1543
0.04649291891,1544
0.04437619197,1545
0.04271126745,1546
0.03585854611,1547
0.03071181002,1548
0.03033766517,1549
0.03444569804,1550
0.03425712703,1551
0.03368521919,1552
0.03571055181,1553
0.0695703417,1554
0.1253926387,1555
0.1257114313,1556
0.1229193618,1557
0.1187441442,1558
0.105678179,1559
0.1036640724,1560
0.1012458922,1561
0.09413608303,1562
0.08313733525,1563
0.07354488082,1564
0.05546036674,1565
0.05477922189,1566
0.05476464528,1567
0.05329558255,1568
0.05007637325,1569
0.04354035,1570
0.04037726918,1571
0.03910277426,1572
0.03824205194,1573
0.03872303932,1574
0.03917243376,1575
0.03732038578,1576
0.03808677012,1577
0.07439413233,1578
0.1149534466,1579
0.1008413487,1580
0.0949826098,1581
0.09641118989,1582
0.08339809595,1583
0.0748473811,1584
0.07724372232,1585
0.07350533855,1586
0.06310652634,1587
0.0581037421,1588
0.05387706917,1589
0.04877061614,1590
0.0449967864,1591
0.04620957698,1592
0.03640907412,1593
0.031171864,1594
0.02284831242,1595
0.02368505739,1596
0.02169092364,1597
0.01940004256,1598
0.02132798005,1599
0.02192662898,1600
0.02058521849,1601
0.02134489402,1602
0.02392072664,1603
0.0202561717,1604
0.06867775497,1605
0.1065523896,1606
0.08595938454,1607
0.07239259936,1608
0.0577238709,1609
0.04081241612,1610
0.04686574455,1611
0.05030020135,1612
0.04600060382,1613
0.04707447645,1614
0.04640416467,1615
0.03954639588,1616
0.03783953534,1617
0.03966151172,1618
0.03697334276,1619
0.03631942856,1620
0.03026853387,1621
0.02905796143,1622
0.03151015825,1623
0.03015602893,1624
0.05104116941,1625
0.07658729289,1626
0.06952414616,1627
0.06287542432,1628
0.06471901169,1629
0.05553782732,1630
0.05444817969,1631
0.05973081364,1632
0.05635705273,1633
0.04665301859,1634
0.03986884566,1635
0.03265049878,1636
0.04179169949,1637
0.05303006748,1638
0.07748162571,1639
0.07792874319,1640
0.08088434663,1641
0.08072831728,1642
0.07414459352,1643
0.07146333388,1644
0.06179008189,1645
0.04901136619,1646
0.04239283745,1647
0.07054458048,1648
0.2099457727,1649
0.2174328016,1650
0.1948802283,1651
0.1796003005,1652
0.1701387371,1653
0.1706846688,1654
0.145786403,1655
0.1394708783,1656
0.1285070105,1657
0.1163045344,1658
0.1097434203,1659
0.09977783747,1660
0.09026681112,1661
0.07912244514,1662
0.1283932705,1663
0.1119164838,1664
0.1048031296,1665
0.1027487226,1666
0.08682716209,1667
0.07096896968,1668
0.06532191961,1669
0.06570131046,1670
0.05187067515,1671
0.04710744551,1672
0.05876625344,1673
0.06093316272,1674
0.05382190873,1675
0.06316626742,1676
0.054488442,1677
0.04795369765,1678
0.04604780035,1679
0.04088258972,1680
0.03462065035,1681
0.03248203707,1682
0.02909418679,1683
0.03145607383,1684
0.0276963997,1685
0.01864867343,1686
0.02213397236,1687
0.016991527,1688
0.01620355294,1689
0.01721697147,1690
0.02399752442,1691
0.0483921186,1692
0.06433648029,1693
0.0651130847,1694
0.06865925686,1695
0.06552674015,1696
0.06352043314,1697
0.06497765312,1698
0.06052528988,1699
0.05235681919,1700
0.04666210267,1701
0.04068494825,1702
0.03704168393,1703
0.03003196037,1704
0.02554166811,1705
0.0244709763,1706
0.02693137302,1707
0.02774097318,1708
0.02950107741,1709
0.03054811815,1710
0.02949043975,1711
0.03243665548,1712
0.03123668149,1713
0.02912299892,1714
0.02830549112,1715
0.0248885898,1716
0.03331571472,1717
0.04189389319,1718
0.03873893612,1719
0.03636534039,1720
0.038304847,1721
0.03961076679,1722
0.03653229388,1723
0.03486518821,1724
0.03369898428,1725
0.03168631722,1726
0.03208876512,1727
0.03037982116,1728
0.02943470779,1729
0.02825055544,1730
0.02422633682,1731
0.0195760415,1732
0.02174751931,1733
0.02215548241,1734
0.0218576596,1735
0.02117837388,1736
0.02112189703,1737
0.02010335606,1738
0.01895672839,1739
0.01974639912,1740
0.01872625708,1741
0.02158341647,1742
0.01932400727,1743
0.0184588383,1744
0.01968957578,1745
0.01961962786,1746
0.01739555617,1747
0.01759122305,1748
0.01896611443,1749
0.01658072472,1750
0.01708653191,1751
0.01805724868,1752
0.01662488167,1753
0.01708597263,1754
0.02455716687,1755
0.03269025262,1756
0.02901916944,1757
0.02674594744,1758
0.03886360281,1759
0.04287766494,1760
0.04050133409,1761
0.03788931986,1762
0.02967912423,1763
0.02703660968,1764
0.02663837783,1765
0.02652636809,1766
0.02526298367,1767
0.0241454264,1768
0.02174970345,1769
0.02179349869,1770
0.02217866713,1771
0.01992324386,1772
0.02254445448,1773
0.02026348417,1774
0.02032110435,1775
0.02068169693,1776
0.01822774279,1777
0.01763090035,1778
0.01878741013,1779
0.01772312886,1780
0.02271495473,1781
0.02256186368,1782
0.02350561276,1783
0.03034944706,1784
0.06418807539,1785
0.09712543912,1786
0.07886954325,1787
0.06308915184,1788
0.05439584853,1789
0.04307058293,1790
0.034222577,1791
0.02750978025,1792
0.02321264855,1793
0.02377037961,1794
0.02459930869,1795
0.02403209909,1796
0.03248987358,1797
0.05104368994,1798
0.07884787266,1799
0.08147437276,1800
0.08399758419,1801
0.07871374419,1802
0.07683339272,1803
0.0730245125,1804
0.07014022674,1805
0.06695541658,1806
0.07265304501,1807
0.1111141081,1808
0.1069883931,1809
0.08228248945,1810
0.06920877882,1811
0.05471724934,1812
0.04505983179,1813
0.0390670038,1814
0.03603247372,1815
0.04111699805,1816
0.08872298516,1817
0.2075830142,1818
0.2164090355,1819
0.1695406079,1820
0.1385987731,1821
0.1120676908,1822
0.0953047208,1823
0.07016165483,1824
0.04838931148,1825
0.1234535931,1826
0.1326025946,1827
0.1308786105,1828
0.1184625533,1829
0.09205539191,1830
0.07249996962,1831
0.07995178464,1832
0.07619656138,1833
0.1135100654,1834
0.1665829849,1835
0.1243747249,1836
0.1002917389,1837
0.07798431395,1838
0.05875063962,1839
0.06765185912,1840
0.07386815304,1841
0.07248565683,1842
0.0767348155,1843
0.07377673644,1844
0.1100125601,1845
0.0999247837,1846
0.09842881705,1847
0.09611057466,1848
0.08669549618,1849
0.08960245642,1850
0.09152158106,1851
0.09043648676,1852
0.07621284293,1853
0.06933776507,1854
0.06507030327,1855
0.0517490043,1856
0.04971860251,1857
0.04953436993,1858
0.04716690072,1859
0.03870342467,1860
0.03802443256,1861
0.03881875716,1862
0.03853513622,1863
0.04192142564,1864
0.08467432476,1865
0.0824902249,1866
0.06348206046,1867
0.04851272,1868
0.03866880934,1869
0.0337608961,1870
0.03464775313,1871
0.0351172317,1872
0.03144310418,1873
0.03148939347,1874
0.03204619589,1875
0.03909355285,1876
0.03786186868,1877
0.03992387614,1878
0.03522305288,1879
0.0406167862,1880
0.04111156685,1881
0.03684244661,1882
0.03915334005,1883
0.04169667619,1884
0.06054096989,1885
0.04558319853,1886
0.0440323179,1887
0.04469607095,1888
0.04073266615,1889
0.04000097689,1890
0.04217871647,1891
0.04111980324,1892
0.04253601026,1893
0.04268212859,1894
0.06989294009,1895
0.08828843459,1896
0.09764906567,1897
0.1089443486,1898
0.09463957057,1899
0.08920040264,1900
0.08701069128,1901
0.09119334084,1902
0.07698011987,1903
0.07492415222,1904
0.06635676225,1905
0.0944728657,1906
0.2080636696,1907
0.1417739195,1908
0.07271369064,1909
0.04404378569,1910
0.07476574562,1911
0.08346062293,1912
0.09100968249,1913
0.1010403857,1914
0.09307092576,1915
0.09447161917,1916
0.07247780115,1917
0.06123419992,1918
0.08153086736,1919
0.08274253286,1920
0.08451847916,1921
0.1330662582,1922
0.1346603242,1923
0.1105725457,1924
0.09293088962,1925
0.08470950857,1926
0.08345326688,1927
0.07833415507,1928
0.08093093115,1929
0.07194720566,1930
0.06567734645,1931
0.06410753039,1932
0.06316360998,1933
0.05492182177,1934
0.07906660587,1935
0.09889758827,1936
0.06992141066,1937
0.06159473395,1938
0.05356822658,1939
0.05403756186,1940
0.06730699316,1941
0.07996363213,1942
0.09863299892,1943
0.08175390869,1944
0.06905224306,1945
0.05851739284,1946
0.05466057178,1947
0.05670678196,1948
0.05099324745,1949
0.06433854069,1950
0.08212897309,1951
0.07827933825,1952
0.08158368888,1953
0.06612976512,1954
0.05912094838,1955
0.07670209655,1956
0.08231164911,1957
0.08915637414,1958
0.09293359785,1959
0.07921113028,1960
0.07031687731,1961
0.06748505202,1962
0.119555309,1963
0.2091097943,1964
0.1834774861,1965
0.151354412,1966
0.1187958957,1967
0.1141737198,1968
0.08722568722,1969
0.1084392804,1970
0.1068745351,1971
0.09751683895,1972
0.09605866218,1973
0.08845634634,1974
0.07447838949,1975
0.0723144898,1976
0.09569486507,1977
0.1248653496,1978
0.1212721836,1979
0.09729887604,1980
0.07606855458,1981
0.06568887491,1982
0.0594959056,1983
0.053131872,1984
0.05172488003,1985
0.07391607555,1986
0.0957434772,1987
0.08794653551,1988
0.07543834014,1989
0.06114864404,1990
0.05263136164,1991
0.05342278626,1992
0.05929428224,1993
0.05824104089,1994
0.08880365273,1995
0.09596480304,1996
0.09198764116,1997
0.08286071523,1998
0.08139050621,1999
0.07477446716,2000
0.07583363785,2001
0.07379854405,2002
0.07411104083,2003
0.1377351846,2004
0.129897381,2005
0.1174259926,2006
0.1084124697,2007
0.09901688816,2008
0.1014272908,2009
0.08752016824,2010
0.08167549296,2011
0.07541454933,2012
0.0706242029,2013
0.06461809974,2014
0.0598756999,2015
0.09155292138,2016
0.06555183226,2017
0.07431025078,2018
0.04846162927,2019
0.04684445848,2020
0.04236365741,2021
0.03836305395,2022
0.0409074459,2023
0.04022604312,2024
0.03229491459,2025
0.03802471855,2026
0.04420870035,2027
0.03900332537,2028
0.03918850899,2029
0.03557188655,2030
0.03272487236,2031
0.0290716521,2032
0.02746424886,2033
0.026843854,2034
0.02486811567,2035
0.02171613438,2036
0.02407223097,2037
0.02192394678,2038
0.02017202541,2039
0.01870429414,2040
0.01676458284,2041
0.01939170832,2042
0.01711389619,2043
0.01684001996,2044
0.0263089039,2045
0.04556944885,2046
0.05800296747,2047
0.05438406124,2048
0.05664018818,2049
0.05705905946,2050
0.0526810923,2051
0.05411512069,2052
0.05070830437,2053
0.0444836705,2054
0.03952840846,2055
0.03577949444,2056
0.03135452442,2057
0.0243411449,2058
0.02540016887,2059
0.0196405649,2060
0.02314640971,2061
0.026522466,2062
0.02422490276,2063
0.02677786418,2064
0.02770713391,2065
0.02645210909,2066
0.02866590956,2067
0.02392563733,2068
0.02414044739,2069
0.02267872848,2070
0.02011947604,2071
0.01953834381,2072
0.01892588462,2073
0.03465845919,2074
0.03769789113,2075
0.04437804184,2076
0.03941093019,2077
0.03517679508,2078
0.04234943105,2079
0.04098286371,2080
0.03725541222,2081
0.03371599985,2082
0.03594193631,2083
0.03687621995,2084
0.03161453282,2085
0.03405186277,2086
0.03165127323,2087
0.02975819716,2088
0.026780989,2089
0.02837712371,2090
0.02965271703,2091
0.03030606191,2092
0.02438064314,2093
0.02539036183,2094
0.02546032301,2095
0.02332919613,2096
0.02518384902,2097
0.02352843963,2098
0.02304387668,2099
0.0219431867,2100
0.02114041704,2101
0.02108306592,2102
0.01925441743,2103
0.02058646465,2104
0.01944003791,2105
0.02447356777,2106
0.03546948475,2107
0.04020343045,2108
0.03646902905,2109
0.0360798228,2110
0.03217284793,2111
0.02540216447,2112
0.02745033921,2113
0.02596108007,2114
0.02313151022,2115
0.02473485918,2116
0.02261383628,2117
0.023312303,2118
0.02128396712,2119
0.02051546016,2120
0.02184472229,2121
0.02172441713,2122
0.01852486793,2123
0.01967588965,2124
0.01752296433,2125
0.01663997035,2126
0.01741684571,2127
0.01521169661,2128
0.01515104695,2129
0.01735985709,2130
0.01644488499,2131
0.01666209134,2132
0.0174130278,2133
0.01498238067,2134
0.01904419925,2135
0.02441961143,2136
0.02199341308,2137
0.02542863198,2138
0.02406074007,2139
0.02368498981,2140
0.02459838455,2141
0.02198295472,2142
0.02149639434,2143
0.02376350161,2144
0.02144815001,2145
0.0206099276,2146
0.02243434894,2147
0.02112925076,2148
0.02095507271,2149
0.02788896424,2150
0.05283283175,2151
0.05965494161,2152
0.06193514242,2153
0.07042467317,2154
0.07381974558,2155
0.0718283973,2156
0.06734711055,2157
0.06515042904,2158
0.04977058153,2159
0.04682030452,2160
0.04671370125,2161
0.03516014038,2162
0.03211987608,2163
0.02767391913,2164
0.02468624187,2165
0.0259119442,2166
0.02663137412,2167
0.03275091539,2168
0.02932287639,2169
0.02977842771,2170
0.02964759999,2171
0.02733497723,2172
0.02898984207,2173
0.02406228842,2174
0.03253682483,2175
0.09721372537,2176
0.09067592643,2177
0.0888238021,2178
0.07823503675,2179
0.05635273375,2180
0.05604078178,2181
0.0557969946,2182
0.05021272817,2183
0.04146168872,2184
0.04483860766,2185
0.03840138288,2186
0.04052398697,2187
0.03619114788,2188
0.03007638216,2189
0.02953014292,2190
0.03161579983,2191
0.03220292635,2192
0.02392978602,2193
0.02278104462,2194
0.02179165942,2195
0.02228644577,2196
0.02229005033,2197
0.02271653683,2198
0.02535742471,2199
0.06311687361,2200
0.1301496775,2201
0.1261427245,2202
0.1203030661,2203
0.1037193236,2204
0.06628394978,2205
0.05396116123,2206
0.05854043848,2207
0.04884099029,2208
0.04955503066,2209
0.05048243258,2210
0.04176071778,2211
0.03758960859,2212
0.04664717977,2213
0.04073385177,2214
0.04204193372,2215
0.03839911411,2216
0.04288021199,2217
0.04284337333,2218
0.03961483103,2219
0.04336772154,2220
0.03919774026,2221
0.04401271026,2222
0.04171725567,2223
0.04529913165,2224
0.05766691488,2225
0.05178411854,2226
0.04988054804,2227
0.05309192164,2228
0.05301110889,2229
0.05364460666,2230
0.04637419318,2231
0.04263233545,2232
0.04228337454,2233
0.05428834017,2234
0.04651271766,2235
0.0565122977,2236
0.04806633675,2237
0.04512458221,2238
0.05004887107,2239
0.04858879066,2240
0.04618105817,2241
0.04887360744,2242
0.04600360667,2243
0.04401601084,2244
0.04566043723,2245
0.04355304437,2246
0.0404328037,2247
0.03843290994,2248
0.03279689546,2249
0.110985263,2250
0.1792340794,2251
0.1681079284,2252
0.1520508343,2253
0.1463651293,2254
0.1136510353,2255
0.09121938011,2256
0.06926220388,2257
0.06976269015,2258
0.07540654401,2259
0.07240077606,2260
0.07012005759,2261
0.06716980179,2262
0.06005836322,2263
0.05981288058,2264
0.05085640848,2265
0.04602564104,2266
0.04736436971,2267
0.04645677971,2268
0.05140265652,2269
0.04871935018,2270
0.04711509695,2271
0.04675413707,2272
0.04577561,2273
0.04221660868,2274
0.04222002455,2275
0.03888831523,2276
0.04033656442,2277
0.04392669253,2278
0.03676422453,2279
0.04473083281,2280
0.04608562397,2281
0.04920447489,2282
0.05701667255,2283
0.05669688056,2284
0.04970359643,2285
0.0374130362,2286
0.04693181916,2287
0.05775146379,2288
0.05201773966,2289
0.04845739623,2290
0.05738158448,2291
0.06627702051,2292
0.08880790561,2293
0.1076336192,2294
0.1208382599,2295
0.1077086939,2296
0.1177121112,2297
0.1027672882,2298
0.1035236341,2299
0.1175447144,2300
0.1290492133,2301
0.1161254361,2302
0.1374065965,2303
0.2164523523,2304
0.2514544024,2305
0.232900015,2306
0.2282496222,2307
0.2003169013,2308
0.1443542502,2309
0.1484385284,2310
0.1287952302,2311
0.1423519821,2312
0.1291409238,2313
0.1534214769,2314
0.1598010688,2315
0.1624355025,2316
0.1409577517,2317
0.1297830457,2318
0.1248169352,2319
0.1028650728,2320
0.08730462899,2321
0.08330972853,2322
0.1107658446,2323
0.1492175275,2324
0.197689005,2325
0.1429807187,2326
0.1188199515,2327
0.0924484541,2328
0.06841324708,2329
0.07139574903,2330
0.06591109249,2331
0.05079734069,2332
0.04567874543,2333
0.04479438109,2334
0.04465656348,2335
0.0449596714,2336
0.04306381413,2337
0.06061612776,2338
0.06877343315,2339
0.06450485373,2340
0.07916904315,2341
0.07071957552,2342
0.06638899931,2343
0.06441308277,2344
0.06171360318,2345
0.06695407994,2346
0.07631184119,2347
0.114399292,2348
0.1227786499,2349
0.1152029648,2350
0.1051267379,2351
0.1043955197,2352
0.09197719491,2353
0.09150040445,2354
0.0929549282,2355
0.08574002754,2356
0.09082179441,2357
0.1294821972,2358
0.1162517763,2359
0.1183763342,2360
0.1192707365,2361
0.1133194303,2362
0.1184960866,2363
0.1350299969,2364
0.1236685812,2365
0.1116557714,2366
0.09761378414,2367
0.08620653634,2368
0.07764896049,2369
0.07392292894,2370
0.07025311932,2371
0.06415578024,2372
0.05535029978,2373
0.05179004241,2374
0.05943725086,2375
0.05766827506,2376
0.05874809987,2377
0.05798675419,2378
0.05500907884,2379
0.05932734984,2380
0.05068858384,2381
0.0563730277,2382
0.04782459701,2383
0.04987872796,2384
0.04439070409,2385
0.05356269536,2386
0.05752407712,2387
0.05658357955,2388
0.05754624808,2389
0.04164894408,2390
0.04352195761,2391
0.03886759722,2392
0.03870365593,2393
0.03699438607,2394
0.03624299177,2395
0.06558268634,2396
0.05948112034,2397
0.05286030853,2398
0.05221963578,2399
0.05674574915,2400
0.0471949167,2401
0.05229191454,2402
0.04722371647,2403
0.04756247444,2404
0.03761786349,2405
0.04302050014,2406
0.08432569952,2407
0.09535658665,2408
0.09132023246,2409
0.06631399856,2410
0.0568568178,2411
0.06120664524,2412
0.06502005116,2413
0.06442900913,2414
0.0675260175,2415
0.07059786457,2416
0.06094815362,2417
0.05874927069,2418
0.06299016948,2419
0.08531240901,2420
0.0657167995,2421
0.06312337391,2422
0.06520544075,2423
0.06119103372,2424
0.05827343103,2425
0.06179022559,2426
0.08807842798,2427
0.1077958932,2428
0.09067826791,2429
0.1040444398,2430
0.1141774704,2431
0.1124842065,2432
0.1212681981,2433
0.1237707198,2434
0.1031313316,2435
0.112900588,2436
0.1078968494,2437
0.09586848724,2438
0.09700861984,2439
0.1000541302,2440
0.0949792756,2441
0.08978095758,2442
0.07809315316,2443
0.05571390827,2444
0.0458465998,2445
0.04124742859,2446
0.0388974992,2447
0.03658274093,2448
0.04334300619,2449
0.04256112573,2450
0.04140505306,2451
0.04568593671,2452
0.06825162368,2453
0.1015023592,2454
0.09159885809,2455
0.07731236444,2456
0.05910953489,2457
0.06128178771,2458
0.06625835593,2459
0.06089414657,2460
0.06538221876,2461
0.06925031306,2462
0.06528536446,2463
0.06044577129,2464
0.056957282,2465
0.05992702949,2466
0.05396327555,2467
0.116299935,2468
0.1506525095,2469
0.1310268197,2470
0.1225851832,2471
0.1326774797,2472
0.1131351753,2473
0.1200652332,2474
0.1242317886,2475
0.1215033738,2476
0.102764059,2477
0.2289234817,2478
0.3242350946,2479
0.2692811393,2480
0.2646555766,2481
0.2645265446,2482
0.240533869,2483
0.2096079756,2484
0.2302758826,2485
0.2725831619,2486
0.2599732255,2487
0.2168211736,2488
0.1952871851,2489
0.1881176341,2490
0.1887898566,2491
0.1466840171,2492
0.2161663594,2493
0.2453439027,2494
0.2374321659,2495
0.2015481037,2496
0.1789152031,2497
0.1372964756,2498
0.120957469,2499
0.1381750333,2500
0.2088472401,2501
0.4461978989,2502
0.398075948,2503
0.3035811168,2504
0.2487886763,2505
0.2101250409,2506
0.1693657326,2507
0.1033559515,2508
0.08699197063,2509
0.08325642027,2510
0.09272931378,2511
0.08586934339,2512
0.08201222333,2513
0.07767116321,2514
0.1007773569,2515
0.09726628862,2516
0.09848183983,2517
0.09130737679,2518
0.1046148238,2519
0.1260281531,2520
0.1386419123,2521
0.1197700692,2522
0.1028591509,2523
0.09312487541,2524
0.07473363621,2525
0.07085974784,2526
0.06208546634,2527
0.06110311258,2528
0.07391283989,2529
0.06919113031,2530
0.07915101654,2531
0.06335342776,2532
0.06736819691,2533
0.06206548637,2534
0.07291889073,2535
0.06951238072,2536
0.0640602512,2537
0.06488157672,2538
0.06604271801,2539
0.06285592456,2540
0.06312538157,2541
0.06956418797,2542
0.06613027319,2543
0.07545573797,2544
0.12881825,2545
0.1752415501,2546
0.1790705799,2547
0.1861912693,2548
0.1829297761,2549
0.179746303,2550
0.1788182662,2551
0.1681843187,2552
0.1656516847,2553
0.1415181778,2554
0.1311811223,2555
0.1174530864,2556
0.09417836939,2557
0.09186798104,2558
0.07873318768,2559
0.08403810994,2560
0.09272550733,2561
0.1209442308,2562
0.1950485313,2563
0.1828713192,2564
0.1721530372,2565
0.1462071357,2566
0.1071188958,2567
0.1020290501,2568
0.1053617327,2569
0.09934275228,2570
0.09373258501,2571
0.09630910607,2572
0.1091797529,2573
0.1712812039,2574
0.1979452353,2575
0.1866699526,2576
0.1579112183,2577
0.1399276721,2578
0.1331438926,2579
0.1458138766,2580
0.171538256,2581
0.1717589357,2582
0.1642513115,2583
0.1578098923,2584
0.1538964062,2585
0.1581078214,2586
0.1569325093,2587
0.1663713484,2588
0.1632900219,2589
0.1790361497,2590
0.1371837274,2591
0.1406402458,2592
0.1816742688,2593
0.2816351402,2594
0.2941961039,2595
0.2461149685,2596
0.2293891762,2597
0.1771351828,2598
0.1827354953,2599
0.1815176762,2600
0.1540231057,2601
0.1366151419,2602
0.1588332304,2603
0.1535865052,2604
0.1403021845,2605
0.1686944424,2606
0.1543598228,2607
0.1297509461,2608
0.1251165877,2609
0.1221465508,2610
0.1120707883,2611
0.0943726582,2612
0.09299412943,2613
0.1126953293,2614
0.117596635,2615
0.103695759,2616
0.08825162755,2617
0.08460611381,2618
0.09835460374,2619
0.09308010327,2620
0.07993379868,2621
0.1086180672,2622
0.1478527248,2623
0.1341334365,2624
0.1398405353,2625
0.1317744581,2626
0.1309767697,2627
0.1205963222,2628
0.1190167357,2629
0.1125374298,2630
0.1120116039,2631
0.2365562116,2632
0.3968865189,2633
0.3293061329,2634
0.2936400393,2635
0.2972149511,2636
0.2795066781,2637
0.2385749157,2638
0.2389338427,2639
0.2236814875,2640
0.211513883,2641
0.2000030169,2642
0.1716396618,2643
0.1643198268,2644
0.1479738751,2645
0.1322633007,2646
0.1259945898,2647
0.1781044409,2648
0.1765488408,2649
0.1779501773,2650
0.1681085157,2651
0.150946992,2652
0.1578727154,2653
0.1532106921,2654
0.1529337864,2655
0.1531926345,2656
0.1349362853,2657
0.1378600705,2658
0.1635817438,2659
0.1498984932,2660
0.1447232043,2661
0.1096633056,2662
0.09542504078,2663
0.1452357361,2664
0.1659851487,2665
0.1215812368,2666
0.1117488944,2667
0.1015099811,2668
0.09185358279,2669
0.1072549851,2670
0.09596136171,2671
0.1081982276,2672
0.0963274728,2673
0.08589063014,2674
0.09753553116,2675
0.08216121761,2676
0.0883062961,2677
0.08759089617,2678
0.0821369619,2679
0.08246830525,2680
0.07718816302,2681
0.07930787032,2682
0.08145942791,2683
0.076244993,2684
0.1259101836,2685
0.1778501223,2686
0.183622093,2687
0.1874408419,2688
0.1885593087,2689
0.1845501706,2690
0.1777700131,2691
0.1930199463,2692
0.1954943416,2693
0.1924326251,2694
0.1820467766,2695
0.1622984448,2696
0.1424097103,2697
0.1250507077,2698
0.120280736,2699
0.1170482845,2700
0.1197496834,2701
0.1227002242,2702
0.1343985912,2703
0.1290771314,2704
0.1483195199,2705
0.1851988074,2706
0.2046300464,2707
0.1899548456,2708
0.1675858353,2709
0.1541115109,2710
0.1170381433,2711
0.1102832741,2712
0.128192814,2713
0.1141021985,2714
0.1202775407,2715
0.1237861684,2716
0.1946889862,2717
0.2820883088,2718
0.2128854444,2719
0.1676440044,2720
0.1444915395,2721
0.1267019325,2722
0.1472451862,2723
0.1892346086,2724
0.1558184666,2725
0.1745735716,2726
0.1529946537,2727
0.1520507019,2728
0.1563195359,2729
0.1571805236,2730
0.1473830841,2731
0.1719586637,2732
0.1752070331,2733
0.1535930838,2734
0.243104553,2735
0.2517061217,2736
0.2758741723,2737
0.2364350587,2738
0.2088986662,2739
0.1881774761,2740
0.1893942945,2741
0.1757753968,2742
0.1431471214,2743
0.1557233626,2744
0.1719098418,2745
0.1490320545,2746
0.1432620852,2747
0.1607034625,2748
0.1402572456,2749
0.126384815,2750
0.1212078242,2751
0.1196950498,2752
0.1165537056,2753
0.09987215274,2754
0.1183569353,2755
0.1236104455,2756
0.1078399082,2757
0.1029384778,2758
0.10119654,2759
0.1016138699,2760
0.0990085173,2761
0.09871868156,2762
0.09453478545,2763
0.1321535744,2764
0.2044551877,2765
0.1931129362,2766
0.1756079288,2767
0.1826241077,2768
0.1701288384,2769
0.1640991358,2770
0.1628008073,2771
0.1626059052,2772
0.3654567589,2773
0.4304660308,2774
0.4256074716,2775
0.390725714,2776
0.3378623303,2777
0.3482835064,2778
0.3122227467,2779
0.2881174424,2780
0.3017837988,2781
0.2812542959,2782
0.2443970591,2783
0.2315952942,2784
0.2160775201,2785
0.1818339255,2786
0.1814393009,2787
0.2616973963,2788
0.2108912773,2789
0.2563058362,2790
0.249755708,2791
0.192134583,2792
0.2536453996,2793
0.2187187923,2794
0.1853701127,2795
0.2101062158,2796
0.1694068066,2797
0.1701705516,2798
0.1753968316,2799
0.1659554353,2800
0.1725431513,2801
0.1699578342,2802
0.1416391877,2803
0.1612506376,2804
0.1413826155,2805
0.3196954279,2806
0.3049618544,2807
0.1725138973,2808
0.1229910844,2809
0.138377529,2810
0.1512934035,2811
0.1600908901,2812
0.1611143132,2813
0.1363099266,2814
0.1071290945,2815
0.1030918503,2816
0.09133995028,2817
0.08463511034,2818
0.08272287982,2819
0.08975346586,2820
0.08641712791,2821
0.1048974924,2822
0.1478772043,2823
0.1403778804,2824
0.1382474988,2825
0.1479371784,2826
0.1360496816,2827
0.1487643265,2828
0.1333212904,2829
0.1341417564,2830
0.1339607416,2831
0.1174353829,2832
0.1173893218,2833
0.1178837474,2834
0.1011055459,2835
0.09758783878,2836
0.09694114,2837
0.08841511743,2838
0.100427577,2839
0.23817491,2840
0.2502093313,2841
0.1889311901,2842
0.146242834,2843
0.1257362287,2844
0.1098562863,2845
0.09148440115,2846
0.08088831487,2847
0.07875920973,2848
0.07744134993,2849
0.09050877555,2850
0.0929042221,2851
0.08256588715,2852
0.07720379634,2853
0.08601260653,2854
0.07930331835,2855
0.07326441377,2856
0.08596487744,2857
0.08305475821,2858
0.07483754617,2859
0.07008939067,2860
0.07890679833,2861
0.0772708374,2862
0.0724879768,2863
0.0658124318,2864
0.06046346939,2865
0.07966799615,2866
0.08882703223,2867
0.1071617049,2868
0.1148303849,2869
0.1043356826,2870
0.0935186726,2871
0.09052761424,2872
0.08334117833,2873
0.08085300662,2874
0.07931473437,2875
0.08093675887,2876
0.08171853069,2877
0.08567940805,2878
0.08248340938,2879
0.07806880511,2880
0.1543264123,2881
0.1588249288,2882
0.1436330663,2883
0.128065911,2884
0.1080890848,2885
0.08574453914,2886
0.08578855899,2887
0.08903752176,2888
0.07015075377,2889
0.07453694418,2890
0.06456783542,2891
0.05928962478,2892
0.05547213465,2893
0.06608103757,2894
0.1007047138,2895
0.1145907583,2896
0.109036175,2897
0.1005918434,2898
0.1018606454,2899
0.1120124857,2900
0.1040837316,2901
0.09464431526,2902
0.09791746135,2903
0.08763920046,2904
0.1024653958,2905
0.09964330264,2906
0.09488008185,2907
0.09118146815,2908
0.08220933633,2909
0.07160271469,2910
0.07626457749,2911
0.1217890216,2912
0.163571123,2913
0.1363899332,2914
0.1474433639,2915
0.1297588201,2916
0.1286460791,2917
0.1051156634,2918
0.1006607516,2919
0.1032154836,2920
0.08991764362,2921
0.08305880958,2922
0.07353426365,2923
0.06638134287,2924
0.06224204958,2925
0.05167809365,2926
0.05230326726,2927
0.05466576957,2928
0.04303864528,2929
0.04605889603,2930
0.04139526986,2931
0.03398936231,2932
0.03071860511,2933
0.02861765393,2934
0.03046656419,2935
0.02929432583,2936
0.02812153631,2937
0.02544126135,2938
0.02760056267,2939
0.02741311264,2940
0.02768478048,2941
0.02305692058,2942
0.02603356209,2943
0.02587688921,2944
0.02292207267,2945
0.0232535299,2946
0.02603983847,2947
0.02495421818,2948
0.02281762529,2949
0.02553067692,2950
0.02325157796,2951
0.02451942544,2952
0.02789626609,2953
0.0253487343,2954
0.02919738116,2955
0.0300770772,2956
0.03111245899,2957
0.02974149377,2958
0.03231244703,2959
0.03108506574,2960
0.02787761859,2961
0.02834089961,2962
0.02689617165,2963
0.02518761451,2964
0.02503800699,2965
0.02588294531,2966
0.02430092802,2967
0.02373369182,2968
0.03006187897,2969
0.04309304433,2970
0.04647026518,2971
0.04641570512,2972
0.04317393604,2973
0.04322338356,2974
0.03671520518,2975
0.04126025447,2976
0.0409882174,2977
0.03849183664,2978
0.03350101172,2979
0.0314531292,2980
0.03453548828,2981
0.0475477849,2982
0.03923338111,2983
0.04611367369,2984
0.04584771154,2985
0.05190164415,2986
0.05205561845,2987
0.04638266477,2988
0.05066496424,2989
0.05550656033,2990
0.05183434046,2991
0.05176980655,2992
0.050964414,2993
0.05198123427,2994
0.05308827273,2995
0.05326811622,2996
0.04976860909,2997
0.04895028392,2998
0.05221252705,2999
0.06362919797,3000
0.06917971864,3001
0.06826820425,3002
0.06046464489,3003
0.06072585829,3004
0.05451015258,3005
0.05480319973,3006
0.05471968246,3007
0.05219247884,3008
0.04776354059,3009
0.04140200005,3010
0.03910175938,3011
0.03735626398,3012
0.03639055292,3013
0.03115686782,3014
0.02985162654,3015
0.02959279261,3016
0.0284315794,3017
0.03775184331,3018
0.0562052034,3019
0.06213941925,3020
0.06917325898,3021
0.05687995604,3022
0.06350582221,3023
0.06904330775,3024
0.06600263447,3025
0.06470725614,3026
0.05850352143,3027
0.05573355258,3028
0.05948494256,3029
0.05383375866,3030
0.05354970931,3031
0.04623912689,3032
0.04183392087,3033
0.0350627143,3034
0.03350413189,3035
0.03229652371,3036
0.03035614443,3037
0.02630280618,3038
0.02486280431,3039
0.02521139148,3040
0.02537802115,3041
0.0230501837,3042
0.02304546931,3043
0.0249055133,3044
0.0211109589,3045
0.01973079746,3046
0.02273340103,3047
0.02008403305,3048
0.02050719241,3049
0.02216938872,3050
0.01988789602,3051
0.01943596703,3052
0.03182267619,3053
0.06057581173,3054
0.07294897859,3055
0.07216709054,3056
0.0721285412,3057
0.07159805364,3058
0.06910254649,3059
0.06921829301,3060
0.06370851375,3061
0.05644189591,3062
0.04975121907,3063
0.04499343163,3064
0.0372760109,3065
0.03702874901,3066
0.03270326022,3067
0.03121250831,3068
0.03314911589,3069
0.0334586345,3070
0.03357888907,3071
0.03741188756,3072
0.03416494603,3073
0.03622509951,3074
0.03652236684,3075
0.03173674823,3076
0.03381211736,3077
0.02855685402,3078
0.03429862304,3079
0.05853247663,3080
0.0524120554,3081
0.04904862497,3082
0.05251375421,3083
0.04875339079,3084
0.04490850809,3085
0.04500613347,3086
0.04640414927,3087
0.03986245334,3088
0.03887457552,3089
0.0384843023,3090
0.03362828186,3091
0.03069648616,3092
0.02977170235,3093
0.02470334312,3094
0.02168160905,3095
0.02101978259,3096
0.01901869342,3097
0.01800635959,3098
0.01706009984,3099
0.01917278942,3100
0.02885776269,3101
0.02926880621,3102
0.02980217142,3103
0.03161282566,3104
0.02973795655,3105
0.02751300577,3106
0.03014370373,3107
0.02847723245,3108
0.0236197103,3109
0.02394676596,3110
0.02330435413,3111
0.01805487572,3112
0.01979139186,3113
0.0202640133,3114
0.01758530889,3115
0.01960406755,3116
0.02115909174,3117
0.02004982166,3118
0.02110310404,3119
0.02249376329,3120
0.02042056283,3121
0.0214026178,3122
0.0203338851,3123
0.02231419515,3124
0.02711833206,3125
0.02495154454,3126
0.02702620501,3127
0.025851245,3128
0.02853947697,3129
0.02450073904,3130
0.0272351282,3131
0.02484129567,3132
0.02799092339,3133
0.03050612178,3134
0.02766170881,3135
0.03087011157,3136
0.02809022964,3137
0.02964265689,3138
0.02746945427,3139
0.0294972873,3140
0.03188177651,3141
0.02459324588,3142
0.02696528368,3143
0.02324518316,3144
0.0246802618,3145
0.02403928005,3146
0.02278590137,3147
0.02009957989,3148
0.01862797847,3149
0.02052372582,3150
0.02345267456,3151
0.02843156424,3152
0.02513071809,3153
0.02181062415,3154
0.01903637442,3155
0.01937616733,3156
0.01814923182,3157
0.01741963473,3158
0.01600816459,3159
0.01785054952,3160
0.01699881322,3161
0.01678261034,3162
0.01743305366,3163
0.01543023259,3164
0.01729350391,3165
0.01617661591,3166
0.03183532108,3167
0.0308356954,3168
0.03547659254,3169
0.03466666674,3170
0.03050181766,3171
0.03778588557,3172
0.03746600754,3173
0.03676077831,3174
0.03745338804,3175
0.03477033179,3176
0.02799155026,3177
0.03463354698,3178
0.02868767584,3179
0.02771701521,3180
0.02548199949,3181
0.02564816909,3182
0.02656103286,3183
0.02464371885,3184
0.02557801179,3185
0.0296977622,3186
0.03336767451,3187
0.04494758966,3188
0.03747934135,3189
0.03524524532,3190
0.04257488916,3191
0.0291537949,3192
0.0371140483,3193
0.03062910218,3194
0.03381360365,3195
0.02744037953,3196
0.03263963947,3197
0.01992288445,3198
0.03078609416,3199
0.02615319253,3200
0.02208657206,3201
0.02787642069,3202
0.02348361645,3203
0.02192710586,3204
0.0225624891,3205
0.02102656059,3206
0.01732846597,3207
0.02494525674,3208
0.01751637213,3209
0.0197574018,3210
0.01823316585,3211
0.01927542158,3212
0.01738648917,3213
0.02147680765,3214
0.01806585349,3215
0.02779733698,3216
0.05230153422,3217
0.05301354119,3218
0.04659885101,3219
0.04701446846,3220
0.04427536347,3221
0.04322720966,3222
0.04427965292,3223
0.04486624554,3224
0.04202686692,3225
0.03855224729,3226
0.03700920308,3227
0.0343748224,3228
0.03463145083,3229
0.03058845238,3230
0.02725424821,3231
0.02319458457,3232
0.02191555863,3233
0.02032838411,3234
0.01949942448,3235
0.0172723272,3236
0.01671581326,3237
0.01588646941,3238
0.01605140894,3239
0.01647477182,3240
0.01459014427,3241
0.01741106617,3242
0.02195814791,3243
0.02388328524,3244
0.02244132873,3245
0.02355826283,3246
0.01691213089,3247
0.02022378314,3248
0.0211718103,3249
0.02121199936,3250
0.02410476523,3251
0.01915888954,3252
0.02253734888,3253
0.02049418112,3254
0.01994473265,3255
0.01969113436,3256
0.01851423238,3257
0.0191015062,3258
0.0173193546,3259
0.02121423932,3260
0.02232579908,3261
0.02148477284,3262
0.02204482599,3263
0.01860395303,3264
0.01789445212,3265
0.01628569958,3266
0.0166640024,3267
0.02777266828,3268
0.03077486542,3269
0.03064752343,3270
0.03188323906,3271
0.03135686408,3272
0.02892901577,3273
0.02895860628,3274
0.02899769338,3275
0.02722151731,3276
0.02758093654,3277
0.02874207688,3278
0.02975230076,3279
0.03033912473,3280
0.0317814388,3281
0.03103042058,3282
0.02816186544,3283
0.02693695499,3284
0.02520957317,3285
0.02667432989,3286
0.02527208782,3287
0.02345405129,3288
0.02489090075,3289
0.02839989226,3290
0.03393500057,3291
0.0369041794,3292
0.03373838623,3293
0.02947151401,3294
0.02937022978,3295
0.03123159505,3296
0.0355587077,3297
0.03420579333,3298
0.03143824754,3299
0.0318076326,3300
0.03788501909,3301
0.03908718094,3302
0.04029803484,3303
0.03696093555,3304
0.02916474342,3305
0.02921062345,3306
0.02683871455,3307
0.02907844535,3308
0.03328105914,3309
0.02949505317,3310
0.02587634794,3311
0.02395281049,3312
0.0256358123,3313
0.02482146719,3314
0.02703721976,3315
0.0300878181,3316
0.04136566053,3317
0.03392966896,3318
0.03691748168,3319
0.02477174685,3320
0.03189090813,3321
0.03028000556,3322
0.03370054774,3323
0.0293006897,3324
0.02723864355,3325
0.02980526649,3326
0.02224310997,3327
0.02885091309,3328
0.02226531154,3329
0.02217702807,3330
0.02799843855,3331
0.03002853064,3332
0.02955452272,3333
0.02502356483,3334
0.03047761348,3335
0.02608495046,3336
0.02709073448,3337
0.02260336836,3338
0.02337104731,3339
0.03624564879,3340
0.04020643205,3341
0.03661529358,3342
0.03222213658,3343
0.0338632544,3344
0.03620403088,3345
0.03087679129,3346
0.03150196213,3347
0.03076703762,3348
0.02843896381,3349
0.02836818656,3350
0.02612318899,3351
0.03409105732,3352
0.03346360157,3353
0.03568997361,3354
0.02690572074,3355
0.03064994154,3356
0.0300142802,3357
0.03123576426,3358
0.02535578156,3359
0.03209775516,3360
0.03406757475,3361
0.02849226531,3362
0.03356681104,3363
0.03250961632,3364
0.03498957021,3365
0.02765899703,3366
0.03581019395,3367
0.02465084159,3368
0.03334562517,3369
0.03178552323,3370
0.02977808588,3371
0.02738646215,3372
0.02411161084,3373
0.02939326488,3374
0.02338055624,3375
0.03275078407,3376
0.05925020111,3377
0.08010902023,3378
0.08619335656,3379
0.08742270621,3380
0.08092344776,3381
0.07638665863,3382
0.07621421664,3383
0.07091508403,3384
0.06527501591,3385
0.05901905555,3386
0.05630999918,3387
0.05494384451,3388
0.05841814411,3389
0.05575729685,3390
0.04678312039,3391
0.04348344524,3392
0.03844527077,3393
0.03502662066,3394
0.03027647571,3395
0.0485184772,3396
0.07665613859,3397
0.08138790113,3398
0.0723375486,3399
0.07860548656,3400
0.07132126157,3401
0.06313925644,3402
0.06500830488,3403
0.06690885552,3404
0.05870221164,3405
0.0624514374,3406
0.05742166001,3407
0.05188158576,3408
0.0508027938,3409
0.059407758,3410
0.09835223314,3411
0.1202183641,3412
0.1277165799,3413
0.1203343713,3414
0.1170983312,3415
0.1083764239,3416
0.09483792977,3417
0.08938028626,3418
0.08221846136,3419
0.07438186778,3420
0.0723042477,3421
0.07033870869,3422
0.07600827162,3423
0.07559483191,3424
0.0655889339,3425
0.05666610302,3426
0.05280148175,3427
0.04619873973,3428
0.04231316173,3429
0.04073688914,3430
0.04485356651,3431
0.1315767828,3432
0.2186919984,3433
0.1921278895,3434
0.1800598522,3435
0.1756517829,3436
0.1671259682,3437
0.1674936662,3438
0.1434916193,3439
0.1396924503,3440
0.1323556043,3441
0.11907592,3442
0.1109232504,3443
0.106892588,3444
0.1058579455,3445
0.09002692947,3446
0.08320848575,3447
0.08244440185,3448
0.07670605368,3449
0.08190961564,3450
0.08347316768,3451
0.07578308204,3452
0.06809137803,3453
0.06405295426,3454
0.08605853922,3455
0.07956206702,3456
0.08799589492,3457
0.07149060596,3458
0.06127593524,3459
0.07537774405,3460
0.06318617133,3461
0.06802047798,3462
0.06207135441,3463
0.05947490841,3464
0.06681328883,3465
0.0620388008,3466
0.06307768201,3467
0.05766296259,3468
0.0539580663,3469
0.058015368,3470
0.05311475865,3471
0.0616305863,3472
0.05955270103,3473
0.05216726,3474
0.04709848204,3475
0.04208113892,3476
0.05114907388,3477
0.04213319941,3478
0.0442509482,3479
0.0414196172,3480
0.04078194802,3481
0.07036644894,3482
0.06174048001,3483
0.07856093712,3484
0.07009652093,3485
0.0608162288,3486
0.06469709672,3487
0.05230380885,3488
0.05326927262,3489
0.04777792366,3490
0.04757095243,3491
0.03894772882,3492
0.03760833749,3493
0.03951030865,3494
0.04039783629,3495
0.03975748681,3496
0.03323184164,3497
0.03493582941,3498
0.040757895,3499
0.04095656239,3500
0.04373166597,3501
0.03662466921,3502
0.04685456178,3503
0.03500137703,3504
0.04042780514,3505
0.03833227373,3506
0.03479946928,3507
0.03702422592,3508
0.03138637686,3509
0.03334108045,3510
0.03755668336,3511
0.03779484539,3512
0.03458945508,3513
0.03721079728,3514
0.03018188889,3515
0.03738680421,3516
0.0333911117,3517
0.0376261207,3518
0.03409805141,3519
0.03576190968,3520
0.035156241,3521
0.03809627891,3522
0.04301765597,3523
0.03846713365,3524
0.04189563792,3525
0.03429451561,3526
0.03319428102,3527
0.04170874303,3528
0.04115223391,3529
0.03503336637,3530
0.04023863269,3531
0.03730126941,3532
0.03290157791,3533
0.03295773398,3534
0.03739295031,3535
0.03712185723,3536
0.03710207899,3537
0.0547689611,3538
0.05362016839,3539
0.05959266736,3540
0.05072949525,3541
0.04462198572,3542
0.05347612669,3543
0.05118944842,3544
0.05729025783,3545
0.05079955251,3546
0.04216199056,3547
0.04432860857,3548
0.03707454098,3549
0.04349503041,3550
0.04416285941,3551
0.03714601206,3552
0.0319485951,3553
0.02569591819,3554
0.03751302478,3555
0.03858510433,3556
0.05288721178,3557
0.04601069097,3558
0.0393664316,3559
0.04275718945,3560
0.03512210029,3561
0.0417301591,3562
0.04189291362,3563
0.03748579818,3564
0.06944267516,3565
0.2683319299,3566
0.2949015905,3567
0.2749691368,3568
0.2651111126,3569
0.246452214,3570
0.2400825935,3571
0.21423763,3572
0.1952084521,3573
0.1877600245,3574
0.1694334348,3575
0.1476776665,3576
0.1473685932,3577
0.1366799996,3578
0.1280732325,3579
0.1242770158,3580
0.1160524792,3581
0.09679352569,3582
0.1105993287,3583
0.09886033204,3584
0.09761496126,3585
0.08777157969,3586
0.0820326121,3587
0.07383123577,3588
0.08665899421,3589
0.08673667762,3590
0.08833038517,3591
0.0784481469,3592
0.08116138832,3593
0.08718636416,3594
0.0789774852,3595
0.0751827775,3596
0.06362647642,3597
0.08207154669,3598
0.08066687126,3599
0.08780050627,3600
0.08660136924,3601
0.101938877,3602
0.07904048333,3603
0.07741516484,3604
0.08079411692,3605
0.08333981709,3606
0.08037323424,3607
0.08661422036,3608
0.1565556656,3609
0.2304562388,3610
0.2441239212,3611
0.2206853328,3612
0.2113360679,3613
0.1901946852,3614
0.1757959049,3615
0.1848108789,3616
0.1866812876,3617
0.1775527125,3618
0.1747070022,3619
0.155107061,3620
0.1742566427,3621
0.1669545401,3622
0.1339255378,3623
0.1401708727,3624
0.1244880152,3625
0.11300466,3626
0.1076113715,3627
0.08810509304,3628
0.1037279755,3629
0.1056437787,3630
0.09495383225,3631
0.1235834599,3632
0.1568208465,3633
0.1693107465,3634
0.1672762445,3635
0.1705615224,3636
0.1853708652,3637
0.1659246271,3638
0.1546461808,3639
0.1520813733,3640
0.1458138019,3641
0.1284906205,3642
0.1255890474,3643
0.1305523297,3644
0.1557369365,3645
0.1321707095,3646
0.1110570046,3647
0.1120617549,3648
0.09533288564,3649
0.0847388422,3650
0.07920574794,3651
0.08113344501,3652
0.07477394541,3653
0.06039183124,3654
0.08498309371,3655
0.06242700305,3656
0.08352577121,3657
0.05448291008,3658
0.09121994376,3659
0.06938121406,3660
0.08553801728,3661
0.07162067755,3662
0.08772141923,3663
0.06599331118,3664
0.1000761543,3665
0.07936388667,3666
0.07722737116,3667
0.07587924535,3668
0.07983435335,3669
0.07637888028,3670
0.08437046114,3671
0.07755089244,3672
0.08983299737,3673
0.1260195718,3674
0.1743714976,3675
0.1440216099,3676
0.1496134172,3677
0.138416321,3678
0.1376112744,3679
0.1171038506,3680
0.1260709456,3681
0.1150164878,3682
0.1138465806,3683
0.1111776627,3684
0.1690263292,3685
0.2250007416,3686
0.2366967581,3687
0.1799277294,3688
0.165408904,3689
0.1348051913,3690
0.1345125452,3691
0.1396476678,3692
0.1311120325,3693
0.120852321,3694
0.1135548333,3695
0.1304747927,3696
0.09305823543,3697
0.1344714462,3698
0.08962011762,3699
0.1040580605,3700
0.0790970543,3701
0.07053386123,3702
0.07116782523,3703
0.05711160657,3704
0.0567803939,3705
0.05382464707,3706
0.04801576028,3707
0.04071086862,3708
0.04065057296,3709
0.04260349892,3710
0.04627958041,3711
0.04530083853,3712
0.05025395138,3713
0.04600068002,3714
0.04745895009,3715
0.04613961964,3716
0.04817434002,3717
0.04479853021,3718
0.04079357708,3719
0.04151236973,3720
0.04223326122,3721
0.04094132562,3722
0.05554736681,3723
0.08312421822,3724
0.08526570483,3725
0.07750465734,3726
0.06896425829,3727
0.06371188971,3728
0.0597419177,3729
0.05744709975,3730
0.05419543486,3731
0.06908377822,3732
0.05757903792,3733
0.05655774683,3734
0.04898363822,3735
0.05202573991,3736
0.04921023017,3737
0.05282777076,3738
0.04484041596,3739
0.04110032524,3740
0.04873313568,3741
0.03960301311,3742
0.04375167364,3743
0.04339514114,3744
0.03829402936,3745
0.03953306155,3746
0.0343937996,3747
0.04687283012,3748
0.07607894332,3749
0.0741134287,3750
0.0768788297,3751
0.07017977671,3752
0.06806508229,3753
0.06736357404,3754
0.06673630788,3755
0.06280531916,3756
0.0629925538,3757
0.05553578875,3758
0.05210657515,3759
0.04415418224,3760
0.04032458714,3761
0.04287272702,3762
0.03756267312,3763
0.03609209008,3764
0.0320052998,3765
0.0330224867,3766
0.03484692613,3767
0.03568337775,3768
0.02769646731,3769
0.02989248687,3770
0.02555145004,3771
0.02973290591,3772
0.03345911879,3773
0.02828985244,3774
0.03278107423,3775
0.0297649939,3776
0.03327740413,3777
0.03350710389,3778
0.02894880123,3779
0.03207658174,3780
0.02924436866,3781
0.03593811935,3782
0.03602703345,3783
0.0280267934,3784
0.03164785963,3785
0.0309314689,3786
0.02651803613,3787
0.03478107658,3788
0.03848838147,3789
0.04387206461,3790
0.04458130795,3791
0.04409904033,3792
0.0398445086,3793
0.04101973162,3794
0.0337067843,3795
0.03815484576,3796
0.03397200324,3797
0.0340235727,3798
0.03630860985,3799
0.03382302508,3800
0.03985134929,3801
0.0327381127,3802
0.02794652385,3803
0.02900687523,3804
0.02759346741,3805
0.03050067046,3806
0.02656524624,3807
0.02685299999,3808
0.02797047893,3809
0.02548705867,3810
0.02616166682,3811
0.02164905845,3812
0.02490265196,3813
0.02494490986,3814
0.02194586684,3815
0.01845028239,3816
0.02681197348,3817
0.02683486324,3818
0.02313704996,3819
0.02021281804,3820
0.01796085225,3821
0.02417505598,3822
0.0245953686,3823
0.02022973447,3824
0.02100576814,3825
0.02122874406,3826
0.02031062843,3827
0.01874789906,3828
0.01861229273,3829
0.01802740032,3830
0.02109689982,3831
0.02195154192,3832
0.02083859449,3833
0.02195741204,3834
0.0190601389,3835
0.0208521593,3836
0.03186994635,3837
0.04358686388,3838
0.04490157783,3839
0.03853883207,3840
0.04067779201,3841
0.03849084504,3842
0.04053288133,3843
0.04014305005,3844
0.04122084655,3845
0.03795501681,3846
0.03377720309,3847
0.03252561738,3848
0.02824375367,3849
0.02573332208,3850
0.02446446547,3851
0.02032130136,3852
0.01774350163,3853
0.01663159536,3854
0.01774537157,3855
0.01873637362,3856
0.01814256735,3857
0.02917663517,3858
0.03024050091,3859
0.03250041091,3860
0.03107071031,3861
0.02688651613,3862
0.02477731391,3863
0.02821289122,3864
0.02921722856,3865
0.02672834769,3866
0.02979610534,3867
0.02381007945,3868
0.02394467379,3869
0.02665346966,3870
0.02586491787,3871
0.02765904547,3872
0.02420787393,3873
0.03120751081,3874
0.03157630173,3875
0.02704577449,3876
0.02756546377,3877
0.02553174931,3878
0.02436655552,3879
0.02094650464,3880
0.0234188877,3881
0.02053363087,3882
0.02410018917,3883
0.0220713486,3884
0.02393869901,3885
0.02063212906,3886
0.01975581548,3887
0.01769860888,3888
0.01652586877,3889
0.01515405642,3890
0.01361270737,3891
0.0149267139,3892
0.02154399188,3893
0.02008901861,3894
0.0191470423,3895
0.01927757523,3896
0.02036686621,3897
0.02055571373,3898
0.0185871753,3899
0.0169625405,3900
0.01847176015,3901
0.01720233026,3902
0.02347442033,3903
0.02858962166,3904
0.03016974615,3905
0.02641696021,3906
0.02411520402,3907
0.02367174261,3908
0.02761706479,3909
0.02546209219,3910
0.02629089494,3911
0.02104344744,3912
0.02549066045,3913
0.0258934084,3914
0.03018459385,3915
0.03027544218,3916
0.02665880291,3917
0.02575215895,3918
0.02597423068,3919
0.02715882325,3920
0.02214361587,3921
0.02489662262,3922
0.02659819296,3923
0.02212144116,3924
0.02286107675,3925
0.02066991417,3926
0.02150488555,3927
0.02214788873,3928
0.01881136994,3929
0.02261613027,3930
0.01985885714,3931
0.02897478181,3932
0.02767473472,3933
0.02503984306,3934
0.02319630115,3935
0.02230162171,3936
0.01947452944,3937
0.0183717998,3938
0.01637491421,3939
0.01756416027,3940
0.017410594,3941
0.02302373144,3942
0.0223336414,3943
0.02334421134,3944
0.02478514285,3945
0.02494960549,3946
0.03043578586,3947
0.02342741758,3948
0.02674856467,3949
0.02550423251,3950
0.0224785481,3951
0.01717458612,3952
0.02057901282,3953
0.02497408785,3954
0.0226700851,3955
0.02975883775,3956
0.04138557512,3957
0.03287156964,3958
0.02903577685,3959
0.0357070044,3960
0.02909575011,3961
0.02939159633,3962
0.02697153161,3963
0.02760094735,3964
0.0248942263,3965
0.02266856824,3966
0.02592419532,3967
0.02755505055,3968
0.02706510145,3969
0.0216859591,3970
0.02266488364,3971
0.02172908517,3972
0.0214276124,3973
0.02295151777,3974
0.02395707781,3975
0.02354394296,3976
0.02542309847,3977
0.02077583699,3978
0.0230048993,3979
0.02172806766,3980
0.02149348754,3981
0.01682506928,3982
0.02171281799,3983
0.02164442559,3984
0.01747679234,3985
0.0196255127,3986
0.01721870469,3987
0.01781779176,3988
0.01655667842,3989
0.01900202362,3990
0.02035523381,3991
0.02021734102,3992
0.01984995188,3993
0.02012623418,3994
0.02024498582,3995
0.0192475221,3996
0.01758544771,3997
0.01640485788,3998
0.01817417798,3999
0.01384695318,4000
0.01501063749,4001
0.01636380811,4002
0.0160045588,4003
0.01498562212,4004
0.01308454605,4005
0.01818989287,4006
0.01390339175,4007
0.01317366722,4008
0.01677718342,4009
0.01410019232,4010
0.01380957984,4011
0.01592285529,4012
0.01344926277,4013
0.01287975597,4014
0.015634088,4015
0.01261689459,4016
0.01478034435,4017
0.01187769994,4018
0.01064485804,4019
0.0221078526,4020
0.04393829283,4021
0.04939733907,4022
0.04476770413,4023
0.0444017967,4024
0.04185489251,4025
0.03707175253,4026
0.03308341033,4027
0.03025591822,4028
0.02872803492,4029
0.02581865732,4030
0.02626251141,4031
0.02593297633,4032
0.02381347668,4033
0.02581276354,4034
0.02397674676,4035
0.01921959415,4036
0.01877961211,4037
0.02100698138,4038
0.01808711399,4039
0.02040096348,4040
0.02000461663,4041
0.01967071194,4042
0.01714782745,4043
0.01815637243,4044
0.01847435142,4045
0.01490786089,4046
0.01685929139,4047
0.01657112637,4048
0.01602362996,4049
0.02514032058,4050
0.0312684248,4051
0.03600853569,4052
0.04009565972,4053
0.03419968758,4054
0.03031089138,4055
0.02930069519,4056
0.02695105327,4057
0.02974625919,4058
0.02466512573,4059
0.02610963315,4060
0.02339084498,4061
0.02324123563,4062
0.02410093807,4063
0.02319969785,4064
0.02361343908,4065
0.02191574542,4066
0.02318109012,4067
0.04065774864,4068
0.0812859496,4069
0.09804528501,4070
0.08625065752,4071
0.08358751547,4072
0.07142771133,4073
0.06295121511,4074
0.05014557936,4075
0.0435534739,4076
0.04023213939,4077
0.03682933549,4078
0.03415455741,4079
0.03145411311,4080
0.0353601383,4081
0.03930118695,4082
0.04277382883,4083
0.03713254148,4084
0.03714688454,4085
0.03488717007,4086
0.03278653475,4087
0.03379195868,4088
0.02988417425,4089
0.02785129789,4090
0.02921346573,4091
0.04433611111,4092
0.08536386646,4093
0.07788763869,4094
0.08517061214,4095
0.09020518647,4096
0.0882090287,4097
0.0900780853,4098
0.08753355433,4099
0.09345623879,4100
0.08719613714,4101
0.08669351254,4102
0.08390128484,4103
0.08580405795,4104
0.08806945427,4105
0.07173708011,4106
0.07812863604,4107
0.06735823611,4108
0.06623914713,4109
0.05927561544,4110
0.0578277767,4111
0.05375269234,4112
0.05290892629,4113
0.0537174734,4114
0.0985948705,4115
0.1087871338,4116
0.1111867274,4117
0.09687916417,4118
0.1022946297,4119
0.09714479427,4120
0.08086752309,4121
0.08377412315,4122
0.08106987736,4123
0.07636253738,4124
0.06720036524,4125
0.06103374794,4126
0.06063133213,4127
0.05657544358,4128
0.04914252105,4129
0.05373935635,4130
0.05161615986,4131
0.04479421925,4132
0.04516866189,4133
0.0424675763,4134
0.03612291378,4135
0.0332190586,4136
0.03354993715,4137
0.02929683145,4138
0.03246838258,4139
0.02921683743,4140
0.0289131164,4141
0.03885861133,4142
0.03610173857,4143
0.03476432323,4144
0.03397699672,4145
0.03370300953,4146
0.02970081661,4147
0.02888400819,4148
0.03076358347,4149
0.02833027144,4150
0.03173847938,4151
0.02857539027,4152
0.03435690108,4153
0.03080403458,4154
0.03823733813,4155
0.03390128913,4156
0.02965988459,4157
0.03397470332,4158
0.02701300068,4159
0.03092381124,4160
0.02551137738,4161
0.03135390033,4162
0.02371348581,4163
0.0383777786,4164
0.04652713388,4165
0.04236301055,4166
0.04190382933,4167
0.041751335,4168
0.04320219185,4169
0.03764865533,4170
0.03927100009,4171
0.03812181809,4172
0.0416066894,4173
0.03875555197,4174
0.04094581445,4175
0.04431306234,4176
0.04391996034,4177
0.04228330106,4178
0.03772649995,4179
0.04284970318,4180
0.04396166714,4181
0.04582713894,4182
0.04409322291,4183
0.04407939164,4184
0.04459966072,4185
0.03958026773,4186
0.04716834929,4187
0.0463513172,4188
0.04403721823,4189
0.04356424311,4190
0.04988454906,4191
0.06104569882,4192
0.0590101974,4193
0.05152237164,4194
0.0932676722,4195
0.1230795534,4196
0.1114968022,4197
0.1055473296,4198
0.09498336207,4199
0.08177025446,4200
0.07276063791,4201
0.06142614384,4202
0.05910620701,4203
0.0593983617,4204
0.05229141963,4205
0.05320793477,4206
0.04987871056,4207
0.04328658302,4208
0.04227646996,4209
0.03718720746,4210
0.03406588603,4211
0.03401414612,4212
0.03792431128,4213
0.03952190965,4214
0.0391369987,4215
0.06780049121,4216
0.07315362165,4217
0.06693229342,4218
0.0561448519,4219
0.04857343105,4220
0.05912282389,4221
0.05325182473,4222
0.0503749614,4223
0.05667496318,4224
0.04815775642,4225
0.05084455319,4226
0.0451031225,4227
0.04343259906,4228
0.1186710582,4229
0.2499693135,4230
0.2681878678,4231
0.2305594957,4232
0.214286315,4233
0.1819672113,4234
0.1285705225,4235
0.1026641096,4236
0.0889065315,4237
0.07810030405,4238
0.07841128633,4239
0.06954565584,4240
0.07088072382,4241
0.07139046484,4242
0.06307874556,4243
0.05276343178,4244
0.0548934523,4245
0.04925804357,4246
0.04978647274,4247
0.05600802163,4248
0.0826101811,4249
0.123165236,4250
0.1363996739,4251
0.1433916912,4252
0.1518536267,4253
0.1457307626,4254
0.1587907873,4255
0.1535779409,4256
0.1698882948,4257
0.1616883142,4258
0.1568416542,4259
0.1494384685,4260
0.1530120787,4261
0.1646663363,4262
0.1613907442,4263
0.1484497825,4264
0.1319146008,4265
0.1366195355,4266
0.1187300903,4267
0.119437263,4268
0.1143187858,4269
0.106451494,4270
0.1008079996,4271
0.0945524347,4272
0.09648151823,4273
0.1122180807,4274
0.08901057555,4275
0.1032584198,4276
0.08764782655,4277
0.07365316303,4278
0.09825607227,4279
0.08118804909,4280
0.08813984636,4281
0.08357425159,4282
0.0672824991,4283
0.08051385465,4284
0.0776685294,4285
0.06589877211,4286
0.07687671383,4287
0.05965087128,4288
0.05843340471,4289
0.06217070009,4290
0.06877050833,4291
0.06713085953,4292
0.06595192335,4293
0.05654109719,4294
0.06156837086,4295
0.06428254488,4296
0.05109036904,4297
0.05665057015,4298
0.04715706549,4299
0.04303008624,4300
0.05318311249,4301
0.07276230816,4302
0.07582576383,4303
0.087487803,4304
0.08372943426,4305
0.08855725769,4306
0.08906263182,4307
0.08657857281,4308
0.08609448377,4309
0.07920533797,4310
0.08649289086,4311
0.09723857932,4312
0.08605311411,4313
0.08130556363,4314
0.08023223603,4315
0.08214683435,4316
0.08578249614,4317
0.07336011988,4318
0.07677835499,4319
0.08668616726,4320
0.08575107358,4321
0.08441803022,4322
0.08813405726,4323
0.07657698048,4324
0.09201346644,4325
0.09502240527,4326
0.07963565043,4327
0.08518564129,4328
0.08096002306,4329
0.08890797246,4330
0.08676197352,4331
0.09412300452,4332
0.09662330053,4333
0.1035059585,4334
0.09828543936,4335
0.1013096619,4336
0.0970384103,4337
0.1018807335,4338
0.09328717035,4339
0.2680298417,4340
0.4031607057,4341
0.4115507054,4342
0.3847899091,4343
0.3488491556,4344
0.3584923551,4345
0.3303546228,4346
0.2840406348,4347
0.2855757502,4348
0.2590297247,4349
0.2338737692,4350
0.2151800807,4351
0.2064998081,4352
0.1877174134,4353
0.174804825,4354
0.1367183831,4355
0.1368590472,4356
0.1436641705,4357
0.1328581131,4358
0.127784179,4359
0.1304955853,4360
0.1131654669,4361
0.1062966068,4362
0.09091637592,4363
0.09283384918,4364
0.1076564407,4365
0.1177957543,4366
0.1093908079,4367
0.105668685,4368
0.1054312666,4369
0.081398788,4370
0.09141732203,4371
0.09077530423,4372
0.09175468466,4373
0.0795506969,4374
0.09508097427,4375
0.1111100751,4376
0.1087321567,4377
0.1107985038,4378
0.1052622671,4379
0.1039850337,4380
0.1002846967,4381
0.1130060735,4382
0.1025948546,4383
0.09030473474,4384
0.1151577911,4385
0.09472429018,4386
0.1289286205,4387
0.1151057802,4388
0.1036712626,4389
0.1088460733,4390
0.09886890516,4391
0.1059651219,4392
0.1063790223,4393
0.09755916366,4394
0.102891339,4395
0.1132263524,4396
0.1229151066,4397
0.1317222054,4398
0.1408023171,4399
0.119730081,4400
0.104533446,4401
0.1104280446,4402
0.08980858492,4403
0.1150167117,4404
0.09412996241,4405
0.1033198287,4406
0.08624579052,4407
0.1017921835,4408
0.08815814101,4409
0.1460264215,4410
0.1769616155,4411
0.1731113635,4412
0.1647669883,4413
0.1599459506,4414
0.1497433464,4415
0.1437902173,4416
0.1417979121,4417
0.1428129706,4418
0.1321175613,4419
0.1337188195,4420
0.1196567098,4421
0.1278471793,4422
0.121840828,4423
0.1049767858,4424
0.09857481562,4425
0.09341166581,4426
0.08694284107,4427
0.08984554338,4428
0.08645457918,4429
0.09502098147,4430
0.08519190581,4431
0.07329113212,4432
0.0647674513,4433
0.07605532354,4434
0.0668552617,4435
0.05891550209,4436
0.07523043271,4437
0.08237123758,4438
0.0910503882,4439
0.09270181058,4440
0.08242331686,4441
0.07899866239,4442
0.09217055774,4443
0.09097568448,4444
0.08328806053,4445
0.07612730235,4446
0.06676507282,4447
0.0803225662,4448
0.08568970972,4449
0.08618886658,4450
0.07422691555,4451
0.08399999915,4452
0.07281793006,4453
0.06928083122,4454
0.07365293091,4455
0.06160682888,4456
0.06483951876,4457
0.06997138542,4458
0.06140550222,4459
0.07337788051,4460
0.07458797211,4461
0.07855731848,4462
0.07096282021,4463
0.06843017072,4464
0.06264552057,4465
0.06426802209,4466
0.06741512157,4467
0.06510010118,4468
0.06460289398,4469
0.06320371673,4470
0.06528988855,4471
0.06752259137,4472
0.0693137684,4473
0.06497274743,4474
0.0659988699,4475
0.06101967293,4476
0.06376719621,4477
0.05819136172,4478
0.05811665871,4479
0.05293130553,4480
0.05116052298,4481
0.04913774327,4482
0.04268882179,4483
0.04055688289,4484
0.0408408795,4485
0.04086537233,4486
0.038457408,4487
0.03326853518,4488
0.02875509971,4489
0.04080963667,4490
0.04433840605,4491
0.04763154275,4492
0.04580445898,4493
0.04530386599,4494
0.04441635689,4495
0.04895014288,4496
0.04533128822,4497
0.04382342345,4498
0.03755171427,4499
0.03686906891,4500
0.03079643392,4501
0.03182377494,4502
0.03007381202,4503
0.02761386671,4504
0.02622613036,4505
0.02112186866,4506
0.01774692497,4507
0.01800356054,4508
0.01796726123,4509
0.01949382662,4510
0.02372678284,4511
0.02431239911,4512
0.02243065453,4513
0.02145552569,4514
0.01876018778,4515
0.01933016213,4516
0.02012958606,4517
0.02029782031,4518
0.01853339132,4519
0.01756388863,4520
0.01962784647,4521
0.01485296016,4522
0.0220417038,4523
0.01848938973,4524
0.01857603765,4525
0.01910691408,4526
0.02034044015,4527
0.02206085718,4528
0.02011370447,4529
0.02119931993,4530
0.017883673,4531
0.01870355566,4532
0.01726643724,4533
0.01750510999,4534
0.02195793361,4535
0.02038240963,4536
0.02209673986,4537
0.02025690786,4538
0.02086488384,4539
0.01935161525,4540
0.01763977646,4541
0.01744878104,4542
0.01441215939,4543
0.01564980431,4544
0.01560500784,4545
0.01834084805,4546
0.01808841264,4547
0.01605045106,4548
0.01374217158,4549
0.01465376128,4550
0.01520544186,4551
0.01441313787,4552
0.01370868347,4553
0.01144341014,4554
0.01165314717,4555
0.01796940418,4556
0.02130741625,4557
0.02618799612,4558
0.02456116948,4559
0.02513510556,4560
0.02240359594,4561
0.01906514944,4562
0.02521407566,4563
0.02163153512,4564
0.02432567474,4565
0.03257152608,4566
0.03963519781,4567
0.0410361698,4568
0.03211755445,4569
0.03266095037,4570
0.03286577324,4571
0.02841542013,4572
0.02857560396,4573
0.02814766447,4574
0.03143724364,4575
0.02785533364,4576
0.02256035377,4577
0.02572694989,4578
0.02689739258,4579
0.03064541277,4580
0.03880405115,4581
0.03607967167,4582
0.03386310295,4583
0.03512153784,4584
0.02872409412,4585
0.03721030795,4586
0.030989122,4587
0.03526136957,4588
0.03252751019,4589
0.0293107931,4590
0.03501437447,4591
0.0261038342,4592
0.02849730793,4593
0.02627541514,4594
0.02391793306,4595
0.02772618004,4596
0.03022573576,4597
0.02941388102,4598
0.0231718148,4599
0.02691690154,4600
0.02068232621,4601
0.0353948105,4602
0.04099343649,4603
0.03730935601,4604
0.03602672233,4605
0.04354651199,4606
0.0386596639,4607
0.03617772878,4608
0.0340668601,4609
0.03511325365,4610
0.03044314092,4611
0.02974824858,4612
0.02977001539,4613
0.03307251923,4614
0.04043950514,4615
0.033884739,4616
0.0314362036,4617
0.03194892894,4618
0.03178828763,4619
0.03700268406,4620
0.02713518285,4621
0.033994058,4622
0.03171253217,4623
0.03345002209,4624
0.02079918934,4625
0.03509235795,4626
0.04255531793,4627
0.03737449213,4628
0.03701715174,4629
0.03417180409,4630
0.03922109507,4631
0.0375986245,4632
0.03777561582,4633
0.03624157366,4634
0.03501771434,4635
0.03217799751,4636
0.02917563718,4637
0.03241678276,4638
0.03441017495,4639
0.05145490272,4640
0.04880496107,4641
0.04694226013,4642
0.04838107051,4643
0.0462125167,4644
0.041398991,4645
0.04065216608,4646
0.04023846658,4647
0.04039296102,4648
0.03474945333,4649
0.03947696929,4650
0.03584522489,4651
0.03314731782,4652
0.02906446091,4653
0.02386179579,4654
0.02602067561,4655
0.02182855079,4656
0.03378043197,4657
0.06388203523,4658
0.07959121751,4659
0.07282320646,4660
0.06432625122,4661
0.06825650428,4662
0.05675115191,4663
0.06378452317,4664
0.06235728154,4665
0.06111238801,4666
0.06073393321,4667
0.05899351522,4668
0.05544866004,4669
0.05301282431,4670
0.04594905909,4671
0.05488354526,4672
0.06695538625,4673
0.08525808902,4674
0.09989388054,4675
0.10653321,4676
0.09518210305,4677
0.09208589262,4678
0.08284240452,4679
0.07942242058,4680
0.0728059324,4681
0.06664363221,4682
0.06894200272,4683
0.06577900105,4684
0.06918979658,4685
0.06390557364,4686
0.05144023615,4687
0.05305412248,4688
0.04836262658,4689
0.04837071516,4690
0.04114954007,4691
0.04722903543,4692
0.1385732142,4693
0.1897804315,4694
0.1680855785,4695
0.1631933245,4696
0.149788575,4697
0.1576156104,4698
0.1383966646,4699
0.1264495622,4700
0.1205240007,4701
0.1090853729,4702
0.1061221015,4703
0.100955059,4704
0.09669740943,4705
0.0945934507,4706
0.07786219216,4707
0.07282722941,4708
0.07054720891,4709
0.07482430622,4710
0.07730517446,4711
0.07291948642,4712
0.07242688514,4713
0.06035944536,4714
0.05067542238,4715
0.04930209777,4716
0.05540758551,4717
0.04984516206,4718
0.04308626941,4719
0.04791929677,4720
0.04712377159,4721
0.04959843834,4722
0.05274432026,4723
0.04302663931,4724
0.04333387776,4725
0.03761383028,4726
0.03852889545,4727
0.04144893724,4728
0.03385188509,4729
0.04051846559,4730
0.03825621539,4731
0.04113285713,4732
0.04488293649,4733
0.03867157307,4734
0.04243692153,4735
0.03425806882,4736
0.03440146513,4737
0.04027474319,4738
0.03103353033,4739
0.03224223341,4740
0.03204475656,4741
0.02897214798,4742
0.04450930055,4743
0.04201759115,4744
0.04934131986,4745
0.04959031822,4746
0.04100629027,4747
0.04317704714,4748
0.03382260235,4749
0.03433199141,4750
0.03245202752,4751
0.03795178124,4752
0.0330619469,4753
0.03443806443,4754
0.03047060502,4755
0.03972334757,4756
0.03949029117,4757
0.04077025236,4758
0.04342949137,4759
0.04231540519,4760
0.04366602824,4761
0.04070049311,4762
0.04117838841,4763
0.03945242468,4764
0.04191250915,4765
0.03542147334,4766
0.03697040131,4767
0.03394084125,4768
0.03017282675,4769
0.03370380419,4770
0.03602931783,4771
0.03071828067,4772
0.03605532667,4773
0.02928094042,4774
0.04048746397,4775
0.03344785362,4776
0.03919693366,4777
0.03340165078,4778
0.03585937594,4779
0.03594010644,4780
0.0462863766,4781
0.04702840804,4782
0.04835076273,4783
0.04721584641,4784
0.03850746679,4785
0.044048415,4786
0.0497446281,4787
0.05218985149,4788
0.04232695103,4789
0.0448318435,4790
0.04392614189,4791
0.04160652299,4792
0.03697115352,4793
0.04155375219,4794
0.04241084777,4795
0.0685997344,4796
0.07526446175,4797
0.0738536985,4798
0.07374274252,4799
0.06643167227,4800
0.064450191,4801
0.08118116649,4802
0.07410316098,4803
0.07521858306,4804
0.05939498696,4805
0.06228017052,4806
0.06582395599,4807
0.05912729435,4808
0.06158523754,4809
0.05074195139,4810
0.04732614773,4811
0.05613654178,4812
0.06266495376,4813
0.0578980741,4814
0.05456981309,4815
0.0521864665,4816
0.04879436207,4817
0.05037536094,4818
0.05075808878,4819
0.08996549463,4820
0.265188949,4821
0.2518845925,4822
0.2384726999,4823
0.2275288129,4824
0.2090721239,4825
0.2082761189,4826
0.1873694378,4827
0.1709382312,4828
0.161600425,4829
0.1447546692,4830
0.1282222845,4831
0.1105372014,4832
0.1117975304,4833
0.104231158,4834
0.1083995192,4835
0.09262074188,4836
0.08879471846,4837
0.08956409964,4838
0.08459134004,4839
0.07967632071,4840
0.07457823153,4841
0.06696264296,4842
0.05821532486,4843
0.07380753935,4844
0.07740288162,4845
0.06374896049,4846
0.07314065017,4847
0.060294107,4848
0.08242193817,4849
0.0647851875,4850
0.07769085777,4851
0.06573792442,4852
0.07486199342,4853
0.06663143081,4854
0.09211757109,4855
0.07544904486,4856
0.08775200463,4857
0.07940174573,4858
0.07589067505,4859
0.09526354704,4860
0.0732910878,4861
0.08516517668,4862
0.08061783632,4863
0.08537105072,4864
0.08146241394,4865
0.157034022,4866
0.2189381794,4867
0.2234499953,4868
0.2042612356,4869
0.1859841909,4870
0.138719285,4871
0.1662235307,4872
0.1594669178,4873
0.1507179403,4874
0.1382875163,4875
0.1329707475,4876
0.1342942336,4877
0.1293032791,4878
0.1379315202,4879
0.116233107,4880
0.105451953,4881
0.1049076634,4882
0.08403293667,4883
0.08565469611,4884
0.07348223866,4885
0.07525221596,4886
0.08383355615,4887
0.07340551187,4888
0.06849811173,4889
0.076382768,4890
0.07950100687,4891
0.1016710768,4892
0.1065916237,4893
0.1389130756,4894
0.1319056949,4895
0.1436318158,4896
0.1448396477,4897
0.1339985389,4898
0.1262311876,4899
0.1094146467,4900
0.09670364815,4901
0.08094223943,4902
0.1002690763,4903
0.1061718055,4904
0.1150805587,4905
0.1166665751,4906
0.09136207826,4907
0.09060216465,4908
0.08550967345,4909
0.08011327938,4910
0.07846285794,4911
0.07327277659,4912
0.07063484609,4913
0.0881972005,4914
0.07402640336,4915
0.08759399745,4916
0.07250860813,4917
0.07852290976,4918
0.07825554308,4919
0.083095217,4920
0.07730699081,4921
0.0815715108,4922
0.09231773408,4923
0.09608198452,4924
0.09678181547,4925
0.09184012706,4926
0.08094205304,4927
0.07793040723,4928
0.0897618278,4929
0.0742494936,4930
0.08343246344,4931
0.08393292402,4932
0.09426024442,4933
0.1139116503,4934
0.188080707,4935
0.2153286364,4936
0.1883030504,4937
0.2058558978,4938
0.1902985953,4939
0.191397975,4940
0.1872410617,4941
0.1855010948,4942
0.1572591326,4943
0.1451805549,4944
0.1454385258,4945
0.2139586212,4946
0.2391861522,4947
0.1860131598,4948
0.1898333279,4949
0.1404329226,4950
0.1573220655,4951
0.1329347863,4952
0.1570060618,4953
0.1119874671,4954
0.1281724704,4955
0.110224529,4956
0.1145462804,4957
0.1140417929,4958
0.1418897037,4959
0.1252456495,4960
0.1239139895,4961
0.09875460554,4962
0.1031498478,4963
0.07527774927,4964
0.08037016376,4965
0.08049314441,4966
0.06788206446,4967
0.06780471986,4968
0.06280573598,4969
0.07428427094,4970
0.07190767062,4971
0.07154353899,4972
0.07128793523,4973
0.0638719968,4974
0.05837096577,4975
0.06441055447,4976
0.05922912953,4977
0.06134803822,4978
0.05445349117,4979
0.05076092268,4980
0.05423333095,4981
0.05322235192,4982
0.08611083381,4983
0.101769603,4984
0.1106076935,4985
0.09171154397,4986
0.08932293307,4987
0.09035443209,4988
0.08794566494,4989
0.08489669115,4990
0.08135377104,4991
0.08796592115,4992
0.08773639851,4993
0.07761211861,4994
0.0805798011,4995
0.06770107261,4996
0.07078171018,4997
0.06922274841,4998
0.0727652482,4999
0.08778200179,5000
0.09990135491,5001
0.09430310108,5002
0.08560267625,5003
0.08275698968,5004
0.07511782094,5005
0.07532175894,5006
0.07009556215,5007
0.06548137203,5008
0.06908701066,5009
0.06616635344,5010
0.0656265453,5011
0.05850237849,5012
0.06767165081,5013
0.0791934559,5014
0.06638077952,5015
0.07299605438,5016
0.06750052903,5017
0.0704061793,5018
0.05867095937,5019
0.05994221456,5020
0.05270442848,5021
0.04885343475,5022
0.04299485836,5023
0.04273334999,5024
0.03737360707,5025
0.03560184395,5026
0.03455836698,5027
0.03130436041,5028
0.03263751483,5029
0.03077657171,5030
0.03705411285,5031
0.03753252007,5032
0.03488267911,5033
0.03179380813,5034
0.03093040647,5035
0.02979355712,5036
0.03648249084,5037
0.03101814559,5038
0.03171270215,5039
0.03451655409,5040
0.02755002687,5041
0.03954698631,5042
0.0355697076,5043
0.03331331266,5044
0.03424787954,5045
0.03648139552,5046
0.03945568552,5047
0.03464438318,5048
0.03566563966,5049
0.03400347102,5050
0.03378470845,5051
0.03169415414,5052
0.02941901867,5053
0.02468204773,5054
0.0312970777,5055
0.02941713863,5056
0.02765029419,5057
0.02801272107,5058
0.02326090214,5059
0.02793626807,5060
0.02446967355,5061
0.02623466343,5062
0.02569749224,5063
0.03361368331,5064
0.03415573374,5065
0.03475290474,5066
0.0260654791,5067
0.02500187623,5068
0.02690020437,5069
0.02659751267,5070
0.02522089441,5071
0.02108676887,5072
0.02159127098,5073
0.02599576994,5074
0.02630723817,5075
0.0321294078,5076
0.0323817794,5077
0.0278998742,5078
0.0260327021,5079
0.02620450113,5080
0.02655359342,5081
0.0270961257,5082
0.02207929814,5083
0.02632772933,5084
0.02518101653,5085
0.02437569226,5086
0.02101209142,5087
0.02313897284,5088
0.02516253215,5089
0.02511610766,5090
0.0460542318,5091
0.06369898955,5092
0.05607801174,5093
0.05642781562,5094
0.05748191799,5095
0.05439538486,5096
0.05658608274,5097
0.05556616653,5098
0.05463753229,5099
0.04758166436,5100
0.04027552699,5101
0.03939863547,5102
0.03492783739,5103
0.03540380278,5104
0.03132804151,5105
0.0288530196,5106
0.03048678048,5107
0.02786929662,5108
0.03579382668,5109
0.03278824825,5110
0.03487936419,5111
0.02843412727,5112
0.02831801708,5113
0.02786333621,5114
0.03125914809,5115
0.0282611769,5116
0.02800338662,5117
0.03083979288,5118
0.03340288282,5119
0.03075509627,5120
0.03364041941,5121
0.02758317259,5122
0.03024506026,5123
0.03109414401,5124
0.0339781955,5125
0.03209635186,5126
0.02643080786,5127
0.02391325997,5128
0.02589354363,5129
0.03143450418,5130
0.03773121411,5131
0.03925054472,5132
0.04152408479,5133
0.03949960862,5134
0.03940788332,5135
0.03655307518,5136
0.0379032924,5137
0.03222977831,5138
0.03274718777,5139
0.03315570119,5140
0.0286212365,5141
0.03244665868,5142
0.03215383731,5143
0.0320398426,5144
0.02916793865,5145
0.029805997,5146
0.0298414823,5147
0.02662417939,5148
0.02700123381,5149
0.02212396462,5150
0.02640989238,5151
0.03017481961,5152
0.03319789192,5153
0.03648752082,5154
0.03096204558,5155
0.02986086157,5156
0.02889162211,5157
0.03110382591,5158
0.03167712849,5159
0.02904544707,5160
0.02844604343,5161
0.03571087042,5162
0.03097759615,5163
0.0304857599,5164
0.0347467186,5165
0.02631525182,5166
0.02871248362,5167
0.02815423853,5168
0.0291829839,5169
0.03021576934,5170
0.02740860928,5171
0.027613215,5172
0.02418482262,5173
0.02465511968,5174
0.0226621797,5175
0.02381698597,5176
0.02792292679,5177
0.02632608507,5178
0.03098916987,5179
0.03353979773,5180
0.02668809049,5181
0.02319375398,5182
0.02393697985,5183
0.02363004449,5184
0.0199628243,5185
0.01859119438,5186
0.02000317372,5187
0.01628159683,5188
0.02283379972,5189
0.02849032926,5190
0.02557188255,5191
0.02526600286,5192
0.02305335256,5193
0.02817930038,5194
0.02667285969,5195
0.02476471681,5196
0.02861807607,5197
0.02417153175,5198
0.02008601415,5199
0.02461623466,5200
0.0225701978,5201
0.01876290043,5202
0.02053638044,5203
0.02668756444,5204
0.0321249489,5205
0.02237117409,5206
0.02790538809,5207
0.02401555278,5208
0.02527191813,5209
0.02447208405,5210
0.02206433767,5211
0.02384507974,5212
0.01819289447,5213
0.0239280178,5214
0.01722786777,5215
0.02261616509,5216
0.02305856812,5217
0.02424400082,5218
0.01494925129,5219
0.02272837727,5220
0.02436587443,5221
0.02388122897,5222
0.02546273946,5223
0.02319758284,5224
0.02911052112,5225
0.02331233523,5226
0.02470416501,5227
0.02457604454,5228
0.02412380217,5229
0.0197649837,5230
0.0211040448,5231
0.02267666827,5232
0.01900751057,5233
0.02022876191,5234
0.01791639996,5235
0.0198650904,5236
0.0163847917,5237
0.01755969367,5238
0.0178999008,5239
0.01883166391,5240
0.01958931101,5241
0.01651188175,5242
0.02125721975,5243
0.01797404787,5244
0.01807007247,5245
0.01719462611,5246
0.01587049697,5247
0.01794636618,5248
0.01605870742,5249
0.01759700209,5250
0.01721133777,5251
0.01729916679,5252
0.01485706246,5253
0.0214316182,5254
0.0172796416,5255
0.0160635141,5256
0.02015973056,5257
0.01849679322,5258
0.01990317956,5259
0.01631371392,5260
0.02093681568,5261
0.01757848671,5262
0.01763443601,5263
0.02052219165,5264
0.01576691038,5265
0.01868805736,5266
0.0189976582,5267
0.0192562481,5268
0.02253670811,5269
0.02221676142,5270
0.03355211816,5271
0.04398003136,5272
0.04062010508,5273
0.03648807517,5274
0.03353523085,5275
0.02827442902,5276
0.02483634359,5277
0.023961526,5278
0.02270966974,5279
0.02305783365,5280
0.02175039713,5281
0.02119156593,5282
0.02146077689,5283
0.02014378984,5284
0.01974288577,5285
0.02039112445,5286
0.0197860248,5287
0.01841570702,5288
0.01902770987,5289
0.02030755267,5290
0.02028248286,5291
0.01858997157,5292
0.01787759079,5293
0.01728351696,5294
0.03278347151,5295
0.03313966893,5296
0.03176477311,5297
0.034244925,5298
0.03043665767,5299
0.02905135905,5300
0.02838706169,5301
0.02645457136,5302
0.02534081852,5303
0.02615253926,5304
0.02084113751,5305
0.02357598139,5306
0.02010085136,5307
0.02163943016,5308
0.03775233661,5309
0.05749724128,5310
0.07315294502,5311
0.06812860106,5312
0.06414935269,5313
0.06616261216,5314
0.05838662635,5315
0.04936371487,5316
0.04292580761,5317
0.04780517429,5318
0.04301229394,5319
0.04415968175,5320
0.04594394779,5321
0.04706539026,5322
0.04753510061,5323
0.04662160023,5324
0.04222511177,5325
0.03596577076,5326
0.04096677092,5327
0.04115005658,5328
0.04147551568,5329
0.04195023476,5330
0.04021464826,5331
0.05342087545,5332
0.06788147665,5333
0.07364721912,5334
0.06755884099,5335
0.07214320401,5336
0.07105760205,5337
0.06769875191,5338
0.06090251459,5339
0.06584122952,5340
0.06839171625,5341
0.0740277395,5342
0.06486475196,5343
0.06856941539,5344
0.08152583389,5345
0.08330900552,5346
0.06910806016,5347
0.06243224815,5348
0.0653438405,5349
0.05948376971,5350
0.06426195461,5351
0.06342727047,5352
0.06313157065,5353
0.08316396363,5354
0.09299801468,5355
0.09691315008,5356
0.09697647825,5357
0.09486997673,5358
0.08606682962,5359
0.07522112358,5360
0.07599050848,5361
0.06376958073,5362
0.06645146583,5363
0.05844612824,5364
0.0523756784,5365
0.05247419847,5366
0.04651695684,5367
0.04630622034,5368
0.04338549588,5369
0.04878947194,5370
0.03757720763,5371
0.04080654171,5372
0.03168508342,5373
0.03201410479,5374
0.02615477533,5375
0.02713763255,5376
0.03173588838,5377
0.02423234423,5378
0.02808163032,5379
0.02672127227,5380
0.03778143438,5381
0.03583656526,5382
0.03554465185,5383
0.03764995781,5384
0.04222528682,5385
0.03966110798,5386
0.03437188502,5387
0.04142928478,5388
0.03978637244,5389
0.03960664027,5390
0.04380886324,5391
0.0568150901,5392
0.05727527707,5393
0.04906780419,5394
0.05181164816,5395
0.05353667184,5396
0.04984623747,5397
0.04401856954,5398
0.0535214755,5399
0.04471578012,5400
0.0398914426,5401
0.04250065055,5402
0.03891792904,5403
0.04367921416,5404
0.04001885879,5405
0.03733303143,5406
0.03325249485,5407
0.03514441491,5408
0.03525778368,5409
0.03524729779,5410
0.03499653637,5411
0.03779253277,5412
0.03499600896,5413
0.0340624995,5414
0.03251973795,5415
0.0361529324,5416
0.03453310853,5417
0.03400709538,5418
0.036893197,5419
0.0359096114,5420
0.03720182358,5421
0.03372487483,5422
0.03099388427,5423
0.03153801576,5424
0.02997070526,5425
0.03031141032,5426
0.03107168068,5427
0.03547323825,5428
0.03008124282,5429
0.03390836458,5430
0.03898605906,5431
0.03669799016,5432
0.02937786179,5433
0.03271602164,5434
0.0277471218,5435
0.05011643894,5436
0.06990974973,5437
0.0663047381,5438
0.06169791621,5439
0.05605147925,5440
0.04767298507,5441
0.0409695957,5442
0.03177217939,5443
0.03273053639,5444
0.02833680624,5445
0.0244317316,5446
0.02790724603,5447
0.02416814549,5448
0.02008888519,5449
0.01959000222,5450
0.02119667957,5451
0.01634950811,5452
0.01781436212,5453
0.01791295194,5454
0.01810403006,5455
0.01837744982,5456
0.02019429687,5457
0.01948836758,5458
0.02127829873,5459
0.03504867067,5460
0.03289488906,5461
0.02884526906,5462
0.029921912,5463
0.02321664115,5464
0.02799934242,5465
0.02760146218,5466
0.02471904497,5467
0.02886574385,5468
0.02579742611,5469
0.02424641395,5470
0.02509714655,5471
0.02324101053,5472
0.0224784726,5473
0.02165974618,5474
0.04619018206,5475
0.08966604676,5476
0.1302250541,5477
0.119417102,5478
0.0964156758,5479
0.0948299436,5480
0.07343963373,5481
0.06337490998,5482
0.05175901763,5483
0.04571016569,5484
0.04415890785,5485
0.05181111181,5486
0.04543825131,5487
0.04511457705,5488
0.0497567868,5489
0.04196871872,5490
0.04210947809,5491
0.0376442144,5492
0.03823679108,5493
0.03467756207,5494
0.03290855263,5495
0.03619217482,5496
0.0686657691,5497
0.08845429545,5498
0.09272282569,5499
0.09339672869,5500
0.09844292586,5501
0.1031831166,5502
0.1052011411,5503
0.1029361039,5504
0.1156461938,5505
0.1014229386,5506
0.1025781961,5507
0.1032706622,5508
0.09237128818,5509
0.09854519194,5510
0.08927755641,5511
0.08300351265,5512
0.08008910983,5513
0.07147512597,5514
0.06160547135,5515
0.06742440055,5516
0.06170084514,5517
0.05761176919,5518
0.05814129584,5519
0.05559703381,5520
0.05497680003,5521
0.05260830995,5522
0.05274168313,5523
0.06311963491,5524
0.09044879506,5525
0.1397576752,5526
0.1540121328,5527
0.1420635554,5528
0.1228089142,5529
0.122448457,5530
0.1357630919,5531
0.1340865526,5532
0.1281519349,5533
0.1204918752,5534
0.1209087747,5535
0.1205344131,5536
0.127445476,5537
0.1133014861,5538
0.1176700963,5539
0.1080444584,5540
0.09568236824,5541
0.09304018803,5542
0.0980981602,5543
0.09392923561,5544
0.08616452492,5545
0.08322121573,5546
0.0869863079,5547
0.08626473104,5548
0.08042488896,5549
0.08138299489,5550
0.07393224541,5551
0.0783413231,5552
0.07188250473,5553
0.06605128124,5554
0.0694390683,5555
0.06564159472,5556
0.07533448094,5557
0.1069549975,5558
0.1032596794,5559
0.1078372743,5560
0.1102935436,5561
0.1054423047,5562
0.1208921707,5563
0.1100696918,5564
0.09552358751,5565
0.09849413043,5566
0.1075200332,5567
0.1060575191,5568
0.1107571542,5569
0.09862769212,5570
0.09550571267,5571
0.1040438938,5572
0.08743492668,5573
0.08689355346,5574
0.1024930279,5575
0.09045415568,5576
0.1016781247,5577
0.1292684706,5578
0.1235876156,5579
0.1112675775,5580
0.1325989685,5581
0.1357579402,5582
0.1420742584,5583
0.1242549576,5584
0.1171087956,5585
0.1428967029,5586
0.1272980952,5587
0.1268988017,5588
0.1404722448,5589
0.1417216026,5590
0.1123445619,5591
0.1442466402,5592
0.1308696634,5593
0.1240494099,5594
0.1199794979,5595
0.1149999151,5596
0.3838136307,5597
0.3470383957,5598
0.3343345263,5599
0.3382029344,5600
0.2951577003,5601
0.289410346,5602
0.266307402,5603
0.2369275501,5604
0.2331689413,5605
0.2072977466,5606
0.1993462265,5607
0.1837462897,5608
0.1739159817,5609
0.173902188,5610
0.1393759982,5611
0.1239069443,5612
0.1259463789,5613
0.1266959585,5614
0.1141123006,5615
0.116959765,5616
0.1280579607,5617
0.09775241297,5618
0.09341503892,5619
0.1000457585,5620
0.119127612,5621
0.1072356917,5622
0.1114963951,5623
0.1055660807,5624
0.09887372014,5625
0.08141685895,5626
0.09836948563,5627
0.08896620599,5628
0.09457714574,5629
0.0902288436,5630
0.10851096,5631
0.1075070956,5632
0.1056276767,5633
0.1029613536,5634
0.1053105652,5635
0.1026019306,5636
0.1009592125,5637
0.1089962803,5638
0.08530349129,5639
0.1142806076,5640
0.1130835202,5641
0.1009297873,5642
0.1162873035,5643
0.106672819,5644
0.09820170477,5645
0.09233467226,5646
0.09978560605,5647
0.09793027538,5648
0.09045041164,5649
0.1196208069,5650
0.1107337616,5651
0.1500833792,5652
0.1416375976,5653
0.1499354463,5654
0.1250696197,5655
0.1009958962,5656
0.1218837548,5657
0.1104654344,5658
0.1068988503,5659
0.1163507827,5660
0.08095177726,5661
0.1001608853,5662
0.09947779583,5663
0.135800751,5664
0.2011742048,5665
0.2050658584,5666
0.1818527148,5667
0.1594673596,5668
0.147060107,5669
0.1353756987,5670
0.1316050946,5671
0.1242555863,5672
0.1200931332,5673
0.1104679233,5674
0.1121290872,5675
0.1146712551,5676
0.1140237867,5677
0.1120253816,5678
0.09144970656,5679
0.09169897651,5680
0.08130953549,5681
0.08306115213,5682
0.07428988528,5683
0.08607797311,5684
0.07748203726,5685
0.07459801548,5686
0.06722644179,5687
0.05931474431,5688
0.07231141908,5689
0.06846488711,5690
0.0616299621,5691
0.06392105866,5692
0.08400959476,5693
0.08357305426,5694
0.07359382362,5695
0.08304541453,5696
0.07719889859,5697
0.09833544637,5698
0.09047965493,5699
0.07330890728,5700
0.08653274966,5701
0.09028197773,5702
0.1046512789,5703
0.1114437671,5704
0.09288442067,5705
0.09866098352,5706
0.09552550154,5707
0.09781407961,5708
0.09528229052,5709
0.08099302024,5710
0.09402034038,5711
0.1031341746,5712
0.0916272788,5713
0.08492605175,5714
0.09016306183,5715
0.07512087057,5716
0.08833645488,5717
0.08396979155,5718
0.06800048578,5719
0.07313566575,5720
0.0913424505,5721
0.1054315528,5722
0.09114435196,5723
0.09224718608,5724
0.08334199406,5725
0.07470491715,5726
0.07464629167,5727
0.06249897971,5728
0.07691113657,5729
0.06089119169,5730
0.07549619184,5731
0.07682708254,5732
0.06477942739,5733
0.07839616227,5734
0.06029389275,5735
0.09797083541,5736
0.1218275018,5737
0.1397413735,5738
0.1470509838,5739
0.148348375,5740
0.1476647606,5741
0.1284767235,5742
0.1243001499,5743
0.0980050947,5744
0.08263326763,5745
0.07541275118,5746
0.07709564608,5747
0.09325759393,5748
0.1055789183,5749
0.1088991755,5750
0.0904669178,5751
0.0792964556,5752
0.06730486477,5753
0.06471892987,5754
0.06873082023,5755
0.07783085052,5756
0.06938862201,5757
0.07240969039,5758
0.0706874669,5759
0.0763603014,5760
0.07592366802,5761
0.06898775514,5762
0.0736468602,5763
0.08310989907,5764
0.1043100589,5765
0.1102137883,5766
0.1108994275,5767
0.1074529641,5768
0.1020853395,5769
0.1047030075,5770
0.1047220702,5771
0.101968393,5772
0.09866755139,5773
0.1107939617,5774
0.1284594312,5775
0.1309722519,5776
0.116244404,5777
0.1043751156,5778
0.1174485127,5779
0.09493184342,5780
0.0924132919,5781
0.0896498303,5782
0.08268465726,5783
0.09234492994,5784
0.09996176619,5785
0.09388175143,5786
0.0966510277,5787
0.09425296298,5788
0.08049258464,5789
0.07420309567,5790
0.07612406306,5791
0.07645705554,5792
0.08741905395,5793
0.08003840119,5794
0.07569665534,5795
0.07900416448,5796
0.07498892482,5797
0.07560877408,5798
0.0712629997,5799
0.06363435261,5800
0.0638336667,5801
0.1384022925,5802
0.1974375142,5803
0.1765005957,5804
0.1639007349,5805
0.165998509,5806
0.1460559074,5807
0.1505038758,5808
0.1443162893,5809
0.1373348239,5810
0.1296689246,5811
0.1194763585,5812
0.1020210393,5813
0.09690450879,5814
0.07903659993,5815
0.1128924922,5816
0.1137461597,5817
0.08739770407,5818
0.1179020979,5819
0.09143212442,5820
0.1120152207,5821
0.1064926072,5822
0.09248614511,5823
0.1154811751,5824
0.08954228324,5825
0.1160778103,5826
0.1031161906,5827
0.1022880325,5828
0.1192887757,5829
0.08760117565,5830
0.1077676586,5831
0.08477532245,5832
0.08289430037,5833
0.0985951501,5834
0.08449520112,5835
0.1018732155,5836
0.09141561114,5837
0.0893947322,5838
0.09569150045,5839
0.07586579355,5840
0.09318072645,5841
0.0776971382,5842
0.07983721285,5843
0.08541383202,5844
0.0779926776,5845
0.09695874737,5846
0.07382376163,5847
0.09311096891,5848
0.08760144844,5849
0.08369908961,5850
0.08845901493,5851
0.07830372525,5852
0.08515777738,5853
0.08497133731,5854
0.09273697026,5855
0.09397122844,5856
0.09809751463,5857
0.09685014033,5858
0.09849147027,5859
0.09486143699,5860
0.09045199244,5861
0.08676478401,5862
0.08276781306,5863
0.09534246095,5864
0.1023224564,5865
0.08358924052,5866
0.09586485366,5867
0.1189921477,5868
0.1773703729,5869
0.2181767698,5870
0.1654801177,5871
0.1453574776,5872
0.1178403688,5873
0.1068842941,5874
0.1141513257,5875
0.1001509057,5876
0.08521880492,5877
0.0853047796,5878
0.0756172424,5879
0.07848920938,5880
0.07523382098,5881
0.07771020621,5882
0.07330898348,5883
0.07655529838,5884
0.09449446271,5885
0.08179547108,5886
0.09269893409,5887
0.07737019193,5888
0.08187640043,5889
0.06600797336,5890
0.07045717858,5891
0.0631613014,5892
0.06364793156,5893
0.05469575986,5894
0.1574494286,5895
0.2361584456,5896
0.2172732353,5897
0.2206707003,5898
0.2140213164,5899
0.2134745712,5900
0.1887296567,5901
0.2178011347,5902
0.1930300575,5903
0.1833135736,5904
0.1484169029,5905
0.1615087114,5906
0.1146748672,5907
0.1345441526,5908
0.1187838512,5909
0.1771523002,5910
0.3127680706,5911
0.2438995618,5912
0.2255915779,5913
0.1856182125,5914
0.1934239123,5915
0.1633602842,5916
0.1864430454,5917
0.1527623765,5918
0.1566412884,5919
0.2292896474,5920
0.1970939533,5921
0.2384022542,5922
0.2086993525,5923
0.2110689329,5924
0.183252628,5925
0.2267638312,5926
0.2196659491,5927
0.3012964634,5928
0.341476912,5929
0.3344780586,5930
0.293665538,5931
0.279469897,5932
0.217572252,5933
0.2298622794,5934
0.2000802732,5935
0.1776667748,5936
0.2366441958,5937
0.1896084224,5938
0.1959262374,5939
0.2146753497,5940
0.1840975089,5941
0.1786876572,5942
0.1669597752,5943
0.1450428153,5944
0.1412489415,5945
0.1498008746,5946
0.1232814811,5947
0.122986436,5948
0.1208013797,5949
0.1281971641,5950
0.1246945902,5951
0.1029402054,5952
0.1295476162,5953
0.1148320396,5954
0.1088376306,5955
0.1403101906,5956
0.1003943008,5957
0.1032008382,5958
0.1084300986,5959
0.09167688,5960
0.124538055,5961
0.1470589512,5962
0.1601046668,5963
0.1663018163,5964
0.1519769563,5965
0.1420928235,5966
0.1416459323,5967
0.142628708,5968
0.1273457104,5969
0.1265405148,5970
0.1216746387,5971
0.1328693876,5972
0.1468520556,5973
0.1463582207,5974
0.13667608,5975
0.09523393406,5976
0.1060400296,5977
0.1161629066,5978
0.1642670861,5979
0.2309389852,5980
0.244515093,5981
0.2290982692,5982
0.2099300323,5983
0.1792242613,5984
0.189407601,5985
0.1942591237,5986
0.1990351443,5987
0.1992059636,5988
0.2071781777,5989
0.1826791818,5990
0.16517509,5991
0.1472169451,5992
0.1498924418,5993
0.1447561382,5994
0.1447525162,5995
0.1234518116,5996
0.1343861077,5997
0.124783321,5998
0.1388268514,5999
0.113129258,6000
0.1225129373,6001
0.1724235317,6002
0.1305125851,6003
0.12009077,6004
0.106697456,6005
0.1065749024,6006
0.1474976332,6007
0.1247262596,6008
0.1407048438,6009
0.1195323257,6010
0.1315031488,6011
0.1034401047,6012
0.1023876711,6013
0.1233097577,6014
0.1026100118,6015
0.117410443,6016
0.1221402447,6017
0.1251005738,6018
0.1171634368,6019
0.1062055582,6020
0.1182154725,6021
0.1037111149,6022
0.09974985188,6023
0.2015984282,6024
0.2151375287,6025
0.206032587,6026
0.2015358143,6027
0.166172468,6028
0.163080054,6029
0.1514902558,6030
0.1421037813,6031
0.1391546876,6032
0.1310809917,6033
0.1193179471,6034
0.1117851894,6035
0.09557197707,6036
0.1183617105,6037
0.1169579889,6038
0.1114921699,6039
0.1571125051,6040
0.2001412784,6041
0.2039584399,6042
0.1788708324,6043
0.1449754664,6044
0.1280035657,6045
0.1169545504,6046
0.1257706005,6047
0.1319090527,6048
0.1643162457,6049
0.1842467428,6050
0.2326175133,6051
0.2710979092,6052
0.2026781704,6053
0.1916237972,6054
0.1767588397,6055
0.1403647013,6056
0.1573700381,6057
0.1996248266,6058
0.1962685542,6059
0.2529135054,6060
0.2113564186,6061
0.2401318961,6062
0.1992190277,6063
0.202352099,6064
0.1988909254,6065
0.1766109738,6066
0.1923567523,6067
0.1652419023,6068
0.177052959,6069
0.126717951,6070
0.1588839859,6071
0.1490569933,6072
0.1456825494,6073
0.134804914,6074
0.1357760988,6075
0.1229516146,6076
0.139813779,6077
0.1270585779,6078
0.1261088075,6079
0.09921617692,6080
0.09389936551,6081
0.0839310597,6082
0.08228427756,6083
0.07876584987,6084
0.07295910395,6085
0.06000838418,6086
0.07017413643,6087
0.06790017942,6088
0.08103147705,6089
0.08835851961,6090
0.07976623331,6091
0.07987959458,6092
0.07538214948,6093
0.08766438523,6094
0.1154803621,6095
0.186124598,6096
0.1363912611,6097
0.1313943263,6098
0.1078374163,6099
0.1058399853,6100
0.1031450246,6101
0.103347345,6102
0.09297344043,6103
0.09904643314,6104
0.08367361169,6105
0.0969313402,6106
0.08409269768,6107
0.08963942937,6108
0.1008943006,6109
0.08811493476,6110
0.09416631674,6111
0.1151454741,6112
0.1436434645,6113
0.1564011278,6114
0.1126276684,6115
0.1499875775,6116
0.116262732,6117
0.137841089,6118
0.1117655616,6119
0.1232141807,6120
0.0914800945,6121
0.1113928759,6122
0.09361874035,6123
0.1261824268,6124
0.136264895,6125
0.1400833216,6126
0.1253694632,6127
0.1209538014,6128
0.1103096973,6129
0.09461381122,6130
0.110034438,6131
0.1781162719,6132
0.200778195,6133
0.1825756891,6134
0.2009634105,6135
0.1734494307,6136
0.170719132,6137
0.1603371601,6138
0.1692529506,6139
0.1385226546,6140
0.1293463312,6141
0.08922042504,6142
0.08927038515,6143
0.1290560652,6144
0.1560356487,6145
0.1449769003,6146
0.1540263903,6147
0.1312026929,6148
0.1289894709,6149
0.1296244305,6150
0.1093827174,6151
0.1057691355,6152
0.09470103506,6153
0.09311138964,6154
0.095093795,6155
0.1012689189,6156
0.09293848579,6157
0.08679832004,6158
0.07138435917,6159
0.07193691931,6160
0.06066287827,6161
0.05708849457,6162
0.05077023466,6163
0.05167772276,6164
0.04862329533,6165
0.0576620453,6166
0.05250467399,6167
0.04931190422,6168
0.05323590676,6169
0.04957021965,6170
0.05078758511,6171
0.05287712351,6172
0.04545865598,6173
0.0527909678,6174
0.0410537969,6175
0.06361223465,6176
0.06982637375,6177
0.06496117661,6178
0.07179758037,6179
0.06127107269,6180
0.0678968478,6181
0.05675917388,6182
0.06464570209,6183
0.06506384144,6184
0.05665699989,6185
0.05379411564,6186
0.05294695442,6187
0.05879498678,6188
0.05900216059,6189
0.05470195762,6190
0.05683199076,6191
0.05294940217,6192
0.05394302262,6193
0.06714620333,6194
0.06319075098,6195
0.07307949426,6196
0.06575952597,6197
0.06910771,6198
0.06820243283,6199
0.05876181583,6200
0.06654324193,6201
0.05491185511,6202
0.06644732201,6203
0.06098026837,6204
0.06137320261,6205
0.04406588687,6206
0.04160630319,6207
0.03554732151,6208
0.03281588658,6209
0.03542744011,6210
0.03221674249,6211
0.03335863977,6212
0.03722911585,6213
0.02344902244,6214
0.02716752328,6215
0.02459639654,6216
0.02398696056,6217
0.02315477162,6218
0.0322973919,6219
0.03646578412,6220
0.02621282876,6221
0.0279922834,6222
0.02026000447,6223
0.02152347778,6224
0.01750660137,6225
0.01784947244,6226
0.01858312345,6227
0.02334475619,6228
0.03695482795,6229
0.03097332589,6230
0.03407737163,6231
0.03152695521,6232
0.03441728645,6233
0.03731319789,6234
0.03873863903,6235
0.0396728967,6236
0.03298116491,6237
0.03393293036,6238
0.0416978779,6239
0.03887594917,6240
0.04462208641,6241
0.03885168815,6242
0.03851814973,6243
0.03598890382,6244
0.03626406505,6245
0.03835334257,6246
0.03791322036,6247
0.03597559858,6248
0.03570212226,6249
0.03377124044,6250
0.04065001326,6251
0.0435938131,6252
0.03803623116,6253
0.04165265798,6254
0.03363606275,6255
0.03288846922,6256
0.03269703827,6257
0.03072734669,6258
0.03181009292,6259
0.02954946692,6260
0.02524305713,6261
0.02734444665,6262
0.02406078827,6263
0.02952355425,6264
0.02731893975,6265
0.02431280076,6266
0.03260451436,6267
0.02485340788,6268
0.03209657487,6269
0.03358147708,6270
0.03020668927,6271
0.03226476872,6272
0.0310746201,6273
0.02923992668,6274
0.0293907231,6275
0.03192280973,6276
0.0297000803,6277
0.02308402813,6278
0.02544216499,6279
0.02382497205,6280
0.02466917568,6281
0.02136620401,6282
0.02356120494,6283
0.02549797339,6284
0.02408888046,6285
0.02342781162,6286
0.02756436986,6287
0.03801146503,6288
0.04525172665,6289
0.0543588146,6290
0.0460406072,6291
0.0483531635,6292
0.0431613837,6293
0.04871669783,6294
0.04513024264,6295
0.04208436541,6296
0.0360763416,6297
0.03434576204,6298
0.02977319515,6299
0.03078037618,6300
0.02822373674,6301
0.02417906517,6302
0.02447188994,6303
0.01734812595,6304
0.02124239279,6305
0.01703914852,6306
0.01768917617,6307
0.02357148946,6308
0.02444068965,6309
0.02867276044,6310
0.02737593363,6311
0.02380185953,6312
0.02030179815,6313
0.02369873419,6314
0.0230246811,6315
0.02584746454,6316
0.02213606989,6317
0.02171988354,6318
0.025370742,6319
0.03388003716,6320
0.03043987276,6321
0.02881939355,6322
0.02972397425,6323
0.03122568075,6324
0.03383862398,6325
0.03496133588,6326
0.03058582123,6327
0.02975890737,6328
0.0269587658,6329
0.02998793293,6330
0.03771007931,6331
0.03944104694,6332
0.04247731006,6333
0.04316378754,6334
0.04058097594,6335
0.03952936745,6336
0.03541647085,6337
0.03509602955,6338
0.02940118457,6339
0.02975168562,6340
0.0348366727,6341
0.02980353119,6342
0.02856886961,6343
0.02684650509,6344
0.02839016447,6345
0.02956220564,6346
0.02507978436,6347
0.02671812794,6348
0.02371531796,6349
0.02642518244,6350
0.03050362265,6351
0.02768202664,6352
0.04140952762,6353
0.04013191557,6354
0.0404645266,6355
0.036845967,6356
0.03190866039,6357
0.0380810134,6358
0.03583947781,6359
0.03102781477,6360
0.02812536639,6361
0.04171109664,6362
0.04145940275,6363
0.03426044359,6364
0.04042348085,6365
0.03324909588,6366
0.03431477093,6367
0.03040112099,6368
0.029220391,6369
0.03444209511,6370
0.02865977362,6371
0.02563311055,6372
0.02822196979,6373
0.02709915442,6374
0.02827411031,6375
0.030529581,6376
0.0319146046,6377
0.03925890453,6378
0.03180890725,6379
0.03326671045,6380
0.03054510592,6381
0.02797185492,6382
0.02704919273,6383
0.027058883,6384
0.02651070169,6385
0.02084161143,6386
0.02269399104,6387
0.02569179853,6388
0.02763109831,6389
0.02533509259,6390
0.02819890928,6391
0.02653236887,6392
0.0268990451,6393
0.02527931384,6394
0.02575685702,6395
0.0283037016,6396
0.02253237038,6397
0.02713005085,6398
0.02675156644,6399
0.01982116497,6400
0.0234808402,6401
0.02425101995,6402
0.02153216169,6403
0.0244091147,6404
0.02568973412,6405
0.02802999956,6406
0.02111942365,6407
0.02215707655,6408
0.02373306956,6409
0.02133812281,6410
0.02119720883,6411
0.01918431242,6412
0.02095522366,6413
0.01910752587,6414
0.02272577454,6415
0.01844726518,6416
0.02043252607,6417
0.02518749542,6418
0.02492824493,6419
0.021145519,6420
0.02642679107,6421
0.02451549355,6422
0.025423113,6423
0.02644664402,6424
0.0227023859,6425
0.02523848443,6426
0.01791215661,6427
0.01979751016,6428
0.02115065624,6429
0.02064710965,6430
0.01800964358,6431
0.0190584106,6432
0.02073173757,6433
0.01549918353,6434
0.01793266225,6435
0.01565446941,6436
0.01717567407,6437
0.01519195583,6438
0.01277468451,6439
0.01467840574,6440
0.01906548895,6441
0.01675090798,6442
0.01218726726,6443
0.01571621744,6444
0.01504809567,6445
0.01413834856,6446
0.01588569532,6447
0.01622976177,6448
0.01482794534,6449
0.0139524877,6450
0.01660440334,6451
0.01451475617,6452
0.01435807331,6453
0.01558807454,6454
0.01610720562,6455
0.01568699674,6456
0.01455589938,6457
0.01652728547,6458
0.01722243952,6459
0.01563027051,6460
0.01469711904,6461
0.01609574676,6462
0.01302181778,6463
0.01484072758,6464
0.01664400444,6465
0.0126366431,6466
0.01298821561,6467
0.01513086633,6468
0.01286188168,6469
0.01303145456,6470
0.01142153424,6471
0.01184432641,6472
0.0126356779,6473
0.01236704564,6474
0.03193084647,6475
0.04785942782,6476
0.04872751441,6477
0.04248553531,6478
0.03907196468,6479
0.03418744416,6480
0.02933796938,6481
0.02373087124,6482
0.02125947261,6483
0.02000973157,6484
0.01729722274,6485
0.01882607093,6486
0.02020703208,6487
0.01846159301,6488
0.01882320997,6489
0.01866162116,6490
0.01834788722,6491
0.01635379104,6492
0.01844600684,6493
0.01796757603,6494
0.01588427631,6495
0.01781343087,6496
0.0171320063,6497
0.01718706662,6498
0.01653423621,6499
0.01544193052,6500
0.01616928122,6501
0.01527287471,6502
0.01619290625,6503
0.02647515234,6504
0.02844752488,6505
0.03013190596,6506
0.03150769704,6507
0.02889711543,6508
0.02721784367,6509
0.02279740798,6510
0.02123604468,6511
0.02234056533,6512
0.02043367097,6513
0.01649475969,6514
0.01966140438,6515
0.01850746533,6516
0.01921818146,6517
0.01768735742,6518
0.03774081558,6519
0.06914108947,6520
0.07649517242,6521
0.06541590979,6522
0.05748317051,6523
0.0456922579,6524
0.0425792221,6525
0.03221170567,6526
0.02953279557,6527
0.02903443402,6528
0.03196996336,6529
0.03464592586,6530
0.03967464145,6531
0.04795372813,6532
0.03999497747,6533
0.04355553107,6534
0.04461213791,6535
0.04465805827,6536
0.04272752307,6537
0.04166950441,6538
0.04282867152,6539
0.04321830938,6540
0.04976858727,6541
0.0508043524,6542
0.04917613524,6543
0.05344372393,6544
0.04968125708,6545
0.0511079549,6546
0.04413859472,6547
0.0438785917,6548
0.04575203199,6549
0.04210887968,6550
0.04327137298,6551
0.03837250255,6552
0.04823477532,6553
0.04401996984,6554
0.05039799799,6555
0.05349486134,6556
0.05123031092,6557
0.04789931535,6558
0.04320806105,6559
0.04380730592,6560
0.03838392115,6561
0.03780843842,6562
0.03306792606,6563
0.0507964349,6564
0.056999744,6565
0.06032180929,6566
0.06195138923,6567
0.06180436275,6568
0.05361209108,6569
0.05019992858,6570
0.05033750029,6571
0.04924292,6572
0.04462621927,6573
0.03945789557,6574
0.04103068573,6575
0.03459566901,6576
0.03247912396,6577
0.04044612051,6578
0.03429329787,6579
0.03714843732,6580
0.03371708029,6581
0.03493645475,6582
0.03185786677,6583
0.02554239874,6584
0.03121787795,6585
0.02420601335,6586
0.02543836381,6587
0.02384814542,6588
0.02918964954,6589
0.03951094713,6590
0.03882391355,6591
0.03641173858,6592
0.03803303363,6593
0.03841663435,6594
0.036957273,6595
0.03585399398,6596
0.03587179386,6597
0.03851528299,6598
0.03976155433,6599
0.04094714634,6600
0.04316135588,6601
0.04315492599,6602
0.03990130199,6603
0.03916096633,6604
0.04044518535,6605
0.03609241038,6606
0.03422823137,6607
0.03751135866,6608
0.03490399308,6609
0.03538085269,6610
0.03634296467,6611
0.04411100573,6612
0.03920711833,6613
0.03803030214,6614
0.04067893127,6615
0.03793831004,6616
0.04132185653,6617
0.03723730159,6618
0.04167330223,6619
0.04009047843,6620
0.03795596211,6621
0.03303242554,6622
0.03412580764,6623
0.03213009883,6624
0.03313446059,6625
0.03568615908,6626
0.02927834871,6627
0.03313994576,6628
0.02973017124,6629
0.02595221492,6630
0.02928156847,6631
0.02505764652,6632
0.02428634163,6633
0.02596571851,6634
0.02634990235,6635
0.03046926862,6636
0.02612282374,6637
0.02992177528,6638
0.02585619517,6639
0.02560529956,6640
0.02360986803,6641
0.02458551823,6642
0.02079813229,6643
0.02938751595,6644
0.04518951887,6645
0.04888976143,6646
0.04551948223,6647
0.03927539445,6648
0.03818009024,6649
0.03042134385,6650
0.02546415998,6651
0.02386534099,6652
0.02461762042,6653
0.02197506481,6654
0.02006918105,6655
0.02043734518,6656
0.01792179543,6657
0.01843135217,6658
0.01518436868,6659
0.01657079646,6660
0.01412017793,6661
0.01532929665,6662
0.01614839905,6663
0.01495711312,6664
0.01546111202,6665
0.01706570689,6666
0.0281922219,6667
0.02930721374,6668
0.02776617504,6669
0.02895381959,6670
0.02384664789,6671
0.02587288263,6672
0.02430106781,6673
0.02312125323,6674
0.02349207115,6675
0.02420571344,6676
0.0215080098,6677
0.02023314985,6678
0.02153006109,6679
0.02661348108,6680
0.06565136179,6681
0.08441315401,6682
0.07568952918,6683
0.07427125452,6684
0.06797522475,6685
0.05944191941,6686
0.04665478357,6687
0.03676912455,6688
0.03915096499,6689
0.03994400689,6690
0.04359301239,6691
0.04971236526,6692
0.04530392923,6693
0.04205157802,6694
0.04158186246,6695
0.03862670473,6696
0.03831444644,6697
0.03715876257,6698
0.03806696804,6699
0.04256957688,6700
0.05330421258,6701
0.06566418498,6702
0.08241877191,6703
0.0772819695,6704
0.0860845572,6705
0.08096606779,6706
0.08266939606,6707
0.08736155494,6708
0.08670931286,6709
0.08808717194,6710
0.08787891872,6711
0.08370718802,6712
0.08125844801,6713
0.08414346658,6714
0.08094581823,6715
0.07370549497,6716
0.07564186253,6717
0.06045012344,6718
0.06276489664,6719
0.06246287801,6720
0.05420832459,6721
0.05965539606,6722
0.05455657161,6723
0.04973869827,6724
0.06104009905,6725
0.03937492671,6726
0.04607979837,6727
0.0376645552,6728
0.03743233281,6729
0.04860984022,6730
0.04302770376,6731
0.0364603998,6732
0.03507280793,6733
0.03377513724,6734
0.04081865422,6735
0.0308655265,6736
0.0342083668,6737
0.0327865942,6738
0.0267005885,6739
0.02883830858,6740
0.03846769425,6741
0.03494393651,6742
0.03542891244,6743
0.0347977597,6744
0.03441215362,6745
0.04071255709,6746
0.03233339115,6747
0.03472546568,6748
0.02901635054,6749
0.02887424736,6750
0.02748855104,6751
0.03656946111,6752
0.03874135068,6753
0.04045268887,6754
0.03949394579,6755
0.04775150965,6756
0.04228203697,6757
0.04101911631,6758
0.04370155044,6759
0.03807957522,6760
0.04198988064,6761
0.0423839879,6762
0.04606580594,6763
0.04202680005,6764
0.03843040713,6765
0.03747945829,6766
0.0360402895,6767
0.03886605643,6768
0.03690250012,6769
0.03567624348,6770
0.03899104761,6771
0.03638605382,6772
0.03722099246,6773
0.04138774888,6774
0.04212933587,6775
0.04301603119,6776
0.04332194141,6777
0.04946173484,6778
0.04976187415,6779
0.03813869711,6780
0.05258251303,6781
0.05345074745,6782
0.04525140543,6783
0.04465471258,6784
0.05023160457,6785
0.05219543301,6786
0.04268070177,6787
0.04301044775,6788
0.04274034113,6789
0.04262668173,6790
0.03586710871,6791
0.04235866812,6792
0.0929327788,6793
0.1929432875,6794
0.181261915,6795
0.1681803171,6796
0.1545571183,6797
0.1439454593,6798
0.1461875201,6799
0.1314159894,6800
0.1286997451,6801
0.1165202094,6802
0.1072012757,6803
0.09458684813,6804
0.08124273048,6805
0.07653396638,6806
0.07362179276,6807
0.07006823765,6808
0.07274009906,6809
0.06823946278,6810
0.06523371502,6811
0.06133616071,6812
0.05501392123,6813
0.0472808157,6814
0.05179557227,6815
0.04622309281,6816
0.0473697602,6817
0.052514391,6818
0.05240386084,6819
0.04776115532,6820
0.05079965397,6821
0.04874105215,6822
0.04187108443,6823
0.04595638677,6824
0.04924376521,6825
0.04581672263,6826
0.04100581744,6827
0.05195318713,6828
0.04982298295,6829
0.05846239528,6830
0.05341195253,6831
0.05306746511,6832
0.05160196026,6833
0.05307481102,6834
0.05616389083,6835
0.04764340499,6836
0.04727299274,6837
0.05970788793,6838
0.05328093337,6839
0.06134656393,6840
0.0675802878,6841
0.05848879325,6842
0.06525517672,6843
0.05514582302,6844
0.05089802026,6845
0.06109033984,6846
0.05262539465,6847
0.05523421977,6848
0.05380565355,6849
0.06281615556,6850
0.05574201202,6851
0.05709069253,6852
0.06154008143,6853
0.04506383228,6854
0.05956921066,6855
0.05434361905,6856
0.04776049827,6857
0.06347849054,6858
0.0469855818,6859
0.05471421393,6860
0.04672489011,6861
0.04718179082,6862
0.04497303132,6863
0.04400761254,6864
0.04876350644,6865
0.03906144943,6866
0.05620724038,6867
0.05258439375,6868
0.1112928063,6869
0.1504770498,6870
0.1615182069,6871
0.1390762277,6872
0.1268407038,6873
0.1228040307,6874
0.1191856442,6875
0.1282613578,6876
0.1143274784,6877
0.1131150248,6878
0.1036290686,6879
0.1031812982,6880
0.1007924842,6881
0.09475283614,6882
0.08363477194,6883
0.07068070591,6884
0.06606266959,6885
0.05616798977,6886
0.05195864652,6887
0.05957699169,6888
0.06836968028,6889
0.06175738217,6890
0.07538607065,6891
0.07198519819,6892
0.06252082908,6893
0.05823015369,6894
0.06290334223,6895
0.06294466472,6896
0.06448350128,6897
0.0626088698,6898
0.05703218672,6899
0.05725338205,6900
0.04944771596,6901
0.04913547382,6902
0.0537640396,6903
0.05530101221,6904
0.06239296131,6905
0.0494827702,6906
0.05921534503,6907
0.05519174731,6908
0.04816820577,6909
0.06842849443,6910
0.07373524725,6911
0.08490699398,6912
0.07930865586,6913
0.07822685908,6914
0.06809586762,6915
0.0691703687,6916
0.06931005582,6917
0.06235973505,6918
0.06549607662,6919
0.07029823351,6920
0.06218820753,6921
0.0598862877,6922
0.06069364376,6923
0.04802479534,6924
0.05609286763,6925
0.05982157689,6926
0.05653520504,6927
0.0514654362,6928
0.07118075892,6929
0.09383380784,6930
0.1052822248,6931
0.09029392522,6932
0.08255674092,6933
0.07033585329,6934
0.07812649762,6935
0.07494500054,6936
0.06369184053,6937
0.06499547111,6938
0.08620177824,6939
0.091723376,6940
0.1301574119,6941
0.1431004522,6942
0.2000411011,6943
0.2083238664,6944
0.2010373113,6945
0.2058067761,6946
0.1885960573,6947
0.1811163625,6948
0.1625421104,6949
0.1505286039,6950
0.1491498487,6951
0.1401667751,6952
0.1453116572,6953
0.1441426863,6954
0.1508254605,6955
0.1345152649,6956
0.1222243181,6957
0.1136592424,6958
0.114332536,6959
0.1077941856,6960
0.08085076989,6961
0.09027203013,6962
0.07856889184,6963
0.08385182865,6964
0.08726776045,6965
0.07660839561,6966
0.08796439671,6967
0.07316688578,6968
0.08594707171,6969
0.1013648346,6970
0.09566546016,6971
0.1086138475,6972
0.1041095183,6973
0.1011701943,6974
0.09381347683,6975
0.09608391768,6976
0.09521152868,6977
0.09995367613,6978
0.09617837507,6979
0.1283281003,6980
0.113805957,6981
0.113627894,6982
0.1175938976,6983
0.1050467449,6984
0.09951137375,6985
0.09251811971,6986
0.1024110081,6987
0.101862121,6988
0.1091296781,6989
0.1108952629,6990
0.1095865956,6991
0.108049602,6992
0.1158287247,6993
0.101319789,6994
0.1011535727,6995
0.1062551809,6996
0.1313713592,6997
0.129039378,6998
0.1295513312,6999
0.1336234515,7000
0.1349864833,7001
0.1324989836,7002
0.1185090372,7003
0.1145527256,7004
0.1248417841,7005
0.1991266826,7006
0.2615045363,7007
0.2586939726,7008
0.2325646389,7009
0.2225268201,7010
0.2070585907,7011
0.2007349351,7012
0.2070330043,7013
0.1991876222,7014
0.1621194292,7015
0.1560517018,7016
0.1404514092,7017
0.1141445084,7018
0.1322416558,7019
0.1167687543,7020
0.1292162676,7021
0.1163276972,7022
0.1196497796,7023
0.1153155536,7024
0.1226538373,7025
0.1347346809,7026
0.1156575737,7027
0.1403503413,7028
0.124588108,7029
0.1176413639,7030
0.1509610954,7031
0.1090891484,7032
0.1332639124,7033
0.1146209813,7034
0.1068370005,7035
0.1278672561,7036
0.1243339534,7037
0.1271323397,7038
0.09819905549,7039
0.105311556,7040
0.119911302,7041
0.1163511364,7042
0.1069025038,7043
0.08897292807,7044
0.1425203153,7045
0.1425702993,7046
0.1476514133,7047
0.1334080119,7048
0.1234445728,7049
0.1290708253,7050
0.1116539499,7051
0.1042026688,7052
0.1451691639,7053
0.1746097748,7054
0.1880035354,7055
0.1767195908,7056
0.1773693824,7057
0.1779188766,7058
0.1762319927,7059
0.1774780395,7060
0.1601889665,7061
0.1796274408,7062
0.1743764537,7063
0.1902471787,7064
0.2067335048,7065
0.2483535396,7066
0.1930980435,7067
0.1860632409,7068
0.1375211548,7069
0.1154182889,7070
0.1249632905,7071
0.1038582942,7072
0.08551127384,7073
0.09487203993,7074
0.09502386428,7075
0.08728439682,7076
0.09184338833,7077
0.08491821662,7078
0.1217158787,7079
0.1115702176,7080
0.1087653635,7081
0.102385697,7082
0.1079813744,7083
0.09895698057,7084
0.09569135056,7085
0.09695881795,7086
0.09639599224,7087
0.07795188196,7088
0.08526036539,7089
0.121157453,7090
0.2212623072,7091
0.2278091194,7092
0.2477606884,7093
0.2010152437,7094
0.2363334703,7095
0.1961321262,7096
0.212049608,7097
0.1974699364,7098
0.1890030579,7099
0.1713113191,7100
0.1650592046,7101
0.1480141355,7102
0.1354161334,7103
0.1890879723,7104
0.2473608516,7105
0.1647091676,7106
0.2021899208,7107
0.1576721258,7108
0.1806633511,7109
0.1305239331,7110
0.1637731588,7111
0.1204042536,7112
0.1684622942,7113
0.2208917279,7114
0.2609776583,7115
0.2256072126,7116
0.2073790142,7117
0.1814338324,7118
0.1661938055,7119
0.1732489912,7120
0.2515667175,7121
0.3065643099,7122
0.3120998881,7123
0.3084105522,7124
0.2528760267,7125
0.2089987275,7126
0.1920968596,7127
0.1895799003,7128
0.1459722943,7129
0.1603340217,7130
0.2391260998,7131
0.2104654738,7132
0.1978396485,7133
0.165901929,7134
0.1488215955,7135
0.1311142623,7136
0.1537799101,7137
0.1317146909,7138
0.1175452356,7139
0.1346160037,7140
0.13182477,7141
0.1248560195,7142
0.1259214498,7143
0.1330969899,7144
0.1147966682,7145
0.1176203462,7146
0.1205695971,7147
0.08088856675,7148
0.110966046,7149
0.1037064461,7150
0.08900963421,7151
0.1238538864,7152
0.1447780989,7153
0.2357021873,7154
0.2554563404,7155
0.2463950603,7156
0.2483798585,7157
0.2441113922,7158
0.2132233802,7159
0.2063098413,7160
0.1743007158,7161
0.1704314516,7162
0.1497448144,7163
0.1792047742,7164
0.1795191651,7165
0.1932214276,7166
0.1611894352,7167
0.1695855866,7168
0.1359607106,7169
0.1506276978,7170
0.2344629171,7171
0.2996308403,7172
0.2849090049,7173
0.2403229304,7174
0.2090560153,7175
0.203001797,7176
0.2007199865,7177
0.1924877011,7178
0.198510907,7179
0.2064584893,7180
0.2099146541,7181
0.2043420305,7182
0.1775900393,7183
0.181247558,7184
0.1655641154,7185
0.1719430986,7186
0.1609340192,7187
0.1674823368,7188
0.1556928709,7189
0.1550796175,7190
0.2114828871,7191
0.1577752717,7192
0.1229401508,7193
0.1488928673,7194
0.138005359,7195
0.1670529841,7196
0.163522104,7197
0.1565798878,7198
0.1442692225,7199
0.155828613,7200
0.161815533,7201
0.152675015,7202
0.1561976337,7203
0.1518480044,7204
0.153786882,7205
0.129299794,7206
0.1505895669,7207
0.1438429552,7208
0.1459871386,7209
0.1280744896,7210
0.2009687581,7211
0.2499830897,7212
0.2504510958,7213
0.2074222899,7214
0.187430029,7215
0.1471721046,7216
0.1414112906,7217
0.1833664714,7218
0.138006016,7219
0.1376108016,7220
0.157326836,7221
0.1231661755,7222
0.1224871614,7223
0.1276563864,7224
0.1135114294,7225
0.1177963054,7226
0.1333710844,7227
0.2214492721,7228
0.2697655748,7229
0.2419054576,7230
0.2093428054,7231
0.194891494,7232
0.1835605343,7233
0.174035619,7234
0.1698187399,7235
0.174272343,7236
0.1872241583,7237
0.2307334612,7238
0.2877183317,7239
0.2567875055,7240
0.2118711661,7241
0.1996657249,7242
0.1847019103,7243
0.1585021861,7244
0.1707791421,7245
0.1486168815,7246
0.2310235929,7247
0.2931026749,7248
0.1736053246,7249
0.2704933365,7250
0.2014560004,7251
0.2610023679,7252
0.1770220552,7253
0.2463289714,7254
0.1609117824,7255
0.2034969621,7256
0.1217443573,7257
0.1367236931,7258
0.1370200275,7259
0.1217566902,7260
0.1209627803,7261
0.1216135087,7262
0.1220740505,7263
0.127652119,7264
0.113432821,7265
0.09942445338,7266
0.08980271105,7267
0.07996410172,7268
0.08252492619,7269
0.08294082901,7270
0.07648702133,7271
0.06957529481,7272
0.06267097102,7273
0.07997337918,7274
0.07885722385,7275
0.08283235133,7276
0.08471561103,7277
0.08284242933,7278
0.07353444361,7279
0.1013985551,7280
0.1396394198,7281
0.1530802661,7282
0.1251015275,7283
0.1190397214,7284
0.1013792312,7285
0.1054178836,7286
0.1010233493,7287
0.09850872151,7288
0.0739503488,7289
0.08225433312,7290
0.07702789615,7291
0.07908748486,7292
0.07668616677,7293
0.07451257104,7294
0.07190735746,7295
0.07418441646,7296
0.0795063799,7297
0.07562840226,7298
0.07368659578,7299
0.1023931492,7300
0.1320138844,7301
0.1034290254,7302
0.1176497249,7303
0.09567666573,7304
0.1105930714,7305
0.07622302421,7306
0.1101734148,7307
0.07695472484,7308
0.1002195426,7309
0.06445369734,7310
0.09854886664,7311
0.0746899603,7312
0.1155335527,7313
0.124187894,7314
0.1264982582,7315
0.1187482133,7316
0.1176871913,7317
0.09814697328,7318
0.0925747779,7319
0.1163424135,7320
0.1786852993,7321
0.2181043022,7322
0.2233592731,7323
0.2144688752,7324
0.1926707899,7325
0.1847610944,7326
0.2060825503,7327
0.1751969134,7328
0.1548857321,7329
0.1460103211,7330
0.1361664278,7331
0.1327698336,7332
0.07216408346,7333
0.06763510419,7334
0.05915590946,7335
0.06696141095,7336
0.0638862735,7337
0.06581326013,7338
0.06452550842,7339
0.06924430042,7340
0.06598248559,7341
0.05344132038,7342
0.05526062127,7343
0.04703203171,7344
0.04942745018,7345
0.04726516684,7346
0.04526697501,7347
0.04526746764,7348
0.04411208393,7349
0.04110664025,7350
0.04055071162,7351
0.03618015758,7352
0.03515958713,7353
0.03542922619,7354
0.02786539616,7355
0.03234481283,7356
0.02668377622,7357
0.02987429886,7358
0.038703528,7359
0.02828344554,7360
0.03494538034,7361
0.03353917072,7362
0.03297323075,7363
0.03543060997,7364
0.0299775323,7365
0.03563081278,7366
0.03249467433,7367
0.03745426869,7368
0.03901109384,7369
0.04376734786,7370
0.03761314925,7371
0.04027766484,7372
0.04362934942,7373
0.03742815997,7374
0.03395043531,7375
0.04236511983,7376
0.03998699702,7377
0.0407740168,7378
0.03642763235,7379
0.03786845059,7380
0.04218819488,7381
0.03829702484,7382
0.03639365044,7383
0.03369758718,7384
0.03275287429,7385
0.03966799447,7386
0.04548308036,7387
0.04657532102,7388
0.04121872915,7389
0.04731828028,7390
0.04141589907,7391
0.04063102791,7392
0.03741287294,7393
0.03612846875,7394
0.03849157855,7395
0.03561189652,7396
0.04295064771,7397
0.04240619895,7398
0.03988721816,7399
0.03651435239,7400
0.03174369389,7401
0.03629546707,7402
0.03808526305,7403
0.03392808113,7404
0.03700297068,7405
0.02823304009,7406
0.027239747,7407
0.02441816269,7408
0.02636943565,7409
0.02666891983,7410
0.028491971,7411
0.03437858224,7412
0.02323758331,7413
0.02490776149,7414
0.02151616681,7415
0.02361087724,7416
0.01852909181,7417
0.02096218034,7418
0.02327181962,7419
0.0304987209,7420
0.03503871532,7421
0.03011283558,7422
0.02929598054,7423
0.02850861969,7424
0.03502986605,7425
0.03716290078,7426
0.03544855156,7427
0.03643644679,7428
0.03145223309,7429
0.03349920256,7430
0.0388166861,7431
0.03467792185,7432
0.03772539608,7433
0.03792375358,7434
0.03639075121,7435
0.03555909862,7436
0.03550045835,7437
0.03716831559,7438
0.03650380642,7439
0.03715969977,7440
0.04469424016,7441
0.04296642669,7442
0.0436306243,7443
0.04048733534,7444
0.03600044639,7445
0.03533926346,7446
0.03065372956,7447
0.03527194477,7448
0.03300670518,7449
0.03137153821,7450
0.03125043376,7451
0.02767577894,7452
0.02793603194,7453
0.03113878466,7454
0.02702706589,7455
0.02933124002,7456
0.02962382029,7457
0.02488326449,7458
0.02889295851,7459
0.0318495716,7460
0.03554714064,7461
0.03856819439,7462
0.03428873321,7463
0.03185986884,7464
0.03384537265,7465
0.03606804382,7466
0.03382662124,7467
0.02868343826,7468
0.03384589628,7469
0.03134063471,7470
0.02744493409,7471
0.02891415704,7472
0.02543017144,7473
0.02583686105,7474
0.0247047289,7475
0.02879366065,7476
0.02796166184,7477
0.02360950928,7478
0.02486680783,7479
0.02393633822,7480
0.0219992086,7481
0.01967873184,7482
0.02140865424,7483
0.02224851044,7484
0.02023436919,7485
0.02318832412,7486
0.05086916279,7487
0.06840421731,7488
0.07003702992,7489
0.06509361676,7490
0.06432628014,7491
0.05921010328,7492
0.06524448972,7493
0.06053194537,7494
0.06019688456,7495
0.05343745456,7496
0.05442362531,7497
0.04755085424,7498
0.04288008748,7499
0.03906170103,7500
0.03645500433,7501
0.03142506406,7502
0.02650362626,7503
0.02434925235,7504
0.01950999706,7505
0.01978151456,7506
0.01750425794,7507
0.01875784168,7508
0.01507201963,7509
0.02125913503,7510
0.02126003093,7511
0.02238622816,7512
0.02185684345,7513
0.01633229406,7514
0.01879000399,7515
0.01666329942,7516
0.01719836278,7517
0.01730727319,7518
0.01445747579,7519
0.01673176806,7520
0.01506733742,7521
0.01902259628,7522
0.0209751809,7523
0.01968908212,7524
0.02123953885,7525
0.02313549079,7526
0.02556670106,7527
0.0225712238,7528
0.0241601482,7529
0.0211510951,7530
0.01788827057,7531
0.0229958421,7532
0.02932932365,7533
0.03535449129,7534
0.03528083424,7535
0.0365965283,7536
0.03711240025,7537
0.03034098122,7538
0.0333497895,7539
0.03003930991,7540
0.02841571472,7541
0.02827230664,7542
0.02692011579,7543
0.02845444246,7544
0.02637603213,7545
0.02467413142,7546
0.02672856741,7547
0.02498738225,7548
0.02507888511,7549
0.0247222361,7550
0.02430874954,7551
0.02868843706,7552
0.03068250487,7553
0.03872034275,7554
0.03745517125,7555
0.03709221038,7556
0.03320434312,7557
0.02975320458,7558
0.03662013631,7559
0.03361011924,7560
0.03277776728,7561
0.02365889583,7562
0.0313582056,7563
0.03577132494,7564
0.03835272924,7565
0.03515337326,7566
0.02827346426,7567
0.02750202607,7568
0.03113818254,7569
0.03037812165,7570
0.02877304211,7571
0.02480538899,7572
0.02313256614,7573
0.02231605326,7574
0.02028673728,7575
0.02208547006,7576
0.02395847248,7577
0.02539956362,7578
0.0282710139,7579
0.02868188791,7580
0.02647346677,7581
0.02212646399,7582
0.020386413,7583
0.02166690746,7584
0.0174981265,7585
0.01754100001,7586
0.01678823157,7587
0.01784627513,7588
0.02311978348,7589
0.02245408816,7590
0.02110564712,7591
0.01906277093,7592
0.02536221598,7593
0.02462150993,7594
0.02157882663,7595
0.02385926679,7596
0.02209160278,7597
0.02037648111,7598
0.01978473154,7599
0.02011869982,7600
0.01792135443,7601
0.02428687329,7602
0.03014407849,7603
0.02910135903,7604
0.02904603516,7605
0.02628046392,7606
0.02672285981,7607
0.02548012233,7608
0.02364558524,7609
0.02450973062,7610
0.0222808844,7611
0.02157260732,7612
0.01962898841,7613
0.02454996909,7614
0.02226035575,7615
0.02330273551,7616
0.01998710591,7617
0.01871022987,7618
0.02012833005,7619
0.01895584961,7620
0.01749056095,7621
0.01980901727,7622
0.01848865073,7623
0.01985656999,7624
0.01662300036,7625
0.01792366798,7626
0.01782189299,7627
0.01611643705,7628
0.0196509967,7629
0.01501176788,7630
0.01723497913,7631
0.01499327835,7632
0.01590399153,7633
0.01402400953,7634
0.01554680385,7635
0.01648347744,7636
0.01666159084,7637
0.01990655154,7638
0.01770628237,7639
0.02064267092,7640
0.01512943514,7641
0.01685675773,7642
0.01292172301,7643
0.01460489729,7644
0.01138391728,7645
0.01356080855,7646
0.0124259093,7647
0.01160205831,7648
0.01360099644,7649
0.01021509038,7650
0.01589533708,7651
0.009890770912,7652
0.01261692234,7653
0.01234889352,7654
0.01087704946,7655
0.01234303498,7656
0.0112706747,7657
0.01143048781,7658
0.009572535963,7659
0.01330464623,7660
0.0132969073,7661
0.01490767335,7662
0.0181436153,7663
0.0182081561,7664
0.02339292262,7665
0.03850137655,7666
0.04322565318,7667
0.03751953243,7668
0.03352098608,7669
0.03072312235,7670
0.02415557107,7671
0.02099009032,7672
0.02140985162,7673
0.0195718726,7674
0.01883253993,7675
0.01882004184,7676
0.01986840792,7677
0.01821251805,7678
0.01865795043,7679
0.01791483811,7680
0.01594868021,7681
0.0144381026,7682
0.01445148046,7683
0.01500623862,7684
0.01396555641,7685
0.01369944807,7686
0.01396844151,7687
0.01241869891,7688
0.01114636802,7689
0.01615660706,7690
0.02845820383,7691
0.0269056888,7692
0.02952348589,7693
0.02397531355,7694
0.02467772414,7695
0.02263288266,7696
0.021291862,7697
0.02328766064,7698
0.02200960077,7699
0.02223621717,7700
0.02076357983,7701
0.02022112434,7702
0.01752334363,7703
0.01723812327,7704
0.03979805495,7705
0.06787272744,7706
0.07852366056,7707
0.07118728552,7708
0.06957936758,7709
0.06781351665,7710
0.06332983053,7711
0.05201833324,7712
0.05215132668,7713
0.04582479119,7714
0.05079805915,7715
0.04626101251,7716
0.0482445673,7717
0.04623489415,7718
0.04322473738,7719
0.03907354956,7720
0.03752928426,7721
0.03667387945,7722
0.03095060689,7723
0.03366690755,7724
0.03784108755,7725
0.04530480641,7726
0.06071196136,7727
0.06452492517,7728
0.07508704597,7729
0.07681743326,7730
0.0714269264,7731
0.08198140278,7732
0.08737239267,7733
0.08641655357,7734
0.08274994769,7735
0.08407965252,7736
0.07726155393,7737
0.08084828402,7738
0.07982059443,7739
0.07155399319,7740
0.07202550768,7741
0.06617530533,7742
0.06316142277,7743
0.06130323755,7744
0.05723853619,7745
0.05235424889,7746
0.05253507008,7747
0.04912638841,7748
0.03956232472,7749
0.06047512224,7750
0.06752943285,7751
0.07245951036,7752
0.06905878961,7753
0.06456721456,7754
0.06310934747,7755
0.05655191168,7756
0.05067087903,7757
0.04979384735,7758
0.04588919872,7759
0.03890884512,7760
0.03771951956,7761
0.03353318416,7762
0.03284113434,7763
0.03033458758,7764
0.03161331817,7765
0.0336545468,7766
0.03216093455,7767
0.02597398253,7768
0.02431560699,7769
0.02325949846,7770
0.02153234611,7771
0.02003494166,7772
0.01898227569,7773
0.0222008635,7774
0.02314411055,7775
0.0303991345,7776
0.02900510164,7777
0.02968094463,7778
0.02858783004,7779
0.03212889011,7780
0.0283329857,7781
0.02609501786,7782
0.02759830131,7783
0.02513306631,7784
0.04385595656,7785
0.05352832898,7786
0.05338565441,7787
0.05125680553,7788
0.05704740617,7789
0.04790021006,7790
0.04943965466,7791
0.05198518511,7792
0.04488839559,7793
0.04149184012,7794
0.03872673466,7795
0.04312717105,7796
0.04188435361,7797
0.0419409268,7798
0.03958831069,7799
0.03591107684,7800
0.03494545671,7801
0.03531171896,7802
0.03623073464,7803
0.03980654212,7804
0.038218364,7805
0.0341811394,7806
0.03668054846,7807
0.04006965898,7808
0.03562946978,7809
0.03486328529,7810
0.03998938963,7811
0.03865587759,7812
0.03689212955,7813
0.03664039657,7814
0.03228377687,7815
0.02822782199,7816
0.03016249787,7817
0.03096834107,7818
0.02785393554,7819
0.02696228412,7820
0.03359606814,7821
0.02801167535,7822
0.03317000994,7823
0.03086839009,7824
0.04470521417,7825
0.07606366261,7826
0.07638807998,7827
0.07122129493,7828
0.0662450975,7829
0.05239465406,7830
0.04953383006,7831
0.03656842751,7832
0.03415781358,7833
0.03582674515,7834
0.03265172548,7835
0.0322130409,7836
0.03128076443,7837
0.03155291744,7838
0.02745483364,7839
0.02569195539,7840
0.0250420546,7841
0.02741212713,7842
0.02537992884,7843
0.02547444941,7844
0.02773151693,7845
0.03050212022,7846
0.04206566417,7847
0.0403675714,7848
0.04333003291,7849
0.0443845305,7850
0.03658891441,7851
0.03831057438,7852
0.03471906543,7853
0.03322401607,7854
0.03483982033,7855
0.02866033112,7856
0.03125565366,7857
0.02695766603,7858
0.02867741066,7859
0.02872858771,7860
0.04616118815,7861
0.07774699307,7862
0.08691040409,7863
0.08570956141,7864
0.08042837217,7865
0.08157483879,7866
0.08000954138,7867
0.07270285691,7868
0.06408048676,7869
0.05946910017,7870
0.06793558423,7871
0.06839287709,7872
0.06029196544,7873
0.06619338292,7874
0.0652098417,7875
0.06253963776,7876
0.05484252602,7877
0.05827911103,7878
0.05720827362,7879
0.0547787431,7880
0.04925528302,7881
0.04632588976,7882
0.06169115014,7883
0.09240740625,7884
0.1049213196,7885
0.09895840377,7886
0.1081250567,7887
0.1028383663,7888
0.11633231,7889
0.1210676306,7890
0.1279404398,7891
0.1168720773,7892
0.128584921,7893
0.1277328918,7894
0.1162158048,7895
0.1362188438,7896
0.1181127004,7897
0.1183514087,7898
0.113830141,7899
0.1122772892,7900
0.1040859767,7901
0.1004262644,7902
0.1013469635,7903
0.09787948063,7904
0.09765837264,7905
0.08781946083,7906
0.09469249701,7907
0.09300225089,7908
0.07885606602,7909
0.09823775649,7910
0.1194419257,7911
0.09952663209,7912
0.09050129643,7913
0.08953917655,7914
0.08284107996,7915
0.1102954783,7916
0.09674370426,7917
0.08813528061,7918
0.09020441862,7919
0.083141372,7920
0.08601028065,7921
0.08409711756,7922
0.07132080375,7923
0.07211645424,7924
0.05814161047,7925
0.06003417831,7926
0.06222367662,7927
0.0617393497,7928
0.05759951673,7929
0.05464982559,7930
0.04804855488,7931
0.04248033684,7932
0.04201704615,7933
0.03509011426,7934
0.04043891303,7935
0.0376976276,7936
0.03447564825,7937
0.03274182677,7938
0.02911968107,7939
0.03738200012,7940
0.0459699834,7941
0.06373449301,7942
0.0653281428,7943
0.06626757098,7944
0.06910473809,7945
0.07101136985,7946
0.07116278197,7947
0.06311678489,7948
0.06406607259,7949
0.07044027007,7950
0.07311556959,7951
0.0612228633,7952
0.06599594471,7953
0.06196969105,7954
0.05623927849,7955
0.06456697346,7956
0.06438977406,7957
0.05890764985,7958
0.05321526404,7959
0.05484273698,7960
0.06547698912,7961
0.06566178738,7962
0.0576670715,7963
0.06438668482,7964
0.06977049118,7965
0.06800182973,7966
0.07965218024,7967
0.07505580462,7968
0.06335897579,7969
0.07504524156,7970
0.08010210402,7971
0.0845364982,7972
0.07803829323,7973
0.08247838797,7974
0.07935773041,7975
0.0833651944,7976
0.07507975082,7977
0.06634811701,7978
0.09667985971,7979
0.2794616415,7980
0.2892745091,7981
0.2648325233,7982
0.2482634106,7983
0.2238793388,7984
0.2233813681,7985
0.1891365901,7986
0.1853669739,7987
0.1733877198,7988
0.1671085646,7989
0.1512956362,7990
0.1403529375,7991
0.1269384267,7992
0.1092002028,7993
0.1073066345,7994
0.1096979943,7995
0.09709648763,7996
0.1024190853,7997
0.1123591435,7998
0.1067380763,7999
0.08959493735,8000
0.09271022557,8001
0.07296103716,8002
0.07009928985,8003
0.07763044016,8004
0.09321101622,8005
0.1107955075,8006
0.09956728744,8007
0.09864386698,8008
0.102741995,8009
0.0914465396,8010
0.08786619174,8011
0.09557300104,8012
0.08650341931,8013
0.1086332894,8014
0.125904321,8015
0.1219048934,8016
0.1086621746,8017
0.1072603472,8018
0.1132838567,8019
0.1113179561,8020
0.1120057987,8021
0.1132521121,8022
0.09688263584,8023
0.1444377339,8024
0.1315999489,8025
0.1598433648,8026
0.1391003247,8027
0.1527928161,8028
0.1193112201,8029
0.1433243957,8030
0.1296273633,8031
0.1090844116,8032
0.1387365602,8033
0.1401851597,8034
0.1448942161,8035
0.1504555637,8036
0.1314886013,8037
0.1440417765,8038
0.1149405359,8039
0.123273006,8040
0.1314654294,8041
0.1207287572,8042
0.1239864363,8043
0.1125996602,8044
0.104122238,8045
0.103530866,8046
0.09898225173,8047
0.1162908024,8048
0.112522765,8049
0.25577,8050
0.2974666894,8051
0.2861335928,8052
0.2691193515,8053
0.2334695834,8054
0.2299413848,8055
0.2500141468,8056
0.2521023255,8057
0.2415921965,8058
0.2197176832,8059
0.205874665,8060
0.1985923352,8061
0.190854063,8062
0.1750272494,8063
0.1501909758,8064
0.1319911949,8065
0.1239324761,8066
0.1293160126,8067
0.1199323315,8068
0.1086223111,8069
0.1113203147,8070
0.1193476217,8071
0.1078799419,8072
0.1052466714,8073
0.0969507976,8074
0.09527639958,8075
0.09934934894,8076
0.09058154327,8077
0.06914625449,8078
0.07384142658,8079
0.06208646148,8080
0.0667594676,8081
0.06874595687,8082
0.06565122866,8083
0.07253711929,8084
0.06454629919,8085
0.06565011356,8086
0.08996776563,8087
0.09113138514,8088
0.1045754703,8089
0.101906179,8090
0.09459402395,8091
0.08623205563,8092
0.08148602493,8093
0.08408429785,8094
0.09130151612,8095
0.08176271108,8096
0.09717105535,8097
0.1311597176,8098
0.1222409338,8099
0.1151192393,8100
0.1011299997,8101
0.09616903889,8102
0.1054592028,8103
0.09971221408,8104
0.09080655851,8105
0.08162537919,8106
0.08396353041,8107
0.09335539045,8108
0.09852984714,8109
0.1111432457,8110
0.09532152361,8111
0.1131495271,8112
0.09821342097,8113
0.09696306289,8114
0.09720142511,8115
0.09461673493,8116
0.09771084017,8117
0.09156529635,8118
0.08492536579,8119
0.0752112741,8120
0.07588032324,8121
0.08064651955,8122
0.07710633729,8123
0.0928044722,8124
0.0856353928,8125
0.1005065605,8126
0.1781524705,8127
0.3977779104,8128
0.3646472458,8129
0.3453253136,8130
0.3771977743,8131
0.3633563878,8132
0.3279715328,8133
0.3150177552,8134
0.2883638654,8135
0.2946584387,8136
0.2631249676,8137
0.2226280761,8138
0.2146256058,8139
0.17885788,8140
0.1782100878,8141
0.1539797684,8142
0.1483598416,8143
0.1568467778,8144
0.1614346273,8145
0.146940658,8146
0.13618943,8147
0.1317652469,8148
0.1313975467,8149
0.1206876851,8150
0.1107072008,8151
0.1170093008,8152
0.1197726635,8153
0.1085865455,8154
0.1268824533,8155
0.1102707153,8156
0.133953365,8157
0.1325823957,8158
0.128560668,8159
0.1348702136,8160
0.1171621073,8161
0.1275622086,8162
0.1252603969,8163
0.1210512386,8164
0.1453408219,8165
0.150868104,8166
0.1584375474,8167
0.1395884565,8168
0.142219932,8169
0.1297691162,8170
0.1384499008,8171
0.1325565685,8172
0.1360671788,8173
0.1600951912,8174
0.200601676,8175
0.2222472866,8176
0.2254723842,8177
0.2210784581,8178
0.2356884153,8179
0.2055137454,8180
0.1830562388,8181
0.1588137557,8182
0.1424934729,8183
0.2083314002,8184
0.2490594607,8185
0.2413182557,8186
0.2691084417,8187
0.2811759933,8188
0.2198808465,8189
0.21221671,8190
0.2064740622,8191
0.1994622302,8192
0.1816370206,8193
0.156035037,8194
0.1715624323,8195
0.1760858689,8196
0.3077551168,8197
0.3207731952,8198
0.3232952442,8199
0.3223269563,8200
0.2930666791,8201
0.2954606868,8202
0.2719144495,8203
0.2200809379,8204
0.2254719988,8205
0.1996295124,8206
0.2260355321,8207
0.2095674378,8208
0.1820317787,8209
0.2140203501,8210
0.1800467175,8211
0.189723474,8212
0.1674764417,8213
0.1478005349,8214
0.175014792,8215
0.1607513855,8216
0.1375866024,8217
0.1189655724,8218
0.1309290761,8219
0.1345987295,8220
0.1297151963,8221
0.1141212041,8222
0.1155371145,8223
0.1324185463,8224
0.1559645364,8225
0.1358949856,8226
0.1458268778,8227
0.135525064,8228
0.1424020584,8229
0.1224684637,8230
0.129489597,8231
0.1269584716,8232
0.2174375074,8233
0.2790091464,8234
0.2646322225,8235
0.2464838917,8236
0.2093250211,8237
0.1874533883,8238
0.1677603827,8239
0.1840367381,8240
0.1528867655,8241
0.1468211346,8242
0.1448015994,8243
0.1510113963,8244
0.1642666234,8245
0.1674328294,8246
0.1552128393,8247
0.1347585312,8248
0.1239418008,8249
0.1284987183,8250
0.1209456546,8251
0.1179914851,8252
0.09964267359,8253
0.1129556801,8254
0.1183429063,8255
0.2081810646,8256
0.2620933192,8257
0.2666748281,8258
0.2317054425,8259
0.2224666338,8260
0.1763699229,8261
0.2013484838,8262
0.183557769,8263
0.198707517,8264
0.2064015212,8265
0.1997395485,8266
0.1881175007,8267
0.1480184054,8268
0.1413447581,8269
0.1245592068,8270
0.1301888907,8271
0.1171221579,8272
0.1151749126,8273
0.1113454347,8274
0.09758991025,8275
0.106360828,8276
0.08330206698,8277
0.1000493627,8278
0.09168176815,8279
0.1010927151,8280
0.1067952939,8281
0.1055367035,8282
0.1078401172,8283
0.09100640802,8284
0.1040463085,8285
0.09917036179,8286
0.09649331686,8287
0.1024352457,8288
0.08616905475,8289
0.09103247564,8290
0.1786494132,8291
0.2418311842,8292
0.2247147106,8293
0.2012506892,8294
0.183325318,8295
0.1413600992,8296
0.1395654641,8297
0.1435900462,8298
0.1124530453,8299
0.1161985765,8300
0.1019009945,8301
0.09819383671,8302
0.09238106346,8303
0.0946090706,8304
0.1924613274,8305
0.2284331978,8306
0.2276174343,8307
0.2178482329,8308
0.2010414202,8309
0.1898944969,8310
0.1608172253,8311
0.1730390043,8312
0.1741804794,8313
0.2234659809,8314
0.2988952691,8315
0.3097062031,8316
0.2665665787,8317
0.238464749,8318
0.184552601,8319
0.166421293,8320
0.1811275197,8321
0.143509206,8322
0.1493681025,8323
0.1388647791,8324
0.2161400491,8325
0.2737163883,8326
0.2616035532,8327
0.2415617685,8328
0.2154568769,8329
0.2346256077,8330
0.1908807997,8331
0.1843494653,8332
0.1910133722,8333
0.2130079822,8334
0.1958888822,8335
0.1626150337,8336
0.1413063276,8337
0.1304588226,8338
0.1408460358,8339
0.1274325347,8340
0.1131208089,8341
0.1186299367,8342
0.1197625691,8343
0.1265645288,8344
0.1278262461,8345
0.1264649345,8346
0.1283325831,8347
0.1252701387,8348
0.1252426571,8349
0.1232233664,8350
0.1224220788,8351
0.1144435423,8352
0.11471322,8353
0.1223096039,8354
0.1209717706,8355
0.14371084,8356
0.1443358473,8357
0.1153339835,8358
0.1292490365,8359
0.1207505724,8360
0.1227547595,8361
0.1188339305,8362
0.1058676197,8363
0.1298493507,8364
0.136093045,8365
0.1199062595,8366
0.1178386836,8367
0.1075863293,8368
0.09863167212,8369
0.104036214,8370
0.09943115321,8371
0.09800932899,8372
0.1071240862,8373
0.130947243,8374
0.1131969177,8375
0.1098857794,8376
0.09491661169,8377
0.09820816558,8378
0.1037564415,8379
0.1022377796,8380
0.08689963201,8381
0.1366388595,8382
0.2383108971,8383
0.2351946263,8384
0.2360049999,8385
0.2736471744,8386
0.2609552474,8387
0.250359705,8388
0.2464406428,8389
0.2140328378,8390
0.1987962735,8391
0.1645926965,8392
0.1715605998,8393
0.1849676221,8394
0.1771151943,8395
0.145115959,8396
0.1515522362,8397
0.156631195,8398
0.1650979718,8399
0.1550002374,8400
0.1402155373,8401
0.136872825,8402
0.1310575253,8403
0.1343418168,8404
0.136815357,8405
0.1224502363,8406
0.1355516082,8407
0.1396876768,8408
0.1319570687,8409
0.1345634258,8410
0.1273051553,8411
0.1378232644,8412
0.1250778896,8413
0.1489521218,8414
0.1589301525,8415
0.1581560413,8416
0.1597604776,8417
0.1658479292,8418
0.1462931885,8419
0.1567147739,8420
0.1466919087,8421
0.1387673835,8422
0.1304023697,8423
0.1237772858,8424
0.1368830391,8425
0.1242947009,8426
0.1340656657,8427
0.1625344343,8428
0.1760136758,8429
0.170725745,8430
0.1756461271,8431
0.1746196253,8432
0.1676821113,8433
0.146483388,8434
0.1277160627,8435
0.1072838791,8436
0.08976166774,8437
0.09283501707,8438
0.1085293548,8439
0.1330474434,8440
0.2104587305,8441
0.2290017533,8442
0.2126474854,8443
0.194748898,8444
0.1739868763,8445
0.1736581064,8446
0.1891624571,8447
0.1850378049,8448
0.18174295,8449
0.1325168934,8450
0.1238856187,8451
0.1507661557,8452
0.1589579287,8453
0.1834393033,8454
0.1752454482,8455
0.167855371,8456
0.1564760079,8457
0.1410895802,8458
0.1575579814,8459
0.122343148,8460
0.1249914214,8461
0.1064633689,8462
0.1072753726,8463
0.1360993674,8464
0.1294132395,8465
0.127002617,8466
0.1199580443,8467
0.1003979498,8468
0.1143387272,8469
0.09358231253,8470
0.1486277195,8471
0.2042184312,8472
0.2391128567,8473
0.2268828145,8474
0.2347250958,8475
0.2018057304,8476
0.1554410029,8477
0.1833505256,8478
0.1826207078,8479
0.1943260999,8480
0.188171722,8481
0.1734147439,8482
0.182480806,8483
0.1763776783,8484
0.1602026085,8485
0.1465208768,8486
0.2192940857,8487
0.2972009656,8488
0.2807499054,8489
0.2597949755,8490
0.2480338069,8491
0.1953690659,8492
0.187099953,8493
0.2029070518,8494
0.1642408991,8495
0.1590179073,8496
0.1497370488,8497
0.1513557284,8498
0.1555375733,8499
0.1547702207,8500
0.1551453829,8501
0.1521812166,8502
0.1338421699,8503
0.1229393597,8504
0.1324494753,8505
0.1425914599,8506
0.1224775549,8507
0.1189003627,8508
0.1203949565,8509
0.2036047693,8510
0.2357238924,8511
0.2478417821,8512
0.2175206478,8513
0.1928053701,8514
0.1849826549,8515
0.2045386678,8516
0.1883623436,8517
0.2026557046,8518
0.2069472559,8519
0.2108590384,8520
0.1905708484,8521
0.1631886071,8522
0.1403428779,8523
0.1290249187,8524
0.1307153693,8525
0.1157426592,8526
0.1114392964,8527
0.1814710742,8528
0.230912055,8529
0.2261845684,8530
0.1995292191,8531
0.1669666725,8532
0.1415372089,8533
0.1394811358,8534
0.1319702189,8535
0.1224386169,8536
0.1191897827,8537
0.1175820011,8538
0.1158957843,8539
0.1030205452,8540
0.1775715206,8541
0.2202802802,8542
0.2526088408,8543
0.2304418618,8544
0.2167976148,8545
0.2160984884,8546
0.2049994281,8547
0.2000548985,8548
0.1837748802,8549
0.2477136888,8550
0.2683942784,8551
0.3100457038,8552
0.2461860007,8553
0.2212455384,8554
0.202585565,8555
0.1637803807,8556
0.1835349549,8557
0.1552661812,8558
0.1630040208,8559
0.1977120032,8560
0.2506690036,8561
0.2381277201,8562
0.2551954332,8563
0.2174970319,8564
0.2022582294,8565
0.1984636627,8566
0.1908026334,8567
0.1975302896,8568
0.3114077643,8569
0.2940762634,8570
0.2801605946,8571
0.2491768545,8572
0.1852538584,8573
0.1896286347,8574
0.1821332753,8575
0.1655386059,8576
0.1521853932,8577
0.1430837847,8578
0.1423681883,8579
0.1709984703,8580
0.2112190851,8581
0.2010157725,8582
0.1842515633,8583
0.1517277097,8584
0.1604938238,8585
0.1591154486,8586
0.1470748916,8587
0.1434138089,8588
0.1486592717,8589
0.1398068819,8590
0.1302670977,8591
0.127436938,8592
0.1066030927,8593
0.1054972616,8594
0.1072074274,8595
0.09126205542,8596
0.08533142853,8597
0.09129784001,8598
0.09592052168,8599
0.1008488714,8600
0.1015216562,8601
0.09922551723,8602
0.09902503958,8603
0.112191445,8604
0.1034787138,8605
0.1029513729,8606
0.1001674073,8607
0.09462890311,8608
0.1252997918,8609
0.1223684023,8610
0.138355215,8611
0.1399858629,8612
0.1275825389,8613
0.1313849595,8614
0.1172654503,8615
0.1296634506,8616
0.1240980569,8617
0.1310798079,8618
0.1329163423,8619
0.1278416816,8620
0.118991658,8621
0.1139927286,8622
0.1161631806,8623
0.08967921041,8624
0.09885578024,8625
0.09979247514,8626
0.1020486504,8627
0.1403283736,8628
0.1335598556,8629
0.1395242004,8630
0.1341708842,8631
0.1094072834,8632
0.1324287151,8633
0.1262214832,8634
0.1323641307,8635
0.1167972941,8636
0.1203951541,8637
0.108585713,8638
0.1693290775,8639
0.1855919613,8640
0.1487760619,8641
0.1651867178,8642
0.1405411106,8643
0.1443454066,8644
0.1375982684,8645
0.1182129479,8646
0.1375269631,8647
0.1128511391,8648
0.1171370902,8649
0.1202564365,8650
0.1124657595,8651
0.1190354025,8652
0.09984852508,8653
0.0961658967,8654
0.08721935392,8655
0.08769440535,8656
0.07611296098,8657
0.06457981086,8658
0.06799198962,8659
0.07876455322,8660
0.07538598725,8661
0.07660608792,8662
0.06620176282,8663
0.07130990821,8664
0.07933466797,8665
0.06359234105,8666
0.07499404319,8667
0.09561065396,8668
0.09956853143,8669
0.09179541893,8670
0.08165377033,8671
0.08138981736,8672
0.07996784364,8673
0.07853776098,8674
0.0761721473,8675
0.06745231031,8676
0.09181353511,8677
0.147457391,8678
0.1759294487,8679
0.1568233847,8680
0.1300206548,8681
0.1310130498,8682
0.112854254,8683
0.1161426535,8684
0.124822914,8685
0.09541508764,8686
0.1108080443,8687
0.0981637714,8688
0.1076579748,8689
0.2272259407,8690
0.2160975005,8691
0.2203997239,8692
0.1883195832,8693
0.1749016741,8694
0.1515652126,8695
0.1466424463,8696
0.1492430093,8697
0.2020784571,8698
0.2819911776,8699
0.308445537,8700
0.26717348,8701
0.234998995,8702
0.2119268049,8703
0.2219678556,8704
0.2211533219,8705
0.2082689283,8706
0.2218582953,8707
0.2764681251,8708
0.3001510543,8709
0.3060043755,8710
0.277514592,8711
0.2665370114,8712
0.2540062227,8713
0.2401017477,8714
0.2033881828,8715
0.2055535101,8716
0.1845514099,8717
0.1841561648,8718
0.1561271089,8719
0.1312142814,8720
0.1260699079,8721
0.1137537259,8722
0.1061368215,8723
0.1104750511,8724
0.1025267408,8725
0.1177334481,8726
0.119212539,8727
0.09156884793,8728
0.1083217083,8729
0.1109163216,8730
0.1099526217,8731
0.09804836649,8732
0.08946765293,8733
0.1085778348,8734
0.1050573088,8735
0.09898414376,8736
0.1018496443,8737
0.09625611731,8738
0.09627068638,8739
0.09213200542,8740
0.08085204744,8741
0.1033990416,8742
0.1739398681,8743
0.2228450884,8744
0.1812244497,8745
0.1707840222,8746
0.1448365571,8747
0.133501855,8748
0.1374758864,8749
0.1273100954,8750
0.09559596157,8751
0.09634640425,8752
0.1082684878,8753
0.1069448244,8754
0.1358387705,8755
0.1214614262,8756
0.113280516,8757
0.1066899944,8758
0.1031373568,8759
0.1128163179,8760
0.1357473673,8761
0.1831082009,8762
0.2141289209,8763
0.1925015706,8764
0.1737984516,8765
0.1488598314,8766
0.1090130744,8767
0.1067071857,8768
0.08800710649,8769
0.1016215081,8770
0.09410852082,8771
0.07591491221,8772
0.07447983266,8773
0.07450834629,8774
0.0720636073,8775
0.06815755447,8776
0.05988085302,8777
0.06606641439,8778
0.06012929895,8779
0.04968959412,8780
0.0414328203,8781
0.04761071079,8782
0.04703543805,8783
0.05481155401,8784
0.04641143613,8785
0.05541499917,8786
0.05307463974,8787
0.0492654969,8788
0.05139218177,8789
0.0496291465,8790
0.05336079946,8791
0.05855964659,8792
0.05410147159,8793
0.05501824036,8794
0.05465711694,8795
0.06560271968,8796
0.06619524067,8797
0.06909119564,8798
0.06928292172,8799
0.05759192843,8800
0.07041700278,8801
0.06508094105,8802
0.06113891572,8803
0.07345678586,8804
0.0756749093,8805
0.08143406253,8806
0.07662833271,8807
0.07287260528,8808
0.07063543361,8809
0.0644960829,8810
0.06670204243,8811
0.05604206991,8812
0.07222694585,8813
0.08664595715,8814
0.08202297579,8815
0.08122417317,8816
0.07226074564,8817
0.07344562921,8818
0.08313965584,8819
0.0739881215,8820
0.07775055689,8821
0.06528467818,8822
0.07303589801,8823
0.08285973497,8824
0.08683328055,8825
0.09046051349,8826
0.08182711137,8827
0.07462978503,8828
0.06955736612,8829
0.07402571482,8830
0.07346982296,8831
0.08273928835,8832
0.08774818001,8833
0.08305290622,8834
0.0741626865,8835
0.06929690256,8836
0.06649618142,8837
0.06567596455,8838
0.06100889317,8839
0.05858817111,8840
0.05081572188,8841
0.04612855917,8842
0.04088396691,8843
0.04113739791,8844
0.04935965655,8845
0.05348127859,8846
0.04864598933,8847
0.04612217645,8848
0.04750267255,8849
0.05318481641,8850
0.04752879326,8851
0.05001848105,8852
0.05013817638,8853
0.05289511381,8854
0.05574662357,8855
0.05444598506,8856
0.06485728266,8857
0.06642746764,8858
0.07007072713,8859
0.0640499685,8860
0.06361589116,8861
0.05714959259,8862
0.05732724674,8863
0.05557176568,8864
0.05646673873,8865
0.0577761262,8866
0.05004887523,8867
0.05120926487,8868
0.04740277537,8869
0.04510424674,8870
0.04604543681,8871
0.04220164008,8872
0.04110197187,8873
0.03591945112,8874
0.03398325002,8875
0.03774737226,8876
0.04228992088,8877
0.04927463396,8878
0.04863578567,8879
0.04622865312,8880
0.0471658308,8881
0.04148339771,8882
0.04632114427,8883
0.04679930721,8884
0.04272185691,8885
0.04490910261,8886
0.04453515592,8887
0.03705951162,8888
0.0398480928,8889
0.03957531638,8890
0.03509457855,8891
0.03968243133,8892
0.03807897413,8893
0.04050998588,8894
0.04264652915,8895
0.04376617655,8896
0.05963715087,8897
0.07386002301,8898
0.07932946644,8899
0.07311959586,8900
0.0662201087,8901
0.06570677551,8902
0.06011941879,8903
0.05954380435,8904
0.06026829565,8905
0.05025247936,8906
0.05211198538,8907
0.04673828253,8908
0.0418933575,8909
0.04481013796,8910
0.04033950814,8911
0.03484782008,8912
0.03457943218,8913
0.03065631281,8914
0.03036858517,8915
0.03151849247,8916
0.03070009524,8917
0.03377194053,8918
0.02892119657,8919
0.02730871385,8920
0.02411990665,8921
0.02809225307,8922
0.02626079234,8923
0.02588990174,8924
0.02663231801,8925
0.02557736161,8926
0.02538781286,8927
0.02748653455,8928
0.02429450118,8929
0.0247229371,8930
0.02122446163,8931
0.02776515825,8932
0.02675099167,8933
0.02515083904,8934
0.0248904052,8935
0.03547657026,8936
0.06392085565,8937
0.08364466192,8938
0.09478838723,8939
0.09513345296,8940
0.0881863231,8941
0.08407454442,8942
0.0777454624,8943
0.06981312883,8944
0.06053084343,8945
0.06047628668,8946
0.05895892391,8947
0.1093494937,8948
0.1196077758,8949
0.1189324288,8950
0.1193911914,8951
0.1112706528,8952
0.1110631707,8953
0.08945252969,8954
0.08447021555,8955
0.09641341398,8956
0.08881058091,8957
0.1053851344,8958
0.1052032669,8959
0.09838942262,8960
0.08806130251,8961
0.09246796351,8962
0.09311646464,8963
0.09066732423,8964
0.08930992279,8965
0.08088329321,8966
0.07748792932,8967
0.09914774734,8968
0.1034441655,8969
0.1102516239,8970
0.1141421248,8971
0.1081220282,8972
0.1135320752,8973
0.09920501008,8974
0.1018930741,8975
0.08975165579,8976
0.09508216788,8977
0.08477978564,8978
0.08480808186,8979
0.07713226514,8980
0.07804672025,8981
0.06363698462,8982
0.0579326291,8983
0.05691144941,8984
0.05091066087,8985
0.05403416771,8986
0.04000980387,8987
0.04439011986,8988
0.04775080585,8989
0.04717863608,8990
0.04453595696,8991
0.05023655412,8992
0.0511906235,8993
0.04993501348,8994
0.04704605455,8995
0.04721333003,8996
0.0524910514,8997
0.05705856095,8998
0.05293531797,8999
0.06626242532,9000
0.05902201904,9001
0.05498542467,9002
0.0556272725,9003
0.05106808411,9004
0.05614909984,9005
0.05716547675,9006
0.06098781856,9007
0.1263443351,9008
0.1505651572,9009
0.1653921525,9010
0.1360825772,9011
0.1560607143,9012
0.1232013397,9013
0.1289901137,9014
0.12158402,9015
0.112513061,9016
0.1090235346,9017
0.1089017607,9018
0.09274258392,9019
0.1087137574,9020
0.1004946678,9021
0.09385325538,9022
0.09621253284,9023
0.09095643668,9024
0.08077621637,9025
0.09241032436,9026
0.07410234791,9027
0.08020617958,9028
0.07449008308,9029
0.07314607542,9030
0.05367270041,9031
0.05326917083,9032
0.04274683213,9033
0.04622115267,9034
0.05694318516,9035
0.04321510192,9036
0.04895153071,9037
0.0411441618,9038
0.04186754807,9039
0.04657944736,9040
0.03222936704,9041
0.0430045901,9042
0.03628414148,9043
0.03490800501,9044
0.04436400588,9045
0.03493427245,9046
0.04033807854,9047
0.03256859023,9048
0.03168140678,9049
0.03390458411,9050
0.02584820578,9051
0.03077041616,9052
0.0233204896,9053
0.0315462075,9054
0.02877140492,9055
0.02659542589,9056
0.02920070665,9057
0.02288117933,9058
0.02683223795,9059
0.03159965058,9060
0.0264516976,9061
0.02804411747,9062
0.02558245868,9063
0.03112944492,9064
0.03921024816,9065
0.03798559786,9066
0.04196069686,9067
0.03677466429,9068
0.03911722804,9069
0.03566515403,9070
0.03429452882,9071
0.03265547367,9072
0.03031067405,9073
0.03692482966,9074
0.03673439537,9075
0.03143388929,9076
0.02920065464,9077
0.03033366456,9078
0.0273733402,9079
0.02992951158,9080
0.02842529097,9081
0.02717211051,9082
0.02723674818,9083
0.02556422073,9084
0.027709503,9085
0.03465164635,9086
0.033349501,9087
0.0302536039,9088
0.02586043223,9089
0.02946879986,9090
0.03036710589,9091
0.03003886499,9092
0.03062769148,9093
0.02807879053,9094
0.03054594227,9095
0.02447371021,9096
0.02806133223,9097
0.02466754328,9098
0.03042758942,9099
0.04060402292,9100
0.04937484542,9101
0.04395915176,9102
0.0492753007,9103
0.04924567593,9104
0.0479482001,9105
0.0525202189,9106
0.04851977339,9107
0.04545767903,9108
0.04649599378,9109
0.04329011735,9110
0.03629918975,9111
0.03781165111,9112
0.03688982626,9113
0.03274617254,9114
0.03220382069,9115
0.03186398507,9116
0.03576327013,9117
0.02963398849,9118
0.03289913535,9119
0.02894009534,9120
0.02520362804,9121
0.02625040331,9122
0.02450790144,9123
0.02099333846,9124
0.02114056233,9125
0.02286086236,9126
0.03188848997,9127
0.04660285693,9128
0.05685543715,9129
0.05820053041,9130
0.05640011848,9131
0.05502958873,9132
0.05456003837,9133
0.05344573237,9134
0.05325278296,9135
0.04494939201,9136
0.04437879988,9137
0.04735691038,9138
0.04067793763,9139
0.04195632725,9140
0.03699026169,9141
0.03376989039,9142
0.03760674455,9143
0.03883984475,9144
0.03552666233,9145
0.0369765848,9146
0.03433891431,9147
0.02863052564,9148
0.02013561397,9149
0.01949420257,9150
0.0216947927,9151
0.02198677661,9152
0.02599778175,9153
0.02379101405,9154
0.02141719187,9155
0.0219875402,9156
0.02121306417,9157
0.02174644399,9158
0.02800641776,9159
0.02697178731,9160
0.03127079909,9161
0.02625389715,9162
0.02787022241,9163
0.03114039032,9164
0.02668496652,9165
0.02956484562,9166
0.02364313983,9167
0.02842901243,9168
0.02738092262,9169
0.02218518659,9170
0.02610438598,9171
0.02295098479,9172
0.02454846002,9173
0.02450669407,9174
0.0206424512,9175
0.02071647069,9176
0.01986181977,9177
0.02096550841,9178
0.0258836187,9179
0.02678011413,9180
0.02889720214,9181
0.02890115927,9182
0.0284355928,9183
0.02761096149,9184
0.02776827783,9185
0.02580761477,9186
0.02363243603,9187
0.03219629422,9188
0.04352190844,9189
0.05656344117,9190
0.05782535574,9191
0.05566150977,9192
0.05585182808,9193
0.05203938873,9194
0.04855874943,9195
0.04995058011,9196
0.04119754079,9197
0.03300661761,9198
0.03822820897,9199
0.03359350023,9200
0.0372782803,9201
0.03417771086,9202
0.02796799676,9203
0.02953125689,9204
0.02931184427,9205
0.0270326747,9206
0.02850818948,9207
0.03431364174,9208
0.03608226046,9209
0.03754476005,9210
0.03366090537,9211
0.03412613457,9212
0.03277812532,9213
0.03199661581,9214
0.02903173609,9215
0.03200350507,9216
0.02570051895,9217
0.026885435,9218
0.03172343353,9219
0.03796988623,9220
0.03671230924,9221
0.03389391708,9222
0.02798437549,9223
0.02985539336,9224
0.03300943977,9225
0.02753765098,9226
0.0303117967,9227
0.03026954444,9228
0.03024273783,9229
0.03044039162,9230
0.02397918743,9231
0.02573616888,9232
0.02719614583,9233
0.02538524798,9234
0.02678731366,9235
0.02561209129,9236
0.024554486,9237
0.02609135304,9238
0.03032543365,9239
0.02466638048,9240
0.02459072576,9241
0.02589062266,9242
0.02298307949,9243
0.02430994104,9244
0.0221994143,9245
0.02431603402,9246
0.02584091013,9247
0.03479986154,9248
0.05909294194,9249
0.06200079893,9250
0.0614758379,9251
0.06788478391,9252
0.06210900511,9253
0.05871432308,9254
0.05852720308,9255
0.05414728193,9256
0.04974606843,9257
0.05005049243,9258
0.04390391092,9259
0.04908928186,9260
0.04745798154,9261
0.03897628194,9262
0.03939008768,9263
0.03916707342,9264
0.03893647605,9265
0.04364944585,9266
0.03966690631,9267
0.03880124755,9268
0.04635215883,9269
0.04213575045,9270
0.04449369464,9271
0.04023395164,9272
0.03293227708,9273
0.03564282888,9274
0.03296108217,9275
0.02938808808,9276
0.03062738155,9277
0.02984691744,9278
0.03749930346,9279
0.03567606727,9280
0.02983969361,9281
0.02948752372,9282
0.02765049842,9283
0.03161124636,9284
0.03277673215,9285
0.02991566001,9286
0.02812389323,9287
0.03192655652,9288
0.03224932124,9289
0.02272878395,9290
0.02676135626,9291
0.02548557212,9292
0.02342852056,9293
0.02779714374,9294
0.02429433025,9295
0.02690572821,9296
0.02796589952,9297
0.03062283255,9298
0.03519484515,9299
0.03232730095,9300
0.03746420125,9301
0.03567575773,9302
0.03750287289,9303
0.03500185189,9304
0.0317686832,9305
0.03324204747,9306
0.02851401328,9307
0.0290546709,9308
0.04540656234,9309
0.05475000126,9310
0.05540012999,9311
0.05205263026,9312
0.05392636112,9313
0.05791898571,9314
0.05309254936,9315
0.04893225493,9316
0.04392177128,9317
0.0376292794,9318
0.03702390667,9319
0.03123632298,9320
0.02446809199,9321
0.02127292455,9322
0.02072920578,9323
0.02068677789,9324
0.02146607527,9325
0.02594325924,9326
0.024383741,9327
0.02605109131,9328
0.026573376,9329
0.02427238494,9330
0.02737376067,9331
0.02519382424,9332
0.02312631941,9333
0.02060065027,9334
0.01641888993,9335
0.01566777948,9336
0.01528165207,9337
0.01991790438,9338
0.02921463455,9339
0.02981845974,9340
0.0346802139,9341
0.0268807199,9342
0.02722738717,9343
0.02378127477,9344
0.0266469051,9345
0.02977864065,9346
0.02232475149,9347
0.02833404798,9348
0.02838111449,9349
0.02520241614,9350
0.02371671967,9351
0.02522917507,9352
0.0256413921,9353
0.02507756893,9354
0.02858653919,9355
0.02747167164,9356
0.02699268966,9357
0.02929417528,9358
0.02993866903,9359
0.03142037105,9360
0.03220559929,9361
0.02926922847,9362
0.03054225306,9363
0.02991262318,9364
0.03106675574,9365
0.03119690522,9366
0.0306457257,9367
0.03042812418,9368
0.03263173672,9369
0.04401054349,9370
0.04833654909,9371
0.05177252272,9372
0.04590885138,9373
0.04832688353,9374
0.0509392866,9375
0.04437537956,9376
0.04432448139,9377
0.04223850723,9378
0.03696312075,9379
0.03538193278,9380
0.0283481701,9381
0.02681258856,9382
0.02383150219,9383
0.02134510088,9384
0.01855746778,9385
0.01981595886,9386
0.01767483222,9387
0.01934317588,9388
0.01866550482,9389
0.01771885796,9390
0.02492081522,9391
0.02711251296,9392
0.02664189677,9393
0.02614615434,9394
0.02497028127,9395
0.02410784637,9396
0.02388701671,9397
0.022741248,9398
0.02174430504,9399
0.02008819458,9400
0.01556077725,9401
0.01792532455,9402
0.01815130123,9403
0.01826869896,9404
0.01713418663,9405
0.02004516052,9406
0.01882198594,9407
0.01909515538,9408
0.01282487144,9409
0.01377129772,9410
0.01458201074,9411
0.01604069989,9412
0.01403261595,9413
0.01615739001,9414
0.01684072481,9415
0.01476860631,9416
0.01549522739,9417
0.01449540646,9418
0.03365126282,9419
0.0522354626,9420
0.04758683904,9421
0.0430466288,9422
0.04123943958,9423
0.03930562932,9424
0.03747448185,9425
0.03779658953,9426
0.03585763512,9427
0.02890502412,9428
0.02364903783,9429
0.02282603572,9430
0.02029244009,9431
0.02239723512,9432
0.02210738909,9433
0.01793853003,9434
0.01715171993,9435
0.0160921286,9436
0.01771162477,9437
0.01958922303,9438
0.02278698024,9439
0.02320400887,9440
0.02092419513,9441
0.02268512034,9442
0.02074486624,9443
0.02128513409,9444
0.02077985279,9445
0.0175426064,9446
0.01909416484,9447
0.01796534021,9448
0.01872331602,9449
0.02021577005,9450
0.02385306149,9451
0.02857856636,9452
0.03783328353,9453
0.03673805887,9454
0.03460797797,9455
0.03594776573,9456
0.03407356939,9457
0.03380948951,9458
0.0363153993,9459
0.03060766356,9460
0.02763078785,9461
0.02663343247,9462
0.02311925878,9463
0.01900619108,9464
0.01743750706,9465
0.01819386129,9466
0.01941790461,9467
0.01782454735,9468
0.02036944491,9469
0.01859026017,9470
0.02103521634,9471
0.01989940028,9472
0.01842116999,9473
0.01953248108,9474
0.02480173184,9475
0.03507690688,9476
0.03530570204,9477
0.03881416578,9478
0.03824026266,9479
0.03835877668,9480
0.03591256047,9481
0.03414764462,9482
0.02870582159,9483
0.02513994191,9484
0.02307588167,9485
0.02481443173,9486
0.02960560678,9487
0.04870782423,9488
0.05723373701,9489
0.05633989795,9490
0.05797474572,9491
0.05885692239,9492
0.04933740618,9493
0.04967109339,9494
0.04701199076,9495
0.04552136696,9496
0.03952548702,9497
0.03441901807,9498
0.02970390258,9499
0.02683462562,9500
0.02394081435,9501
0.02818780586,9502
0.03269749882,9503
0.03128338763,9504
0.03345388299,9505
0.0350656113,9506
0.03809487151,9507
0.03885522639,9508
0.03201942164,9509
0.02944896631,9510
0.02768981785,9511
0.02543849077,9512
0.02808028779,9513
0.02603780375,9514
0.02634646022,9515
0.02323621873,9516
0.02011063192,9517
0.01845852922,9518
0.01712163561,9519
0.01567047074,9520
0.01737474287,9521
0.0169596058,9522
0.01852326213,9523
0.01695868859,9524
0.02310314003,9525
0.03800246644,9526
0.04929421714,9527
0.04616733424,9528
0.04650578249,9529
0.04787545532,9530
0.04540234723,9531
0.04423534975,9532
0.04188581442,9533
0.03708988642,9534
0.03651435184,9535
0.03178390086,9536
0.02848977673,9537
0.0239811354,9538
0.0233750788,9539
0.02129713024,9540
0.02073415254,9541
0.01697934009,9542
0.02094613166,9543
0.01928848716,9544
0.01929052752,9545
0.04126280572,9546
0.05709935288,9547
0.05419306687,9548
0.04587040366,9549
0.04299073108,9550
0.03992492146,9551
0.03799848948,9552
0.03519367259,9553
0.03688225391,9554
0.03473850457,9555
0.03063778416,9556
0.03199283706,9557
0.0323516029,9558
0.03207160054,9559
0.02545709703,9560
0.02798463126,9561
0.02464335662,9562
0.02525249023,9563
0.01877981183,9564
0.02046409223,9565
0.02010813203,9566
0.02112980176,9567
0.01896732177,9568
0.02094684883,9569
0.01963106472,9570
0.01955266715,9571
0.01808725419,9572
0.01914823424,9573
0.02489985243,9574
0.03915437347,9575
0.04373100585,9576
0.04879812837,9577
0.0447395318,9578
0.04430415958,9579
0.04312370307,9580
0.03998243885,9581
0.03853657191,9582
0.03761214418,9583
0.03812093182,9584
0.03705430648,9585
0.03278039309,9586
0.02787184103,9587
0.02547463335,9588
0.02256224776,9589
0.02362469462,9590
0.02464772317,9591
0.02493846682,9592
0.02523469103,9593
0.02498185264,9594
0.02518904452,9595
0.02202480026,9596
0.02457508644,9597
0.02246611465,9598
0.02535504547,9599
0.02527758455,9600
0.02348385715,9601
0.02996206232,9602
0.04857545451,9603
0.04472078143,9604
0.04792878749,9605
0.04718703799,9606
0.04429189237,9607
0.04306133455,9608
0.04270267664,9609
0.03825832539,9610
0.035448719,9611
0.03053241211,9612
0.02547049115,9613
0.02490526063,9614
0.02073056542,9615
0.01775829383,9616
0.0220260163,9617
0.02562191856,9618
0.0272412246,9619
0.04384606059,9620
0.04550072022,9621
0.04423211742,9622
0.04315412426,9623
0.03355532495,9624
0.03268223961,9625
0.0310636084,9626
0.02923345917,9627
0.02909771127,9628
0.02683309187,9629
0.02824395612,9630
0.0245030897,9631
0.02147672189,9632
0.02722108637,9633
0.04275065156,9634
0.05191181399,9635
0.0513726736,9636
0.04443845902,9637
0.04799796225,9638
0.04622521539,9639
0.04702377691,9640
0.04748260603,9641
0.04689661846,9642
0.04439405886,9643
0.04276108721,9644
0.0577747166,9645
0.05722878003,9646
0.05738717648,9647
0.05226138606,9648
0.0445392111,9649
0.03722899599,9650
0.03610791292,9651
0.03590571172,9652
0.0327746082,9653
0.03181126172,9654
0.03125961387,9655
0.02928011975,9656
0.03160642298,9657
0.04537150241,9658
0.04858176922,9659
0.04248750205,9660
0.04296040636,9661
0.03960041623,9662
0.0424020049,9663
0.04096264125,9664
0.03976166042,9665
0.04413097556,9666
0.03922696235,9667
0.04044317947,9668
0.0365159423,9669
0.03578883118,9670
0.03562301633,9671
0.03502053665,9672
0.03208492327,9673
0.02900964059,9674
0.02712969812,9675
0.0251611114,9676
0.02262042006,9677
0.0214232855,9678
0.02057350898,9679
0.02135662983,9680
0.021529984,9681
0.02158105304,9682
0.03140501294,9683
0.03318971437,9684
0.03257077505,9685
0.03140035996,9686
0.0316323988,9687
0.03091196491,9688
0.03041438415,9689
0.02905438041,9690
0.02557802285,9691
0.02395844412,9692
0.02259140761,9693
0.02336596168,9694
0.02189664903,9695
0.02179965518,9696
0.02197906033,9697
0.01980502229,9698
0.02241944313,9699
0.02289352446,9700
0.02024952219,9701
0.02393763238,9702
0.02187263511,9703
0.02262815022,9704
0.02474876579,9705
0.01963580165,9706
0.01948540885,9707
0.01584017866,9708
0.01259085908,9709
0.0117219994,9710
0.01143191556,9711
0.009997432768,9712
0.01073841202,9713
0.01101105882,9714
0.01047692984,9715
0.01327729653,9716
0.0136185793,9717
0.01553507132,9718
0.01624285973,9719
0.01743285854,9720
0.01398305525,9721
0.01397208651,9722
0.01529042737,9723
0.01799924992,9724
0.01570478752,9725
0.01429279834,9726
0.01393008377,9727
0.01233370531,9728
0.01156421559,9729
0.01040886766,9730
0.01085127835,9731
0.01169464695,9732
0.01624796755,9733
0.01929892271,9734
0.03898242332,9735
0.04875201616,9736
0.0450128981,9737
0.03997478699,9738
0.0374683105,9739
0.03222715129,9740
0.03401624454,9741
0.03255955985,9742
0.03211167182,9743
0.02692051675,9744
0.02430251387,9745
0.02239532893,9746
0.01998930664,9747
0.01947782888,9748
0.01705310483,9749
0.01529711642,9750
0.01824473904,9751
0.02041194216,9752
0.02159231793,9753
0.02381882035,9754
0.02327845176,9755
0.02379090965,9756
0.02257427682,9757
0.02137762959,9758
0.02144084563,9759
0.01951368513,9760
0.02045495449,9761
0.01988645037,9762
0.02113895017,9763
0.04917013501,9764
0.06417041383,9765
0.06416276404,9766
0.06959893803,9767
0.06442877114,9768
0.06637530667,9769
0.06649635387,9770
0.06182160721,9771
0.0560859465,9772
0.05086274668,9773
0.04466541601,9774
0.04070538439,9775
0.03371815501,9776
0.02916591005,9777
0.02556022261,9778
0.02479760998,9779
0.0296616365,9780
0.0283670995,9781
0.030827522,9782
0.03059644546,9783
0.02998142156,9784
0.03286258546,9785
0.02905655946,9786
0.03057866941,9787
0.02907893314,9788
0.02523896907,9789
0.02450884989,9790
0.02038407783,9791
0.01900040535,9792
0.02409476862,9793
0.04053540445,9794
0.03862297097,9795
0.04060901659,9796
0.03960734248,9797
0.03780766758,9798
0.03585262768,9799
0.03051374614,9800
0.0236912672,9801
0.022447208,9802
0.02172428374,9803
0.02203523319,9804
0.02782950434,9805
0.02836013323,9806
0.02746755071,9807
0.03125812857,9808
0.05166065488,9809
0.0695737393,9810
0.06615332938,9811
0.05702602526,9812
0.05376552771,9813
0.04710353989,9814
0.04652666555,9815
0.05234468892,9816
0.04665630613,9817
0.04023179803,9818
0.03628612544,9819
0.0274356346,9820
0.02937302348,9821
0.03183752905,9822
0.03068473758,9823
0.03532462954,9824
0.0388680954,9825
0.04340417044,9826
0.03844580882,9827
0.04377457514,9828
0.04327632413,9829
0.03420948245,9830
0.0335232084,9831
0.03400564223,9832
0.03095566719,9833
0.03000141403,9834
0.02984193653,9835
0.03690091617,9836
0.04191645217,9837
0.04181518334,9838
0.04379911463,9839
0.04262218306,9840
0.03650590045,9841
0.03687524117,9842
0.03572415185,9843
0.03113713751,9844
0.03274120099,9845
0.04012548585,9846
0.06945657302,9847
0.07754436396,9848
0.07501552419,9849
0.0764328992,9850
0.07326781429,9851
0.07010684275,9852
0.07413581676,9853
0.06752355897,9854
0.054705668,9855
0.05419124156,9856
0.04855251004,9857
0.04494252857,9858
0.03456575695,9859
0.03226508308,9860
0.03004095989,9861
0.02990296805,9862
0.03506366441,9863
0.03158573727,9864
0.03436853195,9865
0.06441037328,9866
0.08736927306,9867
0.08190059723,9868
0.0767417157,9869
0.07007426498,9870
0.0615689828,9871
0.05607720176,9872
0.06029920894,9873
0.05199787351,9874
0.05421692975,9875
0.05240830987,9876
0.04476531662,9877
0.04459422006,9878
0.04506031896,9879
0.04162364921,9880
0.03753346756,9881
0.04327232969,9882
0.04285572985,9883
0.03587549298,9884
0.03352779207,9885
0.03320774886,9886
0.03530494748,9887
0.036615461,9888
0.0330129705,9889
0.03268338367,9890
0.0328624587,9891
0.03053261011,9892
0.04128137525,9893
0.03922182855,9894
0.05274575452,9895
0.06380823142,9896
0.06229358772,9897
0.05758542783,9898
0.05518005294,9899
0.0470635343,9900
0.050897255,9901
0.0502708716,9902
0.04920415601,9903
0.05179579061,9904
0.04836760947,9905
0.0457301779,9906
0.04013580383,9907
0.03327579418,9908
0.0349688055,9909
0.02910016178,9910
0.02676686197,9911
0.04605926386,9912
0.06101342966,9913
0.05863626714,9914
0.06456260045,9915
0.05119366781,9916
0.03935884023,9917
0.03744193724,9918
0.03657671751,9919
0.03448120423,9920
0.0347589601,9921
0.03124414623,9922
0.03207658429,9923
0.03543886876,9924
0.07145994469,9925
0.09985942997,9926
0.09542537449,9927
0.09427939749,9928
0.09662121653,9929
0.08655186659,9930
0.09170904588,9931
0.09024540301,9932
0.09013346815,9933
0.09616803023,9934
0.1103965458,9935
0.1254496789,9936
0.1025513201,9937
0.09770708956,9938
0.08244120279,9939
0.067952687,9940
0.06651504252,9941
0.05939287671,9942
0.05440104841,9943
0.05394688557,9944
0.09294491331,9945
0.1258147857,9946
0.1341221802,9947
0.1124515133,9948
0.1050541135,9949
0.09197443915,9950
0.09203444646,9951
0.08824223423,9952
0.09767099536,9953
0.1200714578,9954
0.1186584653,9955
0.1259754509,9956
0.1012923545,9957
0.07904742842,9958
0.07472976104,9959
0.0644554932,9960
0.06273189472,9961
0.06411400288,9962
0.05192109135,9963
0.05222711583,9964
0.04780643196,9965
0.05475232386,9966
0.06808937585,9967
0.07674988517,9968
0.07743562322,9969
0.07496408696,9970
0.06860912823,9971
0.06836020197,9972
0.06883117054,9973
0.0720592136,9974
0.07675799475,9975
0.07897844358,9976
0.07346124645,9977
0.06408681458,9978
0.05205354384,9979
0.04852901118,9980
0.04413092109,9981
0.04215536923,9982
0.03975108873,9983
0.03656484986,9984
0.03596337669,9985
0.03619466945,9986
0.03134225162,9987
0.03327834449,9988
0.02785351517,9989
0.02634181462,9990
0.02424748013,9991
0.02141215851,9992
0.02087749342,9993
0.03983184196,9994
0.05360263312,9995
0.05413864904,9996
0.05853010971,9997
0.05435727018,9998
0.05248696572,9999
0.05237831803,10000
0.05093326582,10001
0.04564182043,10002
0.04085309285,10003
0.03766960115,10004
0.03776669604,10005
0.03201047139,10006
0.02957719449,10007
0.02676753735,10008
0.02599187505,10009
0.02665534922,10010
0.03009549839,10011
0.02847802056,10012
0.02957288907,10013
0.03025825461,10014
0.03040360109,10015
0.03147525279,10016
0.03076402187,10017
0.0285444652,10018
0.02766791433,10019
0.02445196205,10020
0.02320860186,10021
0.02218683348,10022
0.02062704214,10023
0.02016902555,10024
0.01922343194,10025
0.01944250802,10026
0.02403890338,10027
0.02807761686,10028
0.0335990107,10029
0.02603902203,10030
0.03008078443,10031
0.0265181632,10032
0.02697450128,10033
0.03106937807,10034
0.02869798271,10035
0.03028531996,10036
0.02865054875,10037
0.02999633341,10038
0.0241113196,10039
0.02693041972,10040
0.02505572166,10041
0.02369369713,10042
0.02580816601,10043
0.02286702,10044
0.02675634288,10045
0.0257508834,10046
0.02797724578,10047
0.03221745341,10048
0.05940705809,10049
0.04192074549,10050
0.03747104064,10051
0.04071141191,10052
0.03866083247,10053
0.04322608725,10054
0.03712778268,10055
0.0311883683,10056
0.03265669932,10057
0.02598927057,10058
0.02828757644,10059
0.03104869541,10060
0.02824097553,10061
0.02767196535,10062
0.02539777845,10063
0.02734413626,10064
0.02445741518,10065
0.02083579584,10066
0.02173949095,10067
0.02058373693,10068
0.01976010132,10069
0.01832468044,10070
0.01953214573,10071
0.01894704033,10072
0.01750804048,10073
0.01869404714,10074
0.01952245885,10075
0.02312918654,10076
0.02340544213,10077
0.02307543894,10078
0.02302974589,10079
0.01959797569,10080
0.01999555956,10081
0.02029001356,10082
0.01784080665,10083
0.01938802299,10084
0.01867005698,10085
0.02053209274,10086
0.04647423328,10087
0.05989000048,10088
0.06297449182,10089
0.06655944645,10090
0.06216985697,10091
0.06296149779,10092
0.06286096668,10093
0.05877774761,10094
0.05519000742,10095
0.04935118281,10096
0.04312556189,10097
0.03771105304,10098
0.0359781331,10099
0.04254464159,10100
0.0461340146,10101
0.0518897188,10102
0.04981815598,10103
0.04808535297,10104
0.04809801201,10105
0.04239015424,10106
0.04978988578,10107
0.04679928282,10108
0.04528424698,10109
0.04847140848,10110
0.04451645218,10111
0.06285034878,10112
0.06211862122,10113
0.06214513481,10114
0.0643346645,10115
0.05484585872,10116
0.05071482997,10117
0.04520246826,10118
0.04800063137,10119
0.04598565956,10120
0.04680784974,10121
0.07521941222,10122
0.1074605085,10123
0.08786028912,10124
0.07991900743,10125
0.07364411963,10126
0.06587345429,10127
0.06970788662,10128
0.06949288779,10129
0.07996740555,10130
0.08324900244,10131
0.07706894689,10132
0.07181805885,10133
0.07066271762,10134
0.1139639225,10135
0.1145919306,10136
0.1056624556,10137
0.0993652272,10138
0.09681609047,10139
0.09527321004,10140
0.09752545148,10141
0.09015314261,10142
0.08558918654,10143
0.07038101493,10144
0.06314694941,10145
0.06065066258,10146
0.05674389171,10147
0.05454567284,10148
0.05371528506,10149
0.04424387323,10150
0.03563549423,10151
0.03333916814,10152
0.02867059893,10153
0.02504761201,10154
0.02534918706,10155
0.02320399989,10156
0.02222790361,10157
0.03683529306,10158
0.06388122933,10159
0.08019380745,10160
0.08023359715,10161
0.08185823048,10162
0.08068446352,10163
0.07584799399,10164
0.07679063076,10165
0.07462998077,10166
0.06539340468,10167
0.06557080404,10168
0.05525963848,10169
0.04780516046,10170
0.04502144168,10171
0.03386407127,10172
0.03417237634,10173
0.0371353456,10174
0.03331654235,10175
0.04001600229,10176
0.05646022447,10177
0.08600557796,10178
0.1207785451,10179
0.09337383191,10180
0.08766314772,10181
0.08002087808,10182
0.06972189774,10183
0.07034276289,10184
0.06908595144,10185
0.05417813387,10186
0.04501222389,10187
0.04101317757,10188
0.04287280993,10189
0.05199881646,10190
0.05727905001,10191
0.04937603578,10192
0.04524061349,10193
0.04100973882,10194
0.04284544275,10195
0.04508403223,10196
0.0389069265,10197
0.05752089717,10198
0.08502714603,10199
0.09182886771,10200
0.08698203078,10201
0.08094550389,10202
0.06080289287,10203
0.04899462468,10204
0.04863580942,10205
0.0461231243,10206
0.04674675613,10207
0.03939826167,10208
0.03599039931,10209
0.03136599756,10210
0.03077340729,10211
0.02877824468,10212
0.02566341477,10213
0.02631212938,10214
0.02974620324,10215
0.02900062543,10216
0.0295880491,10217
0.02831130148,10218
0.02565658097,10219
0.02578267384,10220
0.02134549203,10221
0.02295273448,10222
0.02087582413,10223
0.02055602127,10224
0.03942713992,10225
0.05883993022,10226
0.06125285102,10227
0.06588363284,10228
0.06207232829,10229
0.06062257543,10230
0.06040927007,10231
0.0591977319,10232
0.05249161401,10233
0.04946181358,10234
0.04694654436,10235
0.03947655818,10236
0.0389868735,10237
0.03432592747,10238
0.02851771063,10239
0.03009548775,10240
0.02892743731,10241
0.02760207008,10242
0.03154732054,10243
0.02884937301,10244
0.03291699549,10245
0.03799202016,10246
0.03765688137,10247
0.03736114904,10248
0.03283161663,10249
0.02647089744,10250
0.02725124808,10251
0.02846170258,10252
0.02343158493,10253
0.02726357854,10254
0.0243741277,10255
0.02571400415,10256
0.03244369788,10257
0.03026931464,10258
0.03477822498,10259
0.0340949932,10260
0.0316006003,10261
0.03194120293,10262
0.02782281538,10263
0.03477170308,10264
0.03019217662,10265
0.03028180536,10266
0.03025688214,10267
0.02574862356,10268
0.03589141561,10269
0.04802964333,10270
0.05502620606,10271
0.05457390351,10272
0.05267903749,10273
0.04748983283,10274
0.04584904623,10275
0.0468586913,10276
0.04829716957,10277
0.05216799678,10278
0.05313289301,10279
0.05084521192,10280
0.04798509789,10281
0.04234393699,10282
0.03838670771,10283
0.0347353618,10284
0.02918564314,10285
0.02640861296,10286
0.02421432234,10287
0.02371881883,10288
0.02516466265,10289
0.02152227886,10290
0.02135496333,10291
0.01922238462,10292
0.01933828309,10293
0.01928562802,10294
0.01572785908,10295
0.01652278517,10296
0.01862493364,10297
0.03295310507,10298
0.05736271806,10299
0.05728977527,10300
0.05604310907,10301
0.05771782075,10302
0.05717204233,10303
0.05477172825,10304
0.05553996874,10305
0.0490968216,10306
0.04426042519,10307
0.0408387797,10308
0.03654167736,10309
0.03409379004,10310
0.03446628339,10311
0.02808097375,10312
0.0290127125,10313
0.03149269954,10314
0.02738497349,10315
0.0310997559,10316
0.02784272055,10317
0.02709996455,10318
0.03051929657,10319
0.02622342475,10320
0.02800121694,10321
0.02945388522,10322
0.02488231394,10323
0.02616982389,10324
0.0242267845,10325
0.01961942834,10326
0.02072414343,10327
0.0232443831,10328
0.01830725168,10329
0.02217888721,10330
0.02028502315,10331
0.0187051417,10332
0.01967064222,10333
0.01678435959,10334
0.01727406772,10335
0.01953308639,10336
0.01813986587,10337
0.02583196931,10338
0.0251837142,10339
0.02070550335,10340
0.02130554591,10341
0.0174444326,10342
0.02180725068,10343
0.02338167523,10344
0.01958853797,10345
0.02225564569,10346
0.02094281276,10347
0.02269552491,10348
0.02187035242,10349
0.01862133359,10350
0.02068544535,10351
0.02073157617,10352
0.02238864012,10353
0.02215886365,10354
0.02141516026,10355
0.02090753552,10356
0.02135144409,10357
0.02183011756,10358
0.01657883456,10359
0.01864387731,10360
0.01574132874,10361
0.01760385785,10362
0.01917367452,10363
0.02357988303,10364
0.02634227399,10365
0.07980093493,10366
0.1399067656,10367
0.1218095959,10368
0.1210930329,10369
0.114363158,10370
0.0930417521,10371
0.09588738678,10372
0.1030201872,10373
0.1001934218,10374
0.08395147673,10375
0.06714470441,10376
0.05495074639,10377
0.04442624773,10378
0.04118260048,10379
0.04393118113,10380
0.03883956712,10381
0.03274126221,10382
0.03246441453,10383
0.03194119194,10384
0.03328725069,10385
0.03624808875,10386
0.03485300049,10387
0.03537367787,10388
0.03643876131,10389
0.03351884537,10390
0.03265030418,10391
0.02975012721,10392
0.02894286042,10393
0.02895626488,10394
0.02433363542,10395
0.02324424232,10396
0.02497886457,10397
0.02306668868,10398
0.02523889934,10399
0.02252153894,10400
0.02516086433,10401
0.02514969602,10402
0.0317445778,10403
0.03458129118,10404
0.03581727864,10405
0.03449234863,10406
0.03176422706,10407
0.03077435447,10408
0.03299016311,10409
0.03057694796,10410
0.02479106812,10411
0.02030762966,10412
0.0236583481,10413
0.0298595501,10414
0.03249439355,10415
0.0317225855,10416
0.03056021353,10417
0.03223034929,10418
0.02813145576,10419
0.03101257282,10420
0.03045937558,10421
0.02679727332,10422
0.03200828288,10423
0.03285416513,10424
0.04147534865,10425
0.03992779131,10426
0.03196057042,10427
0.03422169262,10428
0.03287684636,10429
0.03794013636,10430
0.03592556757,10431
0.0352163067,10432
0.03364076687,10433
0.03841881715,10434
0.04228444325,10435
0.04149735718,10436
0.04980194828,10437
0.05433115192,10438
0.04487920401,10439
0.04345824846,10440
0.03464565786,10441
0.03397108281,10442
0.02919530279,10443
0.02996182415,10444
0.03107251636,10445
0.03848527653,10446
0.0365618092,10447
0.03635685974,10448
0.04310113412,10449
0.03575077811,10450
0.0407329764,10451
0.03567583762,10452
0.04250960365,10453
0.03470891214,10454
0.03556059525,10455
0.03617134393,10456
0.04287365584,10457
0.04168017657,10458
0.04165276517,10459
0.03756192489,10460
0.03807469554,10461
0.03831698244,10462
0.03414774908,10463
0.03441358855,10464
0.03524354738,10465
0.03318138684,10466
0.02966522976,10467
0.04750745951,10468
0.05969817887,10469
0.06619229028,10470
0.06550380935,10471
0.06560953268,10472
0.0674633552,10473
0.05986612433,10474
0.05889115688,10475
0.05768935218,10476
0.04861756987,10477
0.04207031469,10478
0.0414193914,10479
0.03771950427,10480
0.03084337281,10481
0.02920968659,10482
0.02678511953,10483
0.02736557369,10484
0.02925202359,10485
0.0287606507,10486
0.02773451967,10487
0.02567195391,10488
0.03015487099,10489
0.04007442798,10490
0.03909651723,10491
0.03496689108,10492
0.03732973678,10493
0.03557214762,10494
0.03423030317,10495
0.03540383445,10496
0.02852172785,10497
0.03394680841,10498
0.02907206374,10499
0.02736689521,10500
0.03128211023,10501
0.02713398871,10502
0.03710576507,10503
0.03545139865,10504
0.03754373419,10505
0.03085852553,10506
0.02935364576,10507
0.03629934795,10508
0.0324132021,10509
0.03511795986,10510
0.03242724166,10511
0.03649709433,10512
0.03085825008,10513
0.03354514846,10514
0.03293009763,10515
0.0320081672,10516
0.03239546986,10517
0.02928549637,10518
0.03383011099,10519
0.03223612997,10520
0.03082958366,10521
0.02933358789,10522
0.02767530661,10523
0.02949893852,10524
0.0295758597,10525
0.03106488389,10526
0.02581104574,10527
0.02818379065,10528
0.02847680509,10529
0.02931724882,10530
0.03154477914,10531
0.02625940175,10532
0.03042977314,10533
0.04318586062,10534
0.0441321066,10535
0.04552577392,10536
0.05157245918,10537
0.04435015715,10538
0.04016567272,10539
0.0396854476,10540
0.03787158944,10541
0.03556821375,10542
0.03706350131,10543
0.03038473242,10544
0.03197373884,10545
0.02892830603,10546
0.02739570822,10547
0.02428966192,10548
0.02372851239,10549
0.02490313445,10550
0.02362934575,10551
0.02450948081,10552
0.02335397892,10553
0.03182553124,10554
0.02106489767,10555
0.02451374892,10556
0.02195924943,10557
0.02460677398,10558
0.02780548364,10559
0.02369678397,10560
0.02572040077,10561
0.02404600806,10562
0.01974768979,10563
0.02046082738,10564
0.0311767811,10565
0.02572771864,10566
0.0206776662,10567
0.01909155219,10568
0.02058721816,10569
0.02206424654,10570
0.0184129945,10571
0.01379237275,10572
0.01377251827,10573
0.01504354778,10574
0.01574119227,10575
0.01825140003,10576
0.02303534149,10577
0.01913392624,10578
0.01910593172,10579
0.01892155735,10580
0.02010037161,10581
0.02109834457,10582
0.02349026836,10583
0.02358779886,10584
0.02097307274,10585
0.02094754769,10586
0.01661819975,10587
0.02068520186,10588
0.02369828149,10589
0.02313093636,10590
0.02290052765,10591
0.02230962569,10592
0.02189595047,10593
0.02401049855,10594
0.02405485806,10595
0.01957550948,10596
0.01949650195,10597
0.01992357997,10598
0.03173876227,10599
0.05311003764,10600
0.05671866747,10601
0.0562276251,10602
0.05779228014,10603
0.05654712593,10604
0.05535081317,10605
0.05488776967,10606
0.05118151149,10607
0.04472015574,10608
0.04811227352,10609
0.04617665902,10610
0.037670425,10611
0.03277427828,10612
0.03055193335,10613
0.02667053505,10614
0.02828926754,10615
0.03133400653,10616
0.03231944762,10617
0.03039911407,10618
0.04193744303,10619
0.04776568179,10620
0.04676315841,10621
0.04807738528,10622
0.04653482926,10623
0.04579461739,10624
0.04618948791,10625
0.04427016661,10626
0.04419274301,10627
0.0433535424,10628
0.05008999388,10629
0.04230457999,10630
0.04018738753,10631
0.03690182696,10632
0.03615692372,10633
0.03159746752,10634
0.0355252305,10635
0.03642248293,10636
0.03234550463,10637
0.03745425575,10638
0.03621065201,10639
0.03289644547,10640
0.03850692472,10641
0.03055944617,10642
0.03332592904,10643
0.03247139594,10644
0.03180841763,10645
0.03080623451,10646
0.03170177169,10647
0.03285724237,10648
0.03019162156,10649
0.02811285527,10650
0.02534746999,10651
0.02471020793,10652
0.02839109202,10653
0.02606486323,10654
0.02477498905,10655
0.02537547166,10656
0.02365903983,10657
0.02353374924,10658
0.01968991362,10659
0.02118782974,10660
0.0201230614,10661
0.02497959135,10662
0.02531570157,10663
0.02705285773,10664
0.0297311017,10665
0.02592749984,10666
0.02429346111,10667
0.02113692422,10668
0.02265256375,10669
0.02554531937,10670
0.02087416321,10671
0.019015089,10672
0.02812536992,10673
0.03385458526,10674
0.03631284234,10675
0.03590929709,10676
0.03777431578,10677
0.03534014002,10678
0.03513673045,10679
0.03752315556,10680
0.03308126022,10681
0.03597297987,10682
0.03764991804,10683
0.03621023259,10684
0.03828196276,10685
0.0382991568,10686
0.03379165029,10687
0.03420027744,10688
0.02913413086,10689
0.02753010214,10690
0.02714609134,10691
0.0239289949,10692
0.02351293034,10693
0.02303877812,10694
0.02925629873,10695
0.02457094869,10696
0.03294710546,10697
0.04397633793,10698
0.03128072265,10699
0.02564119056,10700
0.02658313814,10701
0.02244400174,10702
0.01963412375,10703
0.02057910214,10704
0.01803092729,10705
0.01900020436,10706
0.03204496088,10707
0.028479566,10708
0.03152570026,10709
0.02648528223,10710
0.02742779547,10711
0.03290080025,10712
0.0290982647,10713
0.0286972124,10714
0.02970533523,10715
0.02585703739,10716
0.0239446625,10717
0.03161710528,10718
0.03240904127,10719
0.02880749322,10720
0.02429012397,10721
0.02949284961,10722
0.02562810983,10723
0.02291880455,10724
0.02631247918,10725
0.01982975481,10726
0.02578330999,10727
0.02025418758,10728
0.02236560333,10729
0.0243495952,10730
0.0376205081,10731
0.0455121658,10732
0.03981896102,10733
0.03808435775,10734
0.03957270072,10735
0.03846887734,10736
0.03686947771,10737
0.03543382802,10738
0.02948177691,10739
0.02544559459,10740
0.02697638642,10741
0.02190119951,10742
0.02380444349,10743
0.02144124797,10744
0.01912382288,10745
0.02256580089,10746
0.0208139214,10747
0.02345806971,10748
0.0219172662,10749
0.02350156303,10750
0.02063473314,10751
0.0218646457,10752
0.02186812269,10753
0.01830334368,10754
0.02045534518,10755
0.02327214497,10756
0.02700002263,10757
0.02843546902,10758
0.02440861474,10759
0.02660274203,10760
0.02664755806,10761
0.02752884346,10762
0.02511950976,10763
0.02598630352,10764
0.0213090099,10765
0.02162560766,10766
0.0208528541,10767
0.01942886576,10768
0.01970851053,10769
0.01968202925,10770
0.021999842,10771
0.01925629996,10772
0.02253063708,10773
0.02087485492,10774
0.02184570884,10775
0.01858732939,10776
0.0163085393,10777
0.01556505247,10778
0.01566209333,10779
0.01688058173,10780
0.01215266414,10781
0.01432638755,10782
0.01410530469,10783
0.02658627213,10784
0.02167313902,10785
0.02504285952,10786
0.02328138177,10787
0.02416154507,10788
0.02959169033,10789
0.02526103694,10790
0.02575989784,10791
0.02270489675,10792
0.02405340546,10793
0.01962083058,10794
0.02075588916,10795
0.02312641584,10796
0.02205067619,10797
0.02212346037,10798
0.01845950419,10799
0.02065863652,10800
0.01705059884,10801
0.0203830482,10802
0.01806421696,10803
0.01526440892,10804
0.01725133169,10805
0.01254458135,10806
0.01778822632,10807
0.01365202555,10808
0.01523596499,10809
0.01413034895,10810
0.01456534554,10811
0.01628908301,10812
0.02150325207,10813
0.02697996798,10814
0.02682359634,10815
0.02463856073,10816
0.0244930518,10817
0.02672741505,10818
0.025557931,10819
0.02417672115,10820
0.02236021223,10821
0.01714345748,10822
0.02146461548,10823
0.01750628634,10824
0.01403838033,10825
0.0152352819,10826
0.0135789963,10827
0.01570797618,10828
0.01643003182,10829
0.01542523571,10830
0.01747342976,10831
0.0174351606,10832
0.0162618979,10833
0.01597678932,10834
0.01595687861,10835
0.0142948326,10836
0.01388136716,10837
0.01303525964,10838
0.01106844732,10839
0.01291735544,10840
0.0117220939,10841
0.01157559467,10842
0.0119265993,10843
0.009857992974,10844
0.01135616451,10845
0.01011310438,10846
0.01059465647,10847
0.01107987645,10848
0.009237772062,10849
0.01001726146,10850
0.01015468874,10851
0.01057274376,10852
0.01133400724,10853
0.01044016489,10854
0.01253285021,10855
0.01344089899,10856
0.01602825509,10857
0.0153740533,10858
0.01514497691,10859
0.01127985421,10860
0.01234779838,10861
0.01050922269,10862
0.009998809911,10863
0.0119342067,10864
0.0098547868,10865
0.01046061574,10866
0.01064015157,10867
0.01038977533,10868
0.008783409106,10869
0.008758595077,10870
0.008242280778,10871
0.006637130646,10872
0.008041206866,10873
0.006020759033,10874
0.008104542163,10875
0.007605579878,10876
0.007691790895,10877
0.007018210139,10878
0.006360953501,10879
0.008961564545,10880
0.008025188015,10881
0.007549595622,10882
0.008260968041,10883
0.008841012225,10884
0.00760360041,10885
0.01256371732,10886
0.02051419865,10887
0.02092785492,10888
0.01825194847,10889
0.01694221553,10890
0.0175758812,10891
0.01591433385,10892
0.01528125647,10893
0.01410263423,10894
0.0158933638,10895
0.01512455325,10896
0.015984831,10897
0.01431680589,10898
0.01330861751,10899
0.01312468319,10900
0.01394340341,10901
0.01204793693,10902
0.01319297649,10903
0.01154599738,10904
0.01153925612,10905
0.0108251199,10906
0.01095220661,10907
0.01045952601,10908
0.01024379784,10909
0.01037273725,10910
0.01072995252,10911
0.01336432646,10912
0.01278762585,10913
0.01439164806,10914
0.01390282138,10915
0.01300312622,10916
0.01451928484,10917
0.01577836688,10918
0.01494563508,10919
0.0180072092,10920
0.01538296278,10921
0.01525841701,10922
0.01346264367,10923
0.01264113383,10924
0.01212371167,10925
0.01171380604,10926
0.01089312913,10927
0.01076243349,10928
0.009244257406,10929
0.01078674262,10930
0.008940572661,10931
0.008711785179,10932
0.007394738009,10933
0.008402816338,10934
0.007709692278,10935
0.007190765563,10936
0.008403575802,10937
0.007019163343,10938
0.00754496336,10939
0.007555492822,10940
0.008174305457,10941
0.007827631329,10942
0.01103575511,10943
0.01063523556,10944
0.0120368102,10945
0.01179564244,10946
0.0245924241,10947
0.05041018044,10948
0.04631464138,10949
0.03684135194,10950
0.03015285558,10951
0.02461283841,10952
0.02191561325,10953
0.01550507701,10954
0.01304731678,10955
0.01363763636,10956
0.01335852149,10957
0.01225738852,10958
0.01424541963,10959
0.01145980265,10960
0.01272673176,10961
0.01765520816,10962
0.03017575662,10963
0.03446431004,10964
0.0350058678,10965
0.03392226367,10966
0.03426468915,10967
0.0323426763,10968
0.03125873499,10969
0.03104324222,10970
0.02527582714,10971
0.02413770249,10972
0.02178918881,10973
0.0206794357,10974
0.02095602906,10975
0.04172088579,10976
0.0422863631,10977
0.03201184987,10978
0.0277436462,10979
0.02184690995,10980
0.01972512242,10981
0.01955079432,10982
0.01746616074,10983
0.0184127902,10984
0.0196062865,10985
0.01815263185,10986
0.04213601333,10987
0.04449311947,10988
0.04612069872,10989
0.04339506402,10990
0.03477368226,10991
0.0316203372,10992
0.02940389494,10993
0.02748530945,10994
0.02364963458,10995
0.02545409404,10996
0.01988605247,10997
0.01901948198,10998
0.03292082721,10999
0.04765005392,11000
0.05038203205,11001
0.03797772964,11002
0.03205657844,11003
0.02165012895,11004
0.02072641602,11005
0.0254739203,11006
0.02333398209,11007
0.02268877184,11008
0.02158590343,11009
0.02117236011,11010
0.02189391319,11011
0.02275613203,11012
0.02102263431,11013
0.02235634287,11014
0.02138685799,11015
0.01921173897,11016
0.01860365535,11017
0.03166910741,11018
0.0361071425,11019
0.03296617677,11020
0.03110481952,11021
0.03153417049,11022
0.02903027891,11023
0.03062294782,11024
0.02940649152,11025
0.0296073126,11026
0.02552861224,11027
0.02360150979,11028
0.02171370979,11029
0.01882579691,11030
0.01890714467,11031
0.01751669576,11032
0.01641579776,11033
0.01392525396,11034
0.01305820946,11035
0.0126819224,11036
0.01056426593,11037
0.01142368794,11038
0.01027133174,11039
0.01016729216,11040
0.009413057785,11041
0.01210048114,11042
0.01595394105,11043
0.01545102324,11044
0.01491883879,11045
0.01744539267,11046
0.01651597455,11047
0.01655734737,11048
0.0186019329,11049
0.01532712986,11050
0.01653348337,11051
0.02046118418,11052
0.01647684178,11053
0.01864844611,11054
0.03907714929,11055
0.06281052103,11056
0.06734937079,11057
0.06926565355,11058
0.06769947882,11059
0.06571065358,11060
0.06226545257,11061
0.0636745804,11062
0.06074783315,11063
0.05248392628,11064
0.04468000805,11065
0.03808628168,11066
0.03414738674,11067
0.03131247223,11068
0.02931791949,11069
0.02374152771,11070
0.0215391644,11071
0.02388098093,11072
0.02346446614,11073
0.02656784645,11074
0.02661250659,11075
0.02552167097,11076
0.02684226111,11077
0.04431244868,11078
0.08682938318,11079
0.09587431311,11080
0.08556395274,11081
0.07957825721,11082
0.07874714119,11083
0.07015593929,11084
0.06973063,11085
0.06499056554,11086
0.06005734679,11087
0.04967007998,11088
0.04147465204,11089
0.03316232913,11090
0.03102126092,11091
0.03066200565,11092
0.02774056517,11093
0.02251552058,11094
0.02238844598,11095
0.02256851835,11096
0.02621464849,11097
0.02807355893,11098
0.02809237218,11099
0.02773956751,11100
0.02651055417,11101
0.03041444207,11102
0.06120747488,11103
0.06238632746,11104
0.063998193,11105
0.06799993182,11106
0.0715855649,11107
0.07579939206,11108
0.08091197685,11109
0.07604565073,11110
0.06999593014,11111
0.06511231148,11112
0.0570591913,11113
0.05096728875,11114
0.04939846008,11115
0.04907346467,11116
0.045406211,11117
0.03952416965,11118
0.03346309216,11119
0.03323430266,11120
0.02912645169,11121
0.02951883449,11122
0.0268116998,11123
0.02601402583,11124
0.02644218807,11125
0.02490092828,11126
0.02676340084,11127
0.02438201705,11128
0.02262872916,11129
0.02500265123,11130
0.02288093559,11131
0.02652489812,11132
0.04934883586,11133
0.07340358631,11134
0.06117015954,11135
0.04959528973,11136
0.03932479692,11137
0.03546519804,11138
0.03605676676,11139
0.04062510972,11140
0.03835547859,11141
0.03521914055,11142
0.0328150587,11143
0.03127739588,11144
0.0275144159,11145
0.02647086669,11146
0.02682009695,11147
0.02377681588,11148
0.022752409,11149
0.02800123779,11150
0.0362346207,11151
0.05749881387,11152
0.06176095956,11153
0.05850253787,11154
0.05653651653,11155
0.05259730316,11156
0.05014092889,11157
0.05072474135,11158
0.04841112364,11159
0.0429521411,11160
0.03780731447,11161
0.03191952901,11162
0.05270198122,11163
0.07140605327,11164
0.07503134786,11165
0.07884217556,11166
0.07503774307,11167
0.06917797708,11168
0.0670659678,11169
0.05701091089,11170
0.05107498936,11171
0.04391008507,11172
0.0568205927,11173
0.1693579759,11174
0.1752856961,11175
0.160653167,11176
0.1428565698,11177
0.134593503,11178
0.1383068359,11179
0.1161179876,11180
0.1080725677,11181
0.103956964,11182
0.09226031668,11183
0.08096264731,11184
0.07612350662,11185
0.07046147069,11186
0.08108143577,11187
0.1017867811,11188
0.1020151019,11189
0.06008377929,11190
0.07044878575,11191
0.04888229954,11192
0.04764879264,11193
0.04673215933,11194
0.04366202022,11195
0.04209856587,11196
0.04504161524,11197
0.04470454549,11198
0.05105361181,11199
0.04871144562,11200
0.03856145118,11201
0.03799434304,11202
0.04595992549,11203
0.03419410876,11204
0.03209636365,11205
0.03047957292,11206
0.0315816807,11207
0.02855165685,11208
0.02725960906,11209
0.02239019626,11210
0.02513664703,11211
0.02628045129,11212
0.02021310232,11213
0.02383617703,11214
0.03590461306,11215
0.0543585174,11216
0.05735943643,11217
0.06148784893,11218
0.05741239813,11219
0.06105038501,11220
0.05413424667,11221
0.05775179151,11222
0.05329324564,11223
0.04524253349,11224
0.04134921945,11225
0.03896370306,11226
0.0344685418,11227
0.03056368947,11228
0.02719457853,11229
0.02565432038,11230
0.0267362671,11231
0.03012926936,11232
0.02743463196,11233
0.0309349265,11234
0.02979724676,11235
0.02870089847,11236
0.0305290378,11237
0.02618979401,11238
0.02638379872,11239
0.03039775368,11240
0.04263668791,11241
0.04333657695,11242
0.03556532482,11243
0.03528281677,11244
0.03664622944,11245
0.03555301817,11246
0.03201383041,11247
0.0344875163,11248
0.03290300024,11249
0.03061605325,11250
0.03045379004,11251
0.02753847014,11252
0.02678505023,11253
0.02854843154,11254
0.02248306685,11255
0.02176626105,11256
0.0215814577,11257
0.02133235215,11258
0.02038058511,11259
0.01861929869,11260
0.01884984511,11261
0.01515346356,11262
0.01559433668,11263
0.01582633122,11264
0.01459223794,11265
0.0157258571,11266
0.0157305755,11267
0.01460590216,11268
0.01476612665,11269
0.01462013035,11270
0.01365643753,11271
0.0117568265,11272
0.01225295785,11273
0.0128580086,11274
0.01236238824,11275
0.01813714925,11276
0.02965173767,11277
0.02717931198,11278
0.0258480512,11279
0.02450559638,11280
0.02096453519,11281
0.02594858898,11282
0.02852455998,11283
0.02641687892,11284
0.02716010239,11285
0.02356153456,11286
0.02231470161,11287
0.02140832478,11288
0.0203775358,11289
0.02011819476,11290
0.02019985906,11291
0.01923461925,11292
0.01790516969,11293
0.01842973418,11294
0.01687524291,11295
0.01706215172,11296
0.01658714364,11297
0.01700305144,11298
0.0181675111,11299
0.01734437188,11300
0.02083461995,11301
0.01939430131,11302
0.03998503144,11303
0.07343191789,11304
0.06277318012,11305
0.05137105888,11306
0.04162142307,11307
0.03726250409,11308
0.03001403518,11309
0.02091498475,11310
0.02194770089,11311
0.0186762031,11312
0.01955769637,11313
0.03372463276,11314
0.05433565019,11315
0.06856040242,11316
0.06923941832,11317
0.07168968573,11318
0.06638938836,11319
0.06816043281,11320
0.06308965954,11321
0.06051114063,11322
0.05521271047,11323
0.09316379488,11324
0.1034817886,11325
0.09143691616,11326
0.06737826351,11327
0.05230703282,11328
0.04275398383,11329
0.03542905292,11330
0.03628363955,11331
0.03473149501,11332
0.03996796201,11333
0.0862924425,11334
0.1701433358,11335
0.1607861387,11336
0.1299899684,11337
0.104772444,11338
0.09141766119,11339
0.07879970628,11340
0.05767110935,11341
0.05811185757,11342
0.1159106479,11343
0.1049375592,11344
0.1032228428,11345
0.09700624333,11346
0.07124316703,11347
0.06523900503,11348
0.07267728123,11349
0.08205901486,11350
0.1202062216,11351
0.1164938775,11352
0.08536539312,11353
0.07196370077,11354
0.05032325962,11355
0.05315481449,11356
0.0650669482,11357
0.05423803488,11358
0.05062401645,11359
0.06040932088,11360
0.06467885722,11361
0.05758094536,11362
0.07814078704,11363
0.1116722359,11364
0.1041336423,11365
0.09215247447,11366
0.0952606902,11367
0.08883329783,11368
0.08696036874,11369
0.08780986292,11370
0.08326582325,11371
0.07024058104,11372
0.08770255768,11373
0.1228926289,11374
0.09082235885,11375
0.07825046646,11376
0.06154961082,11377
0.04336786662,11378
0.05660097193,11379
0.09036550369,11380
0.07737416622,11381
0.07512620283,11382
0.06415803346,11383
0.05564121038,11384
0.05874874446,11385
0.0640383117,11386
0.06342646173,11387
0.0659586535,11388
0.09404134075,11389
0.1229905805,11390
0.1191079928,11391
0.1204152656,11392
0.1169883516,11393
0.1091026301,11394
0.1134567398,11395
0.1109529076,11396
0.09286896611,11397
0.0915024538,11398
0.07756424286,11399
0.07163734884,11400
0.05997543479,11401
0.05884351731,11402
0.05241512014,11403
0.05187007808,11404
0.1107821791,11405
0.09962512048,11406
0.08352181173,11407
0.06327274205,11408
0.05826899572,11409
0.05518432644,11410
0.05313224351,11411
0.05054242805,11412
0.05399466278,11413
0.05517130441,11414
0.05822309991,11415
0.0528979668,11416
0.04764636793,11417
0.04563142364,11418
0.03503513659,11419
0.05514748419,11420
0.05430269521,11421
0.04239122813,11422
0.04338448779,11423
0.03922138182,11424
0.04049556004,11425
0.04055252896,11426
0.04140200695,11427
0.04344256082,11428
0.05424384369,11429
0.1018421599,11430
0.09021498575,11431
0.07820080653,11432
0.08175910788,11433
0.07900710025,11434
0.07366179709,11435
0.07236616009,11436
0.07890526608,11437
0.1324145717,11438
0.1123758736,11439
0.07738140538,11440
0.06939102519,11441
0.07433884538,11442
0.07169961875,11443
0.08028119756,11444
0.07883017059,11445
0.07345995113,11446
0.06058047134,11447
0.05555141945,11448
0.04646660855,11449
0.05293089897,11450
0.04659716828,11451
0.07140396119,11452
0.08409134133,11453
0.07675677646,11454
0.06670755862,11455
0.06086161711,11456
0.06179542731,11457
0.05831812224,11458
0.05253276514,11459
0.05020945008,11460
0.05040860646,11461
0.05333159779,11462
0.05687094801,11463
0.04915499843,11464
0.05494281369,11465
0.05819285822,11466
0.05221846497,11467
0.05540699271,11468
0.04869097025,11469
0.06165256781,11470
0.05422517496,11471
0.05705830709,11472
0.06001708376,11473
0.05773255934,11474
0.05904230468,11475
0.07053567201,11476
0.07041494093,11477
0.08092823933,11478
0.1183088337,11479
0.09961003953,11480
0.09282347475,11481
0.109640688,11482
0.09722028456,11483
0.08618208502,11484
0.08968143512,11485
0.09026319174,11486
0.08615571269,11487
0.08870617429,11488
0.09633844514,11489
0.09360226909,11490
0.07009333588,11491
0.06517813627,11492
0.07322753473,11493
0.07823649697,11494
0.07925537202,11495
0.06914303175,11496
0.07480690784,11497
0.08515914895,11498
0.09420839678,11499
0.07344424149,11500
0.08122103791,11501
0.07014754522,11502
0.05031137895,11503
0.05368602587,11504
0.06728499696,11505
0.06577076922,11506
0.06914110194,11507
0.07362539279,11508
0.06938663216,11509
0.0681873397,11510
0.06287824542,11511
0.0615531083,11512
0.07709991488,11513
0.0898724305,11514
0.09487663203,11515
0.09751972195,11516
0.08971398693,11517
0.08461072582,11518
0.07246357017,11519
0.07257956333,11520
0.07941736585,11521
0.1287606197,11522
0.1269163638,11523
0.09488673978,11524
0.08975365481,11525
0.1001987809,11526
0.07901757256,11527
0.0717455844,11528
0.09063557358,11529
0.07623500904,11530
0.061884714,11531
0.07933445881,11532
0.07861919501,11533
0.07488163633,11534
0.08535711105,11535
0.08257128645,11536
0.0742777534,11537
0.078501297,11538
0.08599947249,11539
0.07630464267,11540
0.0545973191,11541
0.05820844655,11542
0.0518459945,11543
0.06098171698,11544
0.06111196053,11545
0.05241627067,11546
0.04573246319,11547
0.04326451204,11548
0.0329611838,11549
0.03017452351,11550
0.03333727305,11551
0.02170677257,11552
0.02122242495,11553
0.02116370463,11554
0.01953073814,11555
0.02316765286,11556
0.01732796909,11557
0.02413782593,11558
0.02375141656,11559
0.02138760299,11560
0.02136978585,11561
0.02186559815,11562
0.01923908378,11563
0.02197083732,11564
0.01742489757,11565
0.01800008333,11566
0.02146735198,11567
0.0200667698,11568
0.02044129663,11569
0.01912274904,11570
0.01839619301,11571
0.01898200096,11572
0.01577145555,11573
0.0186535765,11574
0.01887372789,11575
0.01684861713,11576
0.01902139235,11577
0.0217039745,11578
0.03563575119,11579
0.04815235846,11580
0.04799741988,11581
0.05093180094,11582
0.048712752,11583
0.04711911036,11584
0.04823806502,11585
0.04531409592,11586
0.04001610206,11587
0.03606252062,11588
0.02876353721,11589
0.03043476763,11590
0.0267503447,11591
0.02161447681,11592
0.02110359367,11593
0.01930512929,11594
0.02278872278,11595
0.02306260833,11596
0.02541273139,11597
0.02373030551,11598
0.02577604721,11599
0.02492687341,11600
0.0232806335,11601
0.02511066251,11602
0.02156662201,11603
0.03018867284,11604
0.03945523489,11605
0.03448989373,11606
0.0333991158,11607
0.03643743579,11608
0.03240419277,11609
0.03093602767,11610
0.03044056482,11611
0.03229671839,11612
0.02664974955,11613
0.02891780848,11614
0.0280704288,11615
0.02383998318,11616
0.02416267431,11617
0.0222735509,11618
0.01963255123,11619
0.01787633575,11620
0.01677024937,11621
0.01772995022,11622
0.01690400625,11623
0.01647228916,11624
0.01511207608,11625
0.01428258361,11626
0.01281435724,11627
0.01242413621,11628
0.01425485199,11629
0.0137452717,11630
0.01479021414,11631
0.01464955784,11632
0.01471920985,11633
0.01356215186,11634
0.01304800722,11635
0.01366077924,11636
0.01393750768,11637
0.01237609017,11638
0.01279039735,11639
0.01225055669,11640
0.01283486762,11641
0.01368256074,11642
0.01974267073,11643
0.03764007414,11644
0.03739311295,11645
0.03838060401,11646
0.03397814124,11647
0.02456677786,11648
0.02241213777,11649
0.02427767495,11650
0.01908085924,11651
0.01916797546,11652
0.01937821915,11653
0.01679962267,11654
0.01711317401,11655
0.01747255592,11656
0.01706078088,11657
0.0149069729,11658
0.01590471813,11659
0.01466463232,11660
0.01348698667,11661
0.01236863639,11662
0.01234528474,11663
0.01108785588,11664
0.01025464268,11665
0.01091407888,11666
0.009805646394,11667
0.01463688641,11668
0.01786140759,11669
0.01564117016,11670
0.01745283173,11671
0.01812042567,11672
0.01783353989,11673
0.01878134597,11674
0.01779651782,11675
0.01792019294,11676
0.02008836083,11677
0.018061241,11678
0.01990898881,11679
0.02027049223,11680
0.01819489843,11681
0.01953051522,11682
0.02103745333,11683
0.03757465256,11684
0.0460259675,11685
0.05907879843,11686
0.05932176747,11687
0.05818613954,11688
0.05291229595,11689
0.05095171518,11690
0.04574225591,11691
0.0394073952,11692
0.03875818719,11693
0.03103677736,11694
0.03090016269,11695
0.02449897629,11696
0.02465600713,11697
0.02961241145,11698
0.02705399242,11699
0.02679512573,11700
0.02567590598,11701
0.02640241642,11702
0.02518518514,11703
0.0267094747,11704
0.0247311278,11705
0.02377620229,11706
0.02476964377,11707
0.07610354141,11708
0.1048549545,11709
0.1065624916,11710
0.09522423051,11711
0.08758458333,11712
0.07494032973,11713
0.06986230583,11714
0.07225859472,11715
0.05808985529,11716
0.06058178582,11717
0.06358701937,11718
0.06103222059,11719
0.05779964005,11720
0.05123186791,11721
0.05098678717,11722
0.05392752231,11723
0.04643110511,11724
0.0431796663,11725
0.03924981231,11726
0.03954208554,11727
0.03583876821,11728
0.03491624556,11729
0.03586199534,11730
0.03428221956,11731
0.1089550329,11732
0.1251777885,11733
0.1202692082,11734
0.1101336884,11735
0.08818927159,11736
0.06176772687,11737
0.05916941691,11738
0.05977310216,11739
0.04248443476,11740
0.05310738709,11741
0.04406870891,11742
0.03623545304,11743
0.03498658516,11744
0.03240037432,11745
0.03648694754,11746
0.03109502055,11747
0.03474870174,11748
0.03371070361,11749
0.033589157,11750
0.03081117937,11751
0.03083331112,11752
0.03045497183,11753
0.03140636876,11754
0.03525581413,11755
0.03462241567,11756
0.03608028211,11757
0.03871309035,11758
0.04282221397,11759
0.04242922724,11760
0.03942315979,11761
0.03913356877,11762
0.03802624431,11763
0.03792142115,11764
0.03202126518,11765
0.03455577157,11766
0.03312898837,11767
0.03234359484,11768
0.03035942526,11769
0.03088694153,11770
0.03562485876,11771
0.03067275438,11772
0.03340299026,11773
0.02846029534,11774
0.03034990019,11775
0.03089642728,11776
0.02891714121,11777
0.03010024294,11778
0.03019245484,11779
0.02840812152,11780
0.02785979663,11781
0.03071705291,11782
0.02850427852,11783
0.03390215887,11784
0.03018939146,11785
0.02945653964,11786
0.02793854016,11787
0.04283145156,11788
0.0885627136,11789
0.1141162823,11790
0.1001778787,11791
0.09282746394,11792
0.08625701541,11793
0.06348680327,11794
0.05369308729,11795
0.04133469011,11796
0.04454820492,11797
0.04964451252,11798
0.05017133082,11799
0.04792769754,11800
0.05185420395,11801
0.04360542603,11802
0.04436085517,11803
0.0394825831,11804
0.03870932947,11805
0.03755895674,11806
0.04173495646,11807
0.04053284666,11808
0.04125053899,11809
0.03627467105,11810
0.04081291982,11811
0.03680842708,11812
0.03234800153,11813
0.04399816831,11814
0.05352107528,11815
0.05852620818,11816
0.05950983014,11817
0.06158493384,11818
0.05733036799,11819
0.04966760509,11820
0.0566271116,11821
0.05578737273,11822
0.0534803945,11823
0.04757065301,11824
0.06662523793,11825
0.07689627131,11826
0.07673767701,11827
0.08060042369,11828
0.1092687859,11829
0.08873033547,11830
0.09250954371,11831
0.1208115931,11832
0.1229576582,11833
0.129899833,11834
0.1467373469,11835
0.1465973838,11836
0.1912671714,11837
0.2607704299,11838
0.217288113,11839
0.1774249985,11840
0.1636909959,11841
0.160669196,11842
0.1417265123,11843
0.1157779367,11844
0.1133850805,11845
0.1489606488,11846
0.179490675,11847
0.1734448329,11848
0.1591870296,11849
0.1406555874,11850
0.1306706655,11851
0.124826551,11852
0.09705938783,11853
0.08171718858,11854
0.07479814157,11855
0.07845559446,11856
0.100003316,11857
0.148667587,11858
0.1956665193,11859
0.1578301362,11860
0.125462753,11861
0.09952162404,11862
0.07159984926,11863
0.05980674706,11864
0.06968891804,11865
0.05346127877,11866
0.04883898627,11867
0.05224575026,11868
0.04468608421,11869
0.04754010213,11870
0.04752347963,11871
0.05051128318,11872
0.0610073059,11873
0.07372138812,11874
0.06133298828,11875
0.06823318034,11876
0.06121360344,11877
0.05261702968,11878
0.06074550362,11879
0.06026003914,11880
0.1029522539,11881
0.1571801429,11882
0.1378723724,11883
0.1279268723,11884
0.1255614323,11885
0.1010475946,11886
0.1046274721,11887
0.1121970099,11888
0.1329724246,11889
0.1353089397,11890
0.1244572893,11891
0.1118435659,11892
0.1161794299,11893
0.1083219851,11894
0.1042132137,11895
0.103628277,11896
0.1038363105,11897
0.09239272545,11898
0.08477694468,11899
0.07765543487,11900
0.07065124145,11901
0.062874986,11902
0.06298199312,11903
0.06857738866,11904
0.07968204737,11905
0.07834869712,11906
0.08198618958,11907
0.07176963144,11908
0.07909934873,11909
0.07530887971,11910
0.07135009279,11911
0.07487148055,11912
0.06266552692,11913
0.07378833918,11914
0.0825887784,11915
0.07637621782,11916
0.08081179187,11917
0.0630341189,11918
0.06237955677,11919
0.05524630567,11920
0.05672039347,11921
0.05270961639,11922
0.05419511693,11923
0.1127461371,11924
0.1013995143,11925
0.08953012353,11926
0.09018225363,11927
0.09165107542,11928
0.087005796,11929
0.08299436043,11930
0.08140091243,11931
0.07391929868,11932
0.0602309576,11933
0.1245035858,11934
0.1201453688,11935
0.1094812161,11936
0.09596795242,11937
0.0794126268,11938
0.08266849804,11939
0.08486329871,11940
0.08812495728,11941
0.08352421119,11942
0.08177297618,11943
0.06885636861,11944
0.07774598568,11945
0.08653486042,11946
0.08956143219,11947
0.07143637701,11948
0.07251539319,11949
0.07394493463,11950
0.06887440804,11951
0.06874021475,11952
0.09991472604,11953
0.1146298099,11954
0.1031929171,11955
0.1086075118,11956
0.1390912372,11957
0.1280733525,11958
0.1675676248,11959
0.1505391906,11960
0.1427218413,11961
0.1328339518,11962
0.1273592091,11963
0.1115445498,11964
0.1175346499,11965
0.1182589549,11966
0.1136202816,11967
0.0963812073,11968
0.08032450068,11969
0.0647616275,11970
0.06262155175,11971
0.08604827518,11972
0.08842889263,11973
0.07429371586,11974
0.0699518399,11975
0.09580567051,11976
0.1266034958,11977
0.1195321264,11978
0.1003288779,11979
0.07960953975,11980
0.07742845589,11981
0.08615118394,11982
0.07975483911,11983
0.08412813756,11984
0.09198628515,11985
0.08178556427,11986
0.07340511909,11987
0.07436242208,11988
0.07511127401,11989
0.07337256817,11990
0.1583109443,11991
0.209567588,11992
0.172129742,11993
0.1696877245,11994
0.167078525,11995
0.1455919105,11996
0.146581956,11997
0.152517637,11998
0.1472844748,11999
0.2081945337,12000
0.3700808588,12001
0.3394789834,12002
0.2990166338,12003
0.3008605155,12004
0.2954465484,12005
0.2531284737,12006
0.2503245755,12007
0.2920716887,12008
0.2809809372,12009
0.2350904496,12010
0.2104999386,12011
0.2059167592,12012
0.2040496751,12013
0.1625593969,12014
0.2519329747,12015
0.253921173,12016
0.2146166209,12017
0.2226470468,12018
0.1802530114,12019
0.1354905293,12020
0.1634814364,12021
0.2680188434,12022
0.4461465055,12023
0.3632682807,12024
0.2823085671,12025
0.2264721489,12026
0.1986252591,12027
0.1550103684,12028
0.1014944031,12029
0.09661707321,12030
0.09091091249,12031
0.1055791942,12032
0.1257864067,12033
0.108832315,12034
0.1045974085,12035
0.1428449452,12036
0.1461666774,12037
0.1422978835,12038
0.1636671809,12039
0.122327244,12040
0.1129393677,12041
0.09043332262,12042
0.08504440163,12043
0.0720769506,12044
0.06658009769,12045
0.0772074305,12046
0.09178239554,12047
0.08990318288,12048
0.08893078717,12049
0.08414039852,12050
0.07518016429,12051
0.07563642258,12052
0.07245964199,12053
0.07337372403,12054
0.06619320758,12055
0.06859085551,12056
0.06148367298,12057
0.05522249033,12058
0.07135498713,12059
0.06594410679,12060
0.1183461091,12061
0.1417804332,12062
0.1351563647,12063
0.1463907941,12064
0.1312146998,12065
0.1294911986,12066
0.1359233656,12067
0.1253828476,12068
0.1095810942,12069
0.1084276995,12070
0.1000494074,12071
0.09654507784,12072
0.08173848431,12073
0.07326183121,12074
0.06707730161,12075
0.0761844238,12076
0.06990801965,12077
0.08290743267,12078
0.08913264065,12079
0.1285866672,12080
0.1875127655,12081
0.1763913627,12082
0.1531017044,12083
0.1379398644,12084
0.1038805762,12085
0.09364517918,12086
0.1100219425,12087
0.09012539881,12088
0.0999983358,12089
0.09588264488,12090
0.1442027753,12091
0.1939773342,12092
0.1996205825,12093
0.1859873877,12094
0.1550762514,12095
0.1204538747,12096
0.1198917595,12097
0.1314818742,12098
0.1522576204,12099
0.1592051556,12100
0.1342692852,12101
0.1323014662,12102
0.1317987445,12103
0.1394420467,12104
0.1385675292,12105
0.1324869807,12106
0.1213434713,12107
0.1292564407,12108
0.1220422135,12109
0.2136431808,12110
0.2671731094,12111
0.2473028091,12112
0.192234271,12113
0.1950401309,12114
0.1681169419,12115
0.173521608,12116
0.1729025832,12117
0.1428971034,12118
0.1480387368,12119
0.1346808151,12120
0.1253915729,12121
0.1406380225,12122
0.1379395471,12123
0.1240957252,12124
0.1260958475,12125
0.1170541287,12126
0.1024824359,12127
0.1057084042,12128
0.09860508146,12129
0.09237273924,12130
0.09490285214,12131
0.08798043114,12132
0.08575988728,12133
0.07591406333,12134
0.07621736381,12135
0.08133888874,12136
0.07225156108,12137
0.06550873877,12138
0.06611278219,12139
0.0693151792,12140
0.06473862912,12141
0.09283872413,12142
0.1408294373,12143
0.1269323315,12144
0.1169427576,12145
0.1254871235,12146
0.1158022976,12147
0.1137834434,12148
0.1093604273,12149
0.1206801861,12150
0.1602267479,12151
0.3245910215,12152
0.3147260966,12153
0.2804980998,12154
0.2705699861,12155
0.246301096,12156
0.243677225,12157
0.2301117721,12158
0.2031121889,12159
0.1867904442,12160
0.1773853362,12161
0.1602015399,12162
0.1432502482,12163
0.1439297841,12164
0.127050199,12165
0.1113172207,12166
0.1175731186,12167
0.1832221658,12168
0.1631951776,12169
0.1825693252,12170
0.173430689,12171
0.1452439309,12172
0.1596432155,12173
0.1703778041,12174
0.1577255628,12175
0.142945632,12176
0.1409122237,12177
0.1362584012,12178
0.1366980417,12179
0.153904328,12180
0.145467631,12181
0.09773777954,12182
0.08642874255,12183
0.1164596809,12184
0.1746408561,12185
0.1080590814,12186
0.08845634712,12187
0.08345327554,12188
0.0879431682,12189
0.1102206715,12190
0.1024658084,12191
0.1043011876,12192
0.09656211433,12193
0.09087775922,12194
0.07749292727,12195
0.07111412828,12196
0.07036204544,12197
0.06617945829,12198
0.0642024935,12199
0.06804122722,12200
0.06257661362,12201
0.07012967127,12202
0.06623039843,12203
0.06183833155,12204
0.07475258881,12205
0.09560861909,12206
0.1398929931,12207
0.1638379706,12208
0.1494893389,12209
0.1613074284,12210
0.1544055539,12211
0.1724103865,12212
0.19349848,12213
0.1890563786,12214
0.1824914578,12215
0.1578625849,12216
0.137769066,12217
0.1163971912,12218
0.1118557275,12219
0.09994863668,12220
0.08704555423,12221
0.1053500563,12222
0.116969845,12223
0.1155485885,12224
0.1354811312,12225
0.2156825934,12226
0.202447502,12227
0.1771429917,12228
0.1673745843,12229
0.1292946245,12230
0.1149974029,12231
0.11325341,12232
0.1140095124,12233
0.1238049489,12234
0.172770924,12235
0.1874731355,12236
0.1579187755,12237
0.1465022297,12238
0.1239548794,12239
0.1191595173,12240
0.1207709386,12241
0.175930157,12242
0.1904827702,12243
0.1969768865,12244
0.1721748566,12245
0.1558179625,12246
0.175066116,12247
0.1865532838,12248
0.163844571,12249
0.1505706723,12250
0.1620724837,12251
0.2301815954,12252
0.278235439,12253
0.2659519563,12254
0.2156588447,12255
0.2081996078,12256
0.1804410536,12257
0.1720193832,12258
0.1799491803,12259
0.1443545986,12260
0.138228528,12261
0.1368679372,12262
0.1317721859,12263
0.1388366461,12264
0.13169891,12265
0.1351263331,12266
0.1402625131,12267
0.1157049402,12268
0.1113578797,12269
0.1090073254,12270
0.09655550073,12271
0.07938801694,12272
0.08691888777,12273
0.08730265829,12274
0.08609567746,12275
0.09342278305,12276
0.09354599608,12277
0.0867348077,12278
0.07901290239,12279
0.07972383992,12280
0.06945929938,12281
0.07220808505,12282
0.1020784197,12283
0.1544867607,12284
0.1519609266,12285
0.1416819732,12286
0.1389572246,12287
0.135018802,12288
0.128888391,12289
0.1266772542,12290
0.1372025549,12291
0.4123784854,12292
0.4300974005,12293
0.3986943633,12294
0.3800945627,12295
0.3307147312,12296
0.3337758667,12297
0.2973749309,12298
0.2807145736,12299
0.2598719435,12300
0.2583038111,12301
0.2251876598,12302
0.2090142716,12303
0.1969692527,12304
0.1700498435,12305
0.1524477941,12306
0.149406071,12307
0.164652376,12308
0.2133777865,12309
0.2279919042,12310
0.1914009935,12311
0.1993684229,12312
0.2097836004,12313
0.1788373917,12314
0.1977567446,12315
0.1950584671,12316
0.1602467417,12317
0.1753175087,12318
0.1826981558,12319
0.139236076,12320
0.1694210288,12321
0.1572198131,12322
0.1390251325,12323
0.1377791977,12324
0.1672644491,12325
0.398384825,12326
0.2893393241,12327
0.1406087558,12328
0.09275443216,12329
0.1249578158,12330
0.1444366308,12331
0.1651800343,12332
0.1520750076,12333
0.1095579859,12334
0.08874107147,12335
0.08581861382,12336
0.07818722477,12337
0.08373829692,12338
0.07517247864,12339
0.07627251756,12340
0.08308454327,12341
0.08670368088,12342
0.08414291155,12343
0.08252157438,12344
0.07844686539,12345
0.07736000665,12346
0.0701588551,12347
0.06420040493,12348
0.06202991411,12349
0.06257543501,12350
0.05741643612,12351
0.06057449816,12352
0.06447823853,12353
0.06395620753,12354
0.06293354306,12355
0.05383007278,12356
0.05870359476,12357
0.069317758,12358
0.09063586235,12359
0.08507744995,12360
0.08580719213,12361
0.08823298593,12362
0.08346112468,12363
0.07876541521,12364
0.08078281973,12365
0.07210853783,12366
0.1284257143,12367
0.2109011321,12368
0.1744587529,12369
0.1361217922,12370
0.1042495091,12371
0.09871252771,12372
0.08597555286,12373
0.07020317138,12374
0.06908930502,12375
0.06646145203,12376
0.06824238344,12377
0.07088861723,12378
0.06214105496,12379
0.08165932737,12380
0.08811532063,12381
0.07146798342,12382
0.06666782238,12383
0.06763151357,12384
0.06738084637,12385
0.06946679014,12386
0.06646476941,12387
0.07253087616,12388
0.07024038868,12389
0.06860803399,12390
0.08121319132,12391
0.09604377775,12392
0.1277232212,12393
0.1353418656,12394
0.1237002862,12395
0.1084159892,12396
0.0958624175,12397
0.08802372814,12398
0.08809784652,12399
0.07785789256,12400
0.07843308275,12401
0.09133996378,12402
0.09387076668,12403
0.1286975911,12404
0.1955483394,12405
0.1769333124,12406
0.1548059838,12407
0.146240363,12408
0.1044598973,12409
0.09272300266,12410
0.1043272139,12411
0.077639782,12412
0.075663355,12413
0.07468575264,12414
0.06814083012,12415
0.07203567503,12416
0.06816309606,12417
0.06544859034,12418
0.06327211,12419
0.05692232545,12420
0.1256173934,12421
0.1331522568,12422
0.1380462967,12423
0.1235603985,12424
0.1218150695,12425
0.1133775872,12426
0.1293511324,12427
0.1247671769,12428
0.1064889441,12429
0.1008587602,12430
0.09988389784,12431
0.104784173,12432
0.09351860673,12433
0.09689757767,12434
0.09324087163,12435
0.07644472136,12436
0.06428372854,12437
0.07192564177,12438
0.07146067173,12439
0.06601199656,12440
0.08485631103,12441
0.1472544755,12442
0.1460444319,12443
0.1523081844,12444
0.1355190582,12445
0.144506311,12446
0.1091836555,12447
0.1112567682,12448
0.1042044445,12449
0.09315849909,12450
0.09965820322,12451
0.07256571976,12452
0.07108456493,12453
0.07212104037,12454
0.05581876948,12455
0.05655006963,12456
0.05968976576,12457
0.04882186121,12458
0.0491428403,12459
0.04944310295,12460
0.0386099013,12461
0.03820613103,12462
0.03097605643,12463
0.02987822226,12464
0.03388694122,12465
0.0412579989,12466
0.04385803019,12467
0.03663583638,12468
0.03570068555,12469
0.03806928031,12470
0.03685368624,12471
0.03148295234,12472
0.03246100273,12473
0.03273491174,12474
0.03039418855,12475
0.02965368022,12476
0.03479413212,12477
0.0299324068,12478
0.02937739642,12479
0.03238906131,12480
0.03573575168,12481
0.03938512903,12482
0.04379737336,12483
0.04249740108,12484
0.04397797958,12485
0.04190643418,12486
0.0384923828,12487
0.03702823289,12488
0.03609086328,12489
0.03324150599,12490
0.02914812543,12491
0.03022711888,12492
0.04387059825,12493
0.06925500821,12494
0.08130061424,12495
0.0813603923,12496
0.06975229983,12497
0.0719156208,12498
0.06342598291,12499
0.06516666108,12500
0.07120173946,12501
0.06429881618,12502
0.05302969073,12503
0.05473648944,12504
0.04711269684,12505
0.05087341328,12506
0.06011877412,12507
0.05889308729,12508
0.05545808817,12509
0.05727734023,12510
0.06491614191,12511
0.05843354851,12512
0.05453116731,12513
0.06470329881,12514
0.06642107725,12515
0.06741741422,12516
0.06686908914,12517
0.06259706004,12518
0.06258907486,12519
0.06913856685,12520
0.08282893143,12521
0.07468438865,12522
0.07856478976,12523
0.07528493543,12524
0.07492724719,12525
0.07075886518,12526
0.07110592177,12527
0.07082164744,12528
0.06527096407,12529
0.05842623157,12530
0.05372380882,12531
0.05124838697,12532
0.04812946262,12533
0.04447442538,12534
0.04122336494,12535
0.04240204316,12536
0.04403902861,12537
0.03879333969,12538
0.03756746613,12539
0.04269780881,12540
0.06372399678,12541
0.07005503778,12542
0.05372520954,12543
0.04597600026,12544
0.05136504651,12545
0.05222217332,12546
0.05894016673,12547
0.05704392736,12548
0.05073474928,12549
0.04964220315,12550
0.05336970725,12551
0.05226626178,12552
0.05261910391,12553
0.04968247068,12554
0.04685929013,12555
0.03866722486,12556
0.03846988269,12557
0.04026246826,12558
0.03534780705,12559
0.03309793219,12560
0.02671402062,12561
0.02347533107,12562
0.02350932487,12563
0.02152186591,12564
0.02117933131,12565
0.02151515061,12566
0.02057821632,12567
0.02031748128,12568
0.02020591025,12569
0.02056154873,12570
0.02062926921,12571
0.0213794516,12572
0.02125378531,12573
0.02263929318,12574
0.01953502098,12575
0.02640041981,12576
0.04444465691,12577
0.05227498194,12578
0.05705270041,12579
0.05403766625,12580
0.05288612056,12581
0.05396351265,12582
0.05108088732,12583
0.05225006098,12584
0.04242805588,12585
0.04142871749,12586
0.0345969709,12587
0.03212436487,12588
0.0290337315,12589
0.02435222797,12590
0.02504356091,12591
0.02498531667,12592
0.02532592195,12593
0.02775124451,12594
0.02637416284,12595
0.02950211855,12596
0.02589606895,12597
0.0289994662,12598
0.02707775912,12599
0.02562354707,12600
0.02547007458,12601
0.02284596352,12602
0.02338892757,12603
0.02074294657,12604
0.0276528602,12605
0.0389877661,12606
0.03618267255,12607
0.0319935664,12608
0.03413214834,12609
0.03192776073,12610
0.03084933161,12611
0.02737804892,12612
0.02977432691,12613
0.02785161018,12614
0.02619460844,12615
0.02626172901,12616
0.02324754462,12617
0.02066382068,12618
0.02157113518,12619
0.01824982409,12620
0.02036370574,12621
0.0234010512,12622
0.01948644325,12623
0.01857030318,12624
0.01988155111,12625
0.02154749537,12626
0.02092834183,12627
0.0204134422,12628
0.0195510552,12629
0.02133066832,12630
0.02064836057,12631
0.01936749349,12632
0.01918582995,12633
0.01876121839,12634
0.01887730236,12635
0.01671360829,12636
0.01711152258,12637
0.01732489559,12638
0.01507766809,12639
0.01663764884,12640
0.01580767212,12641
0.01441413744,12642
0.01645575913,12643
0.01330033918,12644
0.01381421282,12645
0.01430406452,12646
0.01262698814,12647
0.01302821482,12648
0.01315208685,12649
0.0119296146,12650
0.01258625205,12651
0.01080616713,12652
0.01105392418,12653
0.01154559146,12654
0.05245952786,12655
0.1186837597,12656
0.1245280828,12657
0.1291346852,12658
0.1277814713,12659
0.1139671114,12660
0.09599161229,12661
0.0985860167,12662
0.08606003134,12663
0.08703681504,12664
0.08410837311,12665
0.06170305077,12666
0.0632689417,12667
0.05729431729,12668
0.04826747888,12669
0.04354913481,12670
0.04899394759,12671
0.04230562632,12672
0.03730010187,12673
0.04030000648,12674
0.03366458798,12675
0.02612059548,12676
0.02437731902,12677
0.0248253208,12678
0.02292747245,12679
0.02417850677,12680
0.0219892421,12681
0.01812915506,12682
0.01855428786,12683
0.01929275288,12684
0.01690104895,12685
0.01593699979,12686
0.01502961864,12687
0.01400265453,12688
0.02140832313,12689
0.02330778168,12690
0.020407968,12691
0.02095398338,12692
0.017831147,12693
0.01745718407,12694
0.01796752687,12695
0.01785720384,12696
0.01634288512,12697
0.01643527759,12698
0.01724361267,12699
0.01519640011,12700
0.0166102758,12701
0.01588560944,12702
0.01591266094,12703
0.01708187461,12704
0.01652077222,12705
0.01720620444,12706
0.02031873432,12707
0.03132501673,12708
0.03553654906,12709
0.03656296361,12710
0.02973165101,12711
0.03214504236,12712
0.03055927155,12713
0.03044120094,12714
0.03314753581,12715
0.0320512463,12716
0.02680334087,12717
0.02740973279,12718
0.02526944205,12719
0.02391511561,12720
0.02454184856,12721
0.02642755953,12722
0.02724842225,12723
0.02557833668,12724
0.02152827891,12725
0.02488212146,12726
0.02611297788,12727
0.02343501557,12728
0.02364972041,12729
0.02526365511,12730
0.0233652104,12731
0.02155734648,12732
0.02124724503,12733
0.02194261799,12734
0.02204619567,12735
0.0196905116,12736
0.03165535731,12737
0.04500808326,12738
0.039679385,12739
0.03573049326,12740
0.03742396122,12741
0.03645948324,12742
0.03519037598,12743
0.03278314987,12744
0.03090766539,12745
0.03010389206,12746
0.02839254772,12747
0.02829082824,12748
0.03054780947,12749
0.0287017172,12750
0.02835107119,12751
0.02766656109,12752
0.02797832611,12753
0.02503871847,12754
0.02445007261,12755
0.02488504359,12756
0.02943644971,12757
0.02508553362,12758
0.02131209856,12759
0.02146507975,12760
0.02192338944,12761
0.02606168783,12762
0.02043203549,12763
0.02243186563,12764
0.02420373579,12765
0.02589675892,12766
0.02827397987,12767
0.02568988919,12768
0.02235115149,12769
0.02821004863,12770
0.02534844346,12771
0.02345536612,12772
0.02459678072,12773
0.02408583964,12774
0.02568210293,12775
0.02749016779,12776
0.02277069674,12777
0.02625383611,12778
0.02838589192,12779
0.02327608356,12780
0.02399721058,12781
0.02486706235,12782
0.0205914453,12783
0.02512120787,12784
0.03531836258,12785
0.03384516076,12786
0.03038011844,12787
0.03293322176,12788
0.02820395372,12789
0.03817352408,12790
0.03468842282,12791
0.02864732324,12792
0.0311322424,12793
0.02586952687,12794
0.02950977119,12795
0.02630734621,12796
0.02263174645,12797
0.02278179433,12798
0.0185905901,12799
0.01582002081,12800
0.01599835047,12801
0.0161206329,12802
0.01459430425,12803
0.01274118345,12804
0.01371840393,12805
0.01552008745,12806
0.0177153792,12807
0.01863770374,12808
0.01907674189,12809
0.01743538532,12810
0.01974376945,12811
0.02091826224,12812
0.01842049654,12813
0.02026283102,12814
0.01968425396,12815
0.0208474818,12816
0.02016765759,12817
0.01949644018,12818
0.01948669929,12819
0.02132286058,12820
0.02986491029,12821
0.04291169365,12822
0.04130849213,12823
0.04451426849,12824
0.04043547997,12825
0.04119045018,12826
0.04150232788,12827
0.03830905596,12828
0.03634945009,12829
0.03126123997,12830
0.02918270245,12831
0.026784314,12832
0.02291053122,12833
0.02179317067,12834
0.02116827007,12835
0.0251657189,12836
0.02432043447,12837
0.02249680693,12838
0.02594521977,12839
0.0221627367,12840
0.02407382905,12841
0.02440237432,12842
0.02074335706,12843
0.0250523672,12844
0.01957324768,12845
0.0184544532,12846
0.01975902827,12847
0.01683869332,12848
0.01793048209,12849
0.01770219807,12850
0.01985109846,12851
0.03865667108,12852
0.03794422619,12853
0.03474310825,12854
0.03852308788,12855
0.03647146403,12856
0.03270167392,12857
0.03283966723,12858
0.03348597656,12859
0.03009171781,12860
0.03097202939,12861
0.02947181973,12862
0.02654240004,12863
0.02393229859,12864
0.02249918917,12865
0.01997205296,12866
0.01681894011,12867
0.01570011519,12868
0.0144870228,12869
0.01391148866,12870
0.01231430941,12871
0.01417254494,12872
0.01327908515,12873
0.01276707149,12874
0.01285044275,12875
0.01281955827,12876
0.01168099522,12877
0.01322154151,12878
0.01292144906,12879
0.01285095268,12880
0.01210360244,12881
0.01237273764,12882
0.01144301719,12883
0.0104653177,12884
0.01216462556,12885
0.01230064535,12886
0.01139537487,12887
0.01272631963,12888
0.0108179713,12889
0.01242717402,12890
0.0129559267,12891
0.01202308229,12892
0.01233349124,12893
0.01248873306,12894
0.01134405096,12895
0.01359929223,12896
0.01271825274,12897
0.0122306694,12898
0.01916659954,12899
0.0268802478,12900
0.02413072431,12901
0.02255980501,12902
0.02193590736,12903
0.04055340719,12904
0.04972914194,12905
0.048930929,12906
0.05015010055,12907
0.05226463562,12908
0.04388479932,12909
0.04158609843,12910
0.04306105064,12911
0.03603509059,12912
0.03702537205,12913
0.03501689285,12914
0.02782767506,12915
0.02679540531,12916
0.02708737702,12917
0.02155494513,12918
0.02414205678,12919
0.02917148784,12920
0.03414555638,12921
0.03649008337,12922
0.03904137953,12923
0.03664998298,12924
0.0320924647,12925
0.03200634493,12926
0.02436788271,12927
0.02034613511,12928
0.0225728499,12929
0.03811171567,12930
0.05225174175,12931
0.05128738314,12932
0.04138772919,12933
0.03487868586,12934
0.02580461041,12935
0.02474606649,12936
0.02797805481,12937
0.05584432116,12938
0.06823530602,12939
0.04603417799,12940
0.03472747348,12941
0.02693879141,12942
0.02278744618,12943
0.02449309179,12944
0.02643727568,12945
0.02029367555,12946
0.02392059862,12947
0.02803907123,12948
0.0305624455,12949
0.02988748404,12950
0.02945746544,12951
0.03731029278,12952
0.03561393448,12953
0.04097169161,12954
0.03732726183,12955
0.03844030128,12956
0.03712862446,12957
0.02992577194,12958
0.03140292849,12959
0.03363408915,12960
0.02768512122,12961
0.03045683738,12962
0.02727997833,12963
0.02607744946,12964
0.0254850715,12965
0.02234675234,12966
0.02056781043,12967
0.02135893987,12968
0.02546439185,12969
0.02937579772,12970
0.02738661757,12971
0.02430344047,12972
0.02414011645,12973
0.02625480223,12974
0.02237897044,12975
0.02360735242,12976
0.02520018536,12977
0.02416335713,12978
0.02247834645,12979
0.02250424323,12980
0.02184090707,12981
0.02151913715,12982
0.01846547196,12983
0.01793955512,12984
0.022790726,12985
0.03797165716,12986
0.03708821142,12987
0.03514484478,12988
0.03428836067,12989
0.03188697712,12990
0.03168141203,12991
0.03039118374,12992
0.02751120959,12993
0.02613029288,12994
0.0248121245,12995
0.02508894578,12996
0.02442031624,12997
0.02456985639,12998
0.02441728951,12999
0.02444622916,13000
0.02141242551,13001
0.0224859758,13002
0.0202083652,13003
0.01943546277,13004
0.01885127348,13005
0.01736101897,13006
0.01821757176,13007
0.02866099669,13008
0.023516114,13009
0.02744037164,13010
0.0341726806,13011
0.03392507551,13012
0.03323363661,13013
0.02970707117,13014
0.03263313274,13015
0.03698953254,13016
0.03292259682,13017
0.03301119855,13018
0.03039167019,13019
0.03181946715,13020
0.03276714944,13021
0.02922557391,13022
0.02675900545,13023
0.02927199548,13024
0.0262861854,13025
0.02557569322,13026
0.02803274173,13027
0.02451592571,13028
0.02531625482,13029
0.02662666312,13030
0.02136718039,13031
0.02520803187,13032
0.02382920505,13033
0.02090687995,13034
0.02263122213,13035
0.02351748709,13036
0.02062832095,13037
0.02227807,13038
0.02116089711,13039
0.02361812747,13040
0.0319790959,13041
0.02086857064,13042
0.02798086854,13043
0.02036292801,13044
0.01765801021,13045
0.01898251626,13046
0.01978716014,13047
0.01917192453,13048
0.0197850907,13049
0.01682146131,13050
0.01956978801,13051
0.02080668291,13052
0.01938808477,13053
0.0219938424,13054
0.01976802021,13055
0.01851326392,13056
0.01854666105,13057
0.0189340686,13058
0.01778430235,13059
0.01667264887,13060
0.01437120335,13061
0.01307591539,13062
0.01079018419,13063
0.01027283472,13064
0.009032137025,13065
0.008809458496,13066
0.009683947588,13067
0.01280230625,13068
0.0111204651,13069
0.01137961847,13070
0.01120073689,13071
0.01237965288,13072
0.01195781875,13073
0.01241107293,13074
0.01141710604,13075
0.01442205998,13076
0.01332580408,13077
0.01247359838,13078
0.01455859221,13079
0.01245456639,13080
0.01201041002,13081
0.01258686944,13082
0.015840954,13083
0.03386718511,13084
0.03935926095,13085
0.04198075387,13086
0.04123893165,13087
0.0406996101,13088
0.0408016155,13089
0.03863375748,13090
0.03959256172,13091
0.03192206769,13092
0.03034228741,13093
0.02657187115,13094
0.02176734538,13095
0.02100626527,13096
0.01598149248,13097
0.02018964008,13098
0.02030203321,13099
0.02055802732,13100
0.02098755841,13101
0.02018673204,13102
0.01873631037,13103
0.02106940384,13104
0.01930864919,13105
0.01993995563,13106
0.01857127263,13107
0.0166353216,13108
0.0169161276,13109
0.01527168015,13110
0.01431805312,13111
0.0135476039,13112
0.01374382771,13113
0.01297102931,13114
0.01332409231,13115
0.01339733458,13116
0.02760408775,13117
0.02795940854,13118
0.02534098631,13119
0.02695337082,13120
0.02732425746,13121
0.02317692851,13122
0.02466440868,13123
0.02445451477,13124
0.02219212495,13125
0.02198163286,13126
0.02261458124,13127
0.02014339829,13128
0.01787858493,13129
0.01655065775,13130
0.0150276747,13131
0.01213782504,13132
0.01242908081,13133
0.01143278525,13134
0.01089743757,13135
0.009589037759,13136
0.01198603119,13137
0.01262713184,13138
0.01035998695,13139
0.01076438829,13140
0.01111117405,13141
0.01078053509,13142
0.01293368467,13143
0.01193603451,13144
0.0122978713,13145
0.01131690501,13146
0.0124588347,13147
0.01162637623,13148
0.01122919592,13149
0.01157133594,13150
0.01167721344,13151
0.01021053143,13152
0.01142969768,13153
0.01025339614,13154
0.009374979037,13155
0.01085053003,13156
0.01021973746,13157
0.01030054274,13158
0.01021221123,13159
0.008954065678,13160
0.009882866525,13161
0.009159908115,13162
0.00893680788,13163
0.009654072473,13164
0.008823189133,13165
0.00902395383,13166
0.008617576637,13167
0.008347437257,13168
0.008151166241,13169
0.007905042248,13170
0.008262595201,13171
0.007508279771,13172
0.006855731246,13173
0.00720681768,13174
0.007085408165,13175
0.006699312076,13176
0.006137509749,13177
0.006367333682,13178
0.006866878523,13179
0.006211799223,13180
0.00625732471,13181
0.006816994629,13182
0.006027954244,13183
0.007323498243,13184
0.006460579358,13185
0.005729957674,13186
0.006568472684,13187
0.006862483068,13188
0.006193825786,13189
0.006725775118,13190
0.0658027123,13191
0.1252685092,13192
0.1308962649,13193
0.1273509044,13194
0.1039935103,13195
0.0943641168,13196
0.08041749123,13197
0.08107710242,13198
0.07844737147,13199
0.07705813677,13200
0.06716979981,13201
0.05653655304,13202
0.05892753536,13203
0.05855612675,13204
0.05986281232,13205
0.05996890872,13206
0.05962126673,13207
0.06036623215,13208
0.06031673432,13209
0.05982701903,13210
0.05578987404,13211
0.05508580224,13212
0.05242687309,13213
0.04997664327,13214
0.04668022788,13215
0.04577990212,13216
0.04470179136,13217
0.04641477966,13218
0.04636164883,13219
0.04352113358,13220
0.04314474189,13221
0.04079325079,13222
0.04057457647,13223
0.03690528401,13224
0.03534411642,13225
0.03608037164,13226
0.03256630227,13227
0.03109640727,13228
0.03093880868,13229
0.02982644681,13230
0.02849398241,13231
0.02935671234,13232
0.05974318628,13233
0.1093994977,13234
0.09346831144,13235
0.08949582359,13236
0.08455420361,13237
0.07723106249,13238
0.07084591302,13239
0.07098943287,13240
0.06255528544,13241
0.06677242281,13242
0.06562314285,13243
0.06916956594,13244
0.06737806996,13245
0.0728607624,13246
0.06792211926,13247
0.07539516277,13248
0.07304482822,13249
0.07163058147,13250
0.0699753113,13251
0.07143311784,13252
0.07480184078,13253
0.06629955273,13254
0.0672606897,13255
0.1038469827,13256
0.1472589404,13257
0.1216776557,13258
0.1289645198,13259
0.1245510675,13260
0.1190088989,13261
0.1296272946,13262
0.1361051133,13263
0.114879734,13264
0.1279735801,13265
0.115445716,13266
0.1159670576,13267
0.1249286955,13268
0.1091141163,13269
0.1065420923,13270
0.1055829776,13271
0.09266165208,13272
0.1171767727,13273
0.1335163413,13274
0.125993675,13275
0.1401846884,13276
0.1279470656,13277
0.1174067019,13278
0.1162034806,13279
0.103097106,13280
0.1079827794,13281
0.09622129606,13282
0.09288644036,13283
0.08625960673,13284
0.08359435366,13285
0.07967763792,13286
0.1091706569,13287
0.1958016852,13288
0.2330254163,13289
0.2366234685,13290
0.2158173887,13291
0.2082805531,13292
0.1905088104,13293
0.2008085313,13294
0.2056487187,13295
0.1944199965,13296
0.1819300391,13297
0.1691916007,13298
0.1437741417,13299
0.1612234785,13300
0.2710094812,13301
0.3005583829,13302
0.2457176058,13303
0.2307166103,13304
0.2381250518,13305
0.2189094988,13306
0.2075578925,13307
0.208600689,13308
0.1773662563,13309
0.1843537973,13310
0.1742264518,13311
0.1696981972,13312
0.1747081975,13313
0.1688269672,13314
0.1636743016,13315
0.1609801513,13316
0.1472288556,13317
0.1498604293,13318
0.1540955607,13319
0.1731536478,13320
0.1563058784,13321
0.1591585473,13322
0.1699163245,13323
0.1666122212,13324
0.1671669151,13325
0.178525666,13326
0.1611903846,13327
0.1835069283,13328
0.1772742595,13329
0.1596562354,13330
0.1788118802,13331
0.1605070323,13332
0.148658594,13333
0.1676916725,13334
0.1460274634,13335
0.1366180062,13336
0.1500024897,13337
0.1377397604,13338
0.1368229179,13339
0.1459568137,13340
0.1195362271,13341
0.2011290392,13342
0.2344189938,13343
0.1900094431,13344
0.1580439373,13345
0.1382267245,13346
0.1116064027,13347
0.101951114,13348
0.09751458881,13349
0.08125846413,13350
0.08602429796,13351
0.08726548779,13352
0.07760522135,13353
0.08215139244,13354
0.07056988642,13355
0.07068968354,13356
0.06355708513,13357
0.05778441857,13358
0.06147996969,13359
0.06605632519,13360
0.05868886136,13361
0.04852334608,13362
0.04349481658,13363
0.03891673538,13364
0.04071342597,13365
0.04344180529,13366
0.1728510749,13367
0.3172599028,13368
0.2494296274,13369
0.1861924375,13370
0.1488496262,13371
0.09630552611,13372
0.09016325777,13373
0.08223253395,13374
0.05096671826,13375
0.05752421709,13376
0.06298871064,13377
0.09293826272,13378
0.08838977617,13379
0.07066456248,13380
0.08732226474,13381
0.07467888065,13382
0.06560203303,13383
0.06585784626,13384
0.08259173321,13385
0.08055109348,13386
0.065149017,13387
0.1543659638,13388
0.2732558631,13389
0.2199605322,13390
0.1686876918,13391
0.137158039,13392
0.09651123244,13393
0.09315420514,13394
0.09937752743,13395
0.06965860362,13396
0.06148386137,13397
0.07104055262,13398
0.04916125196,13399
0.0540540745,13400
0.05604373771,13401
0.05817515422,13402
0.05698593495,13403
0.1077661978,13404
0.1522438573,13405
0.2133841161,13406
0.183344846,13407
0.1789858908,13408
0.1558809057,13409
0.1607119252,13410
0.1539072343,13411
0.1186404942,13412
0.09162743235,13413
0.08862726547,13414
0.08784200115,13415
0.1279925525,13416
0.2456139095,13417
0.2944764699,13418
0.2905804091,13419
0.2820982377,13420
0.2631890773,13421
0.2277026487,13422
0.2029780689,13423
0.1646295192,13424
0.1432682802,13425
0.1354618523,13426
0.1368207843,13427
0.2234104038,13428
0.2656158624,13429
0.2737240828,13430
0.2750474306,13431
0.2634368606,13432
0.2350738898,13433
0.2116456321,13434
0.2199993564,13435
0.2234527256,13436
0.1973549724,13437
0.1775309271,13438
0.1752069118,13439
0.1764884751,13440
0.2957102244,13441
0.3099041498,13442
0.2627362133,13443
0.302254536,13444
0.2923365452,13445
0.2556879493,13446
0.2636278536,13447
0.2643513108,13448
0.2235451127,13449
0.2287644026,13450
0.2228859842,13451
0.2144497061,13452
0.2391791881,13453
0.2469287386,13454
0.2903169409,13455
0.3363379332,13456
0.3234991255,13457
0.2829447069,13458
0.3226237692,13459
0.2783135838,13460
0.2605274008,13461
0.3128292662,13462
0.2487185282,13463
0.2544962472,13464
0.2681135651,13465
0.2133057581,13466
0.2158946302,13467
0.2191482806,13468
0.1884661114,13469
0.2134309596,13470
0.2331791956,13471
0.1938847677,13472
0.2011159838,13473
0.1683236368,13474
0.1619092369,13475
0.1476123272,13476
0.1502849039,13477
0.1567484578,13478
0.1362959349,13479
0.1215893303,13480
0.1128668826,13481
0.1155715794,13482
0.09095992186,13483
0.08947609906,13484
0.07852518769,13485
0.06919371311,13486
0.06854376592,13487
0.06305498133,13488
0.07452737379,13489
0.09492996011,13490
0.1094114787,13491
0.1058408142,13492
0.1053199371,13493
0.08844853815,13494
0.09711546292,13495
0.09855558283,13496
0.09517918629,13497
0.08007959744,13498
0.08732647232,13499
0.07753041605,13500
0.07956593842,13501
0.07369386804,13502
0.07784785754,13503
0.07339273511,13504
0.07211119803,13505
0.06252331901,13506
0.0661547473,13507
0.05618548324,13508
0.05786783375,13509
0.05652646898,13510
0.0588860717,13511
0.05565644832,13512
0.05684795087,13513
0.0500561044,13514
0.056878967,13515
0.04804751743,13516
0.05189727418,13517
0.05168858598,13518
0.07293131421,13519
0.07745135176,13520
0.08426111894,13521
0.06637039707,13522
0.0748755155,13523
0.06626621356,13524
0.06880830509,13525
0.06826615818,13526
0.06670065267,13527
0.05560609054,13528
0.05637496514,13529
0.05219093525,13530
0.04915830562,13531
0.04422063844,13532
0.04050246628,13533
0.03902722888,13534
0.03407498143,13535
0.03251403989,13536
0.03276665312,13537
0.03150746187,13538
0.02932358995,13539
0.03056125707,13540
0.02993042269,13541
0.02761552487,13542
0.02762821814,13543
0.02605901177,13544
0.02382576163,13545
0.0240576148,13546
0.0217440908,13547
0.02179972961,13548
0.02213827518,13549
0.0196994555,13550
0.0197316579,13551
0.02046048209,13552
0.01961991082,13553
0.01930449723,13554
0.02047182464,13555
0.01911150572,13556
0.02006477425,13557
0.01835671585,13558
0.01848596858,13559
0.018806545,13560
0.01834137289,13561
0.01772813996,13562
0.01812850277,13563
0.01683788592,13564
0.01775484625,13565
0.01647178384,13566
0.01581312613,13567
0.01681647073,13568
0.01487078242,13569
0.01435994303,13570
0.01388599204,13571
0.01213534001,13572
0.01267417738,13573
0.01297445276,13574
0.02144423696,13575
0.02788513463,13576
0.02662587107,13577
0.02758847351,13578
0.02797962321,13579
0.02778278238,13580
0.03217556825,13581
0.0264492222,13582
0.02511324323,13583
0.02476572629,13584
0.02397289745,13585
0.02820808046,13586
0.02578878512,13587
0.02418459104,13588
0.02154648842,13589
0.02292887464,13590
0.01882970014,13591
0.02010841779,13592
0.0178811879,13593
0.02006443044,13594
0.02050225889,13595
0.01891027371,13596
0.02249344798,13597
0.01973538354,13598
0.01864936361,13599
0.02020353685,13600
0.01774256225,13601
0.01683351329,13602
0.01476348566,13603
0.01403727905,13604
0.01410257484,13605
0.01470713923,13606
0.01311638397,13607
0.01499904081,13608
0.0143736094,13609
0.01392118896,13610
0.01496520524,13611
0.01381818673,13612
0.0130966531,13613
0.01346895498,13614
0.01274227755,13615
0.01230838822,13616
0.01293527907,13617
0.0119002001,13618
0.01239764881,13619
0.01297359444,13620
0.01240435894,13621
0.01282609341,13622
0.01180261223,13623
0.01192715993,13624
0.01149166155,13625
0.01124731977,13626
0.01016545302,13627
0.01087173571,13628
0.01049132586,13629
0.01162764922,13630
0.01112240145,13631
0.009206595813,13632
0.01093055997,13633
0.01104047499,13634
0.009706348396,13635
0.01026476265,13636
0.009600026261,13637
0.008811555375,13638
0.01012147981,13639
0.009074555349,13640
0.008807791104,13641
0.009493607145,13642
0.008432438028,13643
0.008582629722,13644
0.009953744954,13645
0.008103598672,13646
0.008683604913,13647
0.009104299001,13648
0.007713595196,13649
0.008663383886,13650
0.008164203467,13651
0.007325828519,13652
0.008197097763,13653
0.007798690601,13654
0.007318967685,13655
0.008155687485,13656
0.007076466884,13657
0.00774432977,13658
0.007361407292,13659
0.006790818895,13660
0.006422213073,13661
0.007343585888,13662
0.006072061373,13663
0.006927538942,13664
0.006456639666,13665
0.006179015085,13666
0.006266673974,13667
0.00585857525,13668
0.006850395761,13669
0.00597795073,13670
0.005134934113,13671
0.005753333384,13672
0.007262730284,13673
0.0053132369,13674
0.005262538891,13675
0.0059933166,13676
0.005466673142,13677
0.006275026557,13678
0.005592391566,13679
0.005409068211,13680
0.005802153914,13681
0.005766785241,13682
0.004249249143,13683
0.005730426532,13684
0.005805990542,13685
0.004817537325,13686
0.006145446808,13687
0.005984273584,13688
0.003680151711,13689
0.004248414104,13690
0.003448355512,13691
0.005725571182,13692
0.004100709515,13693
0.003159065426,13694
0.005266840458,13695
0.004418497127,13696
0.003850930277,13697
0.008565010147,13698
0.02098992346,13699
0.02729388496,13700
0.02717537618,13701
0.02496463953,13702
0.0285337335,13703
0.02620580527,13704
0.02342943604,13705
0.02136194531,13706
0.02494803831,13707
0.0225390982,13708
0.02715707264,13709
0.02477256081,13710
0.02445709478,13711
0.02624104664,13712
0.02250335846,13713
0.02296891831,13714
0.02343278436,13715
0.02187578733,13716
0.02288752026,13717
0.02363796918,13718
0.02333998444,13719
0.02211995941,13720
0.0237087715,13721
0.02304901483,13722
0.023846092,13723
0.02188022256,13724
0.02263772251,13725
0.02196794598,13726
0.0203964497,13727
0.02017509298,13728
0.01829001348,13729
0.01899038441,13730
0.02083372264,13731
0.01969359437,13732
0.01943653024,13733
0.01828894513,13734
0.01828445005,13735
0.01980073855,13736
0.01845417135,13737
0.01724824596,13738
0.01777776378,13739
0.0165858443,13740
0.01780059872,13741
0.03607964289,13742
0.03627003694,13743
0.03232014333,13744
0.03705034224,13745
0.03498652054,13746
0.03788842364,13747
0.03207892479,13748
0.02564604595,13749
0.02496490333,13750
0.01957754598,13751
0.02432896225,13752
0.0196528823,13753
0.02429283038,13754
0.02235392104,13755
0.02592764086,13756
0.02407415493,13757
0.02525289415,13758
0.02697132551,13759
0.02164679773,13760
0.02228301213,13761
0.02159396569,13762
0.02107464832,13763
0.0183090722,13764
0.02166388143,13765
0.0214310135,13766
0.022876763,13767
0.02330345599,13768
0.02056102607,13769
0.02238126298,13770
0.02165541216,13771
0.01959788418,13772
0.01872664358,13773
0.01729703887,13774
0.01759780979,13775
0.02004280401,13776
0.01864435962,13777
0.01831351326,13778
0.02094375928,13779
0.01984059428,13780
0.02078837374,13781
0.02137297802,13782
0.01972795199,13783
0.02093731524,13784
0.02066472304,13785
0.01929447287,13786
0.02024780634,13787
0.01824687956,13788
0.0183641968,13789
0.02051429592,13790
0.0181744342,13791
0.02003866496,13792
0.01931834493,13793
0.01749268343,13794
0.01898611614,13795
0.01970074657,13796
0.03595171899,13797
0.03839961569,13798
0.02735277506,13799
0.03669342661,13800
0.03861966928,13801
0.03723041304,13802
0.02130842682,13803
0.02850489681,13804
0.0262474591,13805
0.03049350615,13806
0.02043491854,13807
0.02879471806,13808
0.0286370052,13809
0.02666750134,13810
0.02201803893,13811
0.02386503257,13812
0.02706516349,13813
0.02635366095,13814
0.01870010887,13815
0.02104102781,13816
0.02333417986,13817
0.02417395569,13818
0.01621656557,13819
0.01892801678,13820
0.02073185185,13821
0.02277311475,13822
0.01552423468,13823
0.01790635663,13824
0.01814896011,13825
0.01958584317,13826
0.01612307765,13827
0.01454385676,13828
0.01775472571,13829
0.02026859777,13830
0.01523806201,13831
0.01397931167,13832
0.01661135597,13833
0.01508932743,13834
0.0141731083,13835
0.01202965199,13836
0.01428817159,13837
0.01705118073,13838
0.01308308079,13839
0.01140507739,13840
0.01426168767,13841
0.01425319692,13842
0.01199613962,13843
0.01061332197,13844
0.01281653377,13845
0.01369993974,13846
0.01207009647,13847
0.008976750983,13848
0.01193578786,13849
0.01112891664,13850
0.01015396656,13851
0.008596775449,13852
0.01003934072,13853
0.01253481435,13854
0.01261360764,13855
0.007378214494,13856
0.01031247457,13857
0.01217476873,13858
0.01793906345,13859
0.019004023,13860
0.01704600317,13861
0.01560697375,13862
0.01822146432,13863
0.01998415121,13864
0.01997701771,13865
0.01792548144,13866
0.01905889788,13867
0.02031926241,13868
0.0201427803,13869
0.01820142341,13870
0.01683870687,13871
0.01987107332,13872
0.01833687667,13873
0.01701483754,13874
0.01837036975,13875
0.0177105927,13876
0.01812968015,13877
0.01775910019,13878
0.01643742699,13879
0.01737235532,13880
0.01630907121,13881
0.01754789865,13882
0.01716211807,13883
0.01593210351,13884
0.01576792073,13885
0.01598128072,13886
0.01460396957,13887
0.01504812057,13888
0.01437642039,13889
0.01374060779,13890
0.01438406122,13891
0.01241973793,13892
0.01258144614,13893
0.01201286857,13894
0.01120974657,13895
0.01249246472,13896
0.01110875999,13897
0.01117647401,13898
0.01071393839,13899
0.0110995959,13900
0.01048074016,13901
0.01049667692,13902
0.01005031188,13903
0.01012953803,13904
0.01007649584,13905
0.01038957872,13906
0.009849254791,13907
0.01010742698,13908
0.01003980916,13909
0.01029564946,13910
0.009634904267,13911
0.01025730661,13912
0.009873599252,13913
0.009768083103,13914
0.009931284287,13915
0.01004408948,13916
0.009098923739,13917
0.01010090427,13918
0.00923867996,13919
0.009674050078,13920
0.00975418557,13921
0.009133361483,13922
0.009657562263,13923
0.009267553129,13924
0.007419643549,13925
0.008575991256,13926
0.007589878505,13927
0.007852900388,13928
0.008372830139,13929
0.007151845261,13930
0.006566441385,13931
0.01012343439,13932
0.01062747769,13933
0.01288318193,13934
0.0140870966,13935
0.01355543039,13936
0.01379703781,13937
0.01373538253,13938
0.01339181891,13939
0.01327367266,13940
0.01513325047,13941
0.01408202535,13942
0.01432523895,13943
0.01473323263,13944
0.01374256702,13945
0.01367850873,13946
0.0135717145,13947
0.01323903615,13948
0.01381524946,13949
0.01195390086,13950
0.01368596916,13951
0.01200790263,13952
0.01168733225,13953
0.01283694106,13954
0.01071142615,13955
0.01110813046,13956
0.01272017396,13957
0.01011872404,13958
0.01146746609,13959
0.01175716061,13960
0.01030270126,13961
0.01118004795,13962
0.01103420101,13963
0.009708890547,13964
0.01196958363,13965
0.01043509687,13966
0.009273303871,13967
0.01127546636,13968
0.009741399564,13969
0.009984862064,13970
0.01062373867,13971
0.01038065219,13972
0.009930519117,13973
0.01065247509,13974
0.009198659773,13975
0.009681161399,13976
0.009179953846,13977
0.01712420768,13978
0.01981083255,13979
0.01979506481,13980
0.01750827055,13981
0.01971307845,13982
0.0218253101,13983
0.01974829822,13984
0.02069416946,13985
0.02017297162,13986
0.02105294779,13987
0.02291259104,13988
0.02301726915,13989
0.01915858592,13990
0.02159894098,13991
0.01941686019,13992
0.01722466326,13993
0.01935245082,13994
0.01477174597,13995
0.01803174709,13996
0.01870245,13997
0.01579212219,13998
0.01797814508,13999
0.01781785607,14000
0.01670555348,14001
0.01907750397,14002
0.01819122057,14003
0.01523030053,14004
0.01801092433,14005
0.01679343764,14006
0.01387840276,14007
0.01536297302,14008
0.0134289273,14009
0.01334683025,14010
0.01262909471,14011
0.01377793072,14012
0.01426925947,14013
0.01425131568,14014
0.01562805118,14015
0.01484577858,14016
0.0158897105,14017
0.01596851116,14018
0.01777934238,14019
0.01684317211,14020
0.01572130141,14021
0.01593779861,14022
0.01409763083,14023
0.01422938584,14024
0.01131225336,14025
0.01174001895,14026
0.01136037141,14027
0.01300550404,14028
0.01151215246,14029
0.0114530352,14030
0.01427016994,14031
0.01304905329,14032
0.01699112389,14033
0.01659363165,14034
0.01919167721,14035
0.01705843107,14036
0.01549339729,14037
0.0150097886,14038
0.01314037792,14039
0.01431638966,14040
0.01250900164,14041
0.01288301433,14042
0.01349194526,14043
0.01180900106,14044
0.01360629777,14045
0.01329461019,14046
0.01270282061,14047
0.01501293858,14048
0.01474892279,14049
0.01433396393,14050
0.01386760086,14051
0.01444720363,14052
0.01403619278,14053
0.01358117365,14054
0.01223183846,14055
0.01212746296,14056
0.0125235252,14057
0.01074112836,14058
0.01117766602,14059
0.01162308726,14060
0.009585522641,14061
0.01341791248,14062
0.01192881011,14063
0.01304428681,14064
0.01142301701,14065
0.01236055556,14066
0.01303112221,14067
0.01193554539,14068
0.01110173095,14069
0.01121212323,14070
0.01071908109,14071
0.009927286619,14072
0.008763013819,14073
0.01059744785,14074
0.00900260604,14075
0.00809547114,14076
0.009746526412,14077
0.008280895827,14078
0.009435662747,14079
0.009530294813,14080
0.009015740914,14081
0.009823983784,14082
0.00965403055,14083
0.008480857705,14084
0.009546344406,14085
0.00877949126,14086
0.008226113499,14087
0.008611721744,14088
0.007848546106,14089
0.008146761048,14090
0.007764486556,14091
0.007605800266,14092
0.007978123789,14093
0.009951211797,14094
0.008318064382,14095
0.007106700125,14096
0.007955927372,14097
0.007958215891,14098
0.009140024102,14099
0.01021726161,14100
0.008305796605,14101
0.008551542876,14102
0.009238819749,14103
0.008471945272,14104
0.009223166497,14105
0.008072076987,14106
0.008705815419,14107
0.009001632908,14108
0.008949717383,14109
0.008142361737,14110
0.008925978435,14111
0.008777177929,14112
0.009227102161,14113
0.0101819384,14114
0.008803904357,14115
0.008910422121,14116
0.0101702012,14117
0.009505431079,14118
0.009937304316,14119
0.007980449477,14120
0.008669156678,14121
0.009022069829,14122
0.007974735488,14123
0.007889820877,14124
0.008142370226,14125
0.007397123795,14126
0.008782024575,14127
0.007531947803,14128
0.007343348342,14129
0.007937061281,14130
0.007746266233,14131
0.007507056235,14132
0.008091117681,14133
0.006663373702,14134
0.00739848881,14135
0.007829611891,14136
0.008325249162,14137
0.008796412012,14138
0.007273366346,14139
0.006583771716,14140
0.007195382784,14141
0.006672793428,14142
0.00671337787,14143
0.007612026114,14144
0.007269524463,14145
0.006523410194,14146
0.008132122095,14147
0.006068870745,14148
0.007082732732,14149
0.007657931364,14150
0.006550233298,14151
0.007535077758,14152
0.007546147846,14153
0.006497421962,14154
0.008613970442,14155
0.006676847227,14156
0.00727577443,14157
0.008135772285,14158
0.007232199098,14159
0.006965456106,14160
0.008803090166,14161
0.007120209343,14162
0.007226949885,14163
0.007930580957,14164
0.006831659262,14165
0.008077943248,14166
0.007669490714,14167
0.006993328551,14168
0.008145385876,14169
0.007431205536,14170
0.007235583288,14171
0.008267410405,14172
0.008177747977,14173
0.007014015849,14174
0.007798216403,14175
0.006744952065,14176
0.006866497728,14177
0.007326009775,14178
0.006611129411,14179
0.006964279421,14180
0.007256273681,14181
0.007669575384,14182
0.008457726258,14183
0.007156432946,14184
0.006846367939,14185
0.007972819154,14186
0.007842191071,14187
0.007226717314,14188
0.007815994472,14189
0.007190019793,14190
0.00708474489,14191
0.007942418083,14192
0.007228872707,14193
0.007617755118,14194
0.00689959173,14195
0.006761688505,14196
0.007232302091,14197
0.006870915633,14198
0.007222981699,14199
0.007680568849,14200
0.007904725962,14201
0.009479235159,14202
0.007281250507,14203
0.007383657709,14204
0.007655318681,14205
0.006865271758,14206
0.007852854988,14207
0.007262928391,14208
0.007148859976,14209
0.00742836166,14210
0.007630420854,14211
0.006633623773,14212
0.006821822571,14213
0.007015917305,14214
0.008855519504,14215
0.007600735242,14216
0.007051128542,14217
0.007542943628,14218
0.006953625229,14219
0.00766460875,14220
0.006538591137,14221
0.007242455427,14222
0.0072067566,14223
0.006697958554,14224
0.007185051667,14225
0.00841266921,14226
0.007046346195,14227
0.008192479142,14228
0.007329221596,14229
0.00733486807,14230
0.007887536498,14231
0.007259556948,14232
0.007374440184,14233
0.008506077793,14234
0.007142697086,14235
0.007670391796,14236
0.008371384765,14237
0.006636529188,14238
0.009408152724,14239
0.008580761069,14240
0.00692805278,14241
0.008783512549,14242
0.007812031181,14243
0.007116209498,14244
0.008473653848,14245
0.007124485368,14246
0.00767119757,14247
0.008449442607,14248
0.00681775479,14249
0.008197905463,14250
0.008032742099,14251
0.006899155529,14252
0.008260865322,14253
0.007471574685,14254
0.007104800563,14255
0.008376229071,14256
0.00719630873,14257
0.007045830657,14258
0.008681256391,14259
0.007038939436,14260
0.007955453059,14261
0.007385141716,14262
0.006714217356,14263
0.007950802394,14264
0.007333942753,14265
0.007431556171,14266
0.007958802944,14267
0.007186997214,14268
0.007310974295,14269
0.008093844317,14270
0.007183015061,14271
0.007412401585,14272
0.00778664211,14273
0.007316807633,14274
0.007678627427,14275
0.006764148461,14276
0.006811977016,14277
0.007855700214,14278
0.00664941537,14279
0.007208414681,14280
0.007292463335,14281
0.006783851896,14282
0.006911877493,14283
0.007775359514,14284
0.006518578892,14285
0.006614317108,14286
0.00634896842,14287
0.006977534788,14288
0.006885084074,14289
0.005809309584,14290
0.006269908421,14291
0.006403728959,14292
0.005822709752,14293
0.006754541732,14294
0.006740179034,14295
0.005574313425,14296
0.005841342303,14297
0.006189270342,14298
0.005842869983,14299
0.006352034106,14300
0.005766012555,14301
0.006169774744,14302
0.005995145382,14303
0.006167804867,14304
0.005797631446,14305
0.00620775981,14306
0.005583918428,14307
0.00510068801,14308
0.007175801591,14309
0.006432288302,14310
0.005528948707,14311
0.00555009284,14312
0.006558805515,14313
0.005315519374,14314
0.005410394021,14315
0.006280035527,14316
0.005906383838,14317
0.00647112712,14318
0.007102002325,14319
0.006328639386,14320
0.005141288578,14321
0.004846839717,14322
0.006906346106,14323
0.006804390795,14324
0.005870797248,14325
0.004735620559,14326
0.004476879816,14327
0.004898167101,14328
0.00446698464,14329
0.004836104744,14330
0.004980916882,14331
0.004317162392,14332
0.007077266257,14333
0.005474543802,14334
0.004415940703,14335
0.00482728819,14336
0.004783282617,14337
0.004376279576,14338
0.004192583982,14339
0.003855816714,14340
0.004813380112,14341
0.003518963634,14342
0.003442533121,14343
0.003257833542,14344
0.003212501727,14345
0.00387399951,14346
0.003257813442,14347
0.0041277587,14348
0.003944630081,14349
0.002910414335,14350
0.005244654366,14351
0.002800210286,14352
0.003187000925,14353
0.00390773541,14354
0.003897995581,14355
0.002990877746,14356
0.002618758416,14357
0.00200797254,14358
0.002163237343,14359
0.001512736105,14360
0.002172041358,14361
0.002553198994,14362
0.001732335155,14363
0.00345801597,14364
0.004175292241,14365
0.002117295304,14366
0.001625657532,14367
0.001660247561,14368
0.001842269232,14369
0.001447552586,14370
0.001191241914,14371
0.004271219703,14372
0.002244814834,14373
0.003676884617,14374
0.002419212915,14375
0.001683421841,14376
0.001903907055,14377
0.003969515806,14378
0.002190526173,14379
0.002561540454,14380
0.002332693616,14381
0.003012617467,14382
0.003402095149,14383
0.002260944391,14384
0.003675574888,14385
0.001097328186,14386
0.00223642707,14387
0.003543531149,14388
0.003051391222,14389
0.002845109233,14390
0.00202475636,14391
0.002532570447,14392
0.003156692528,14393
0.003041728348,14394
0.002365845136,14395
0.003825197313,14396
0.002600051315,14397
0.003706010542,14398
0.001990096432,14399
0.00287656789,14400
0.002242633643,14401
0.002454814006,14402
0.001941568956,14403
0.00183554734,14404
0.002096310213,14405
0.002401615141,14406
0.003115147338,14407
0.003635403992,14408
0.001973474097,14409
0.002293196306,14410
0.003646235284,14411
0.002726513007,14412
0.002767749191,14413
0.002566186432,14414
0.004724621916,14415
0.004281509983,14416
0.00222315168,14417
0.001534548212,14418
0.001768032965,14419
0.001917870586,14420
0.002558326942,14421
0.003817587473,14422
0.002604977761,14423
0.002056895325,14424
0.001991680257,14425
0.001752261268,14426
0.002096761374,14427
0.002016603819,14428
0.001954134758,14429
0.001581639455,14430
0.002210531488,14431
0.004379372978,14432
0.004765079506,14433
0.00281179321,14434
0.003746645464,14435
0.003221041745,14436
0.002237912561,14437
0.003187874627,14438
0.002869809962,14439
0.00309424243,14440
0.003542943341,14441
0.00407985105,14442
0.002269970057,14443
0.005162750771,14444
0.001413400034,14445
0.002352230307,14446
0.002383458599,14447
0.003434629949,14448
0.002144548706,14449
0.002890893139,14450
0.002215920916,14451
0.00174276721,14452
0.001523523898,14453
0.001236340088,14454
0.001998192811,14455
0.00176165615,14456
0.002541493922,14457
0.003735357377,14458
0.001037224183,14459
0.002887121374,14460
0.002218677745,14461
0.002574894163,14462
0.001819456142,14463
0.002121271397,14464
0.002616548656,14465
0.002336266564,14466
0.002063169856,14467
0.003452086574,14468
0.004067510065,14469
0.003126723019,14470
0.001045443693,14471
0.002395729728,14472
0.001058058568,14473
0.001009718192,14474
0.002431686245,14475
7.462256248E-4,14476
0.00224460617,14477
0.002693770562,14478
0.002350517588,14479
0.003249885042,14480
0.002362315385,14481
0.001959945274,14482
0.002274715766,14483
0.001071230569,14484
0.003089029871,14485
0.001756052392,14486
0.00218961297,14487
0.001932356447,14488
0.001275159922,14489
0.002690298512,14490
0.001436893215,14491
7.143167054E-4,14492
0.001904797278,14493
0.003193862547,14494
0.001932961629,14495
0.001529488467,14496
0.001106190679,14497
0.003235052492,14498
0.001269628878,14499
8.423292971E-4,14500
0.001300585215,14501
0.002135014188,14502
0.002053602512,14503
8.225129992E-4,14504
7.790380976E-4,14505
0.001632160029,14506
0.001723645959,14507
0.001270193949,14508
0.002470909605,14509
0.002444308389,14510
0.001489279016,14511
0.002203291917,14512
0.00106859537,14513
0.001474891169,14514
0.00191207919,14515
0.002640719533,14516
0.001168377539,14517
9.552370619E-4,14518
0.001476751053,14519
9.429567833E-4,14520
0.002652610782,14521
0.004007801536,14522
0.00231499446,14523
0.003266201852,14524
0.002587880967,14525
0.002502820812,14526
0.003322200554,14527
0.003527566657,14528
0.00158903148,14529
0.001699799203,14530
0.00446505956,14531
0.002888653214,14532
0.00219798573,14533
0.00289430241,14534
0.003711286063,14535
0.00135404626,14536
0.003693394345,14537
0.002681395047,14538
0.00422795996,14539
0.005558078388,14540
0.003134734586,14541
0.002055061718,14542
0.001939102027,14543
0.003365751357,14544
0.004291161415,14545
0.004542798551,14546
0.00123588759,14547
7.830148187E-4,14548
8.378190347E-4,14549
0.003371877893,14550
0.003843426288,14551
0.002627018768,14552
0.002778363137,14553
0.003009473097,14554
0.002029236986,14555
0.001719545404,14556
0.002765530551,14557
0.004372137559,14558
0.002354596587,14559
0.001337786512,14560
0.002141960582,14561
0.002123126215,14562
0.001726596732,14563
0.001325486541,14564
0.001638835968,14565
0.002209975155,14566
7.778171466E-4,14567
0.001816709773,14568
0.001919425875,14569
0.001702510864,14570
0.002713954031,14571
0.002035070381,14572
0.002624598352,14573
0.001798348086,14574
0.001601394396,14575
0.003370833878,14576
0.002226880377,14577
0.003003203251,14578
0.004396520312,14579
0.002208090318,14580
0.001185445946,14581
0.001042026122,14582
0.001604712834,14583
0.001225186846,14584
0.001868224375,14585
0.001600262661,14586
0.001987843924,14587
0.001363109223,14588
0.001469911932,14589
0.001415742933,14590
0.002104046324,14591
0.002026908171,14592
0.002813009146,14593
0.002392927927,14594
0.003772755846,14595
0.001881464805,14596
0.002527474086,14597
0.001545512133,14598
0.001208824988,14599
0.001586762178,14600
0.004334318308,14601
0.001452837608,14602
0.004423934903,14603
0.003299764401,14604
0.002133025592,14605
7.05609442E-4,14606
0.001504708291,14607
0.001467054904,14608
0.002322703508,14609
0.002808534107,14610
0.001711749497,14611
0.001586887126,14612
0.001388196717,14613
0.003007282481,14614
0.001713084726,14615
0.001811970159,14616
7.189376162E-4,14617
0.002208715482,14618
0.002811684202,14619
0.001506634594,14620
0.001885687375,14621
0.003057087179,14622
0.002338332802,14623
0.00173986634,14624
0.002619039367,14625
0.003949754754,14626
0.003104476361,14627
0.004157293764,14628
0.005169468143,14629
0.001124293443,14630
0.003984894096,14631
0.002469059674,14632
0.002008328068,14633
0.001891872082,14634
0.002150874946,14635
0.001701402022,14636
0.002072298521,14637
0.003208993482,14638
0.002018894516,14639
0.005610674712,14640
0.002527024602,14641
6.927812144E-4,14642
0.00357497891,14643
0.005358761921,14644
0.001564375908,14645
0.002904901047,14646
0.002347791606,14647
0.001658767275,14648
0.001351597764,14649
0.001787310853,14650
0.001125666198,14651
0.002155797193,14652
0.001940809946,14653
0.002497301405,14654
8.913462805E-4,14655
0.001442594361,14656
0.003253658088,14657
0.002886310719,14658
0.001681460615,14659
0.001228747091,14660
0.001488998681,14661
0.002888616377,14662
0.004238411708,14663
0.003024986382,14664
0.003598170352,14665
0.001639125633,14666
0.00156691099,14667
0.002330994245,14668
0.001248678381,14669
0.002012735011,14670
0.001627664205,14671
0.001101627177,14672
0.001201834737,14673
0.002064752688,14674
0.001846280472,14675
0.001136414098,14676
0.001756867409,14677
0.00200700437,14678
0.00125583374,14679
0.001360997836,14680
0.00258117129,14681
0.001404967814,14682
0.002406970444,14683
0.001728438342,14684
0.001843482302,14685
0.001246238156,14686
0.002478470199,14687
0.004229843297,14688
0.00147314748,14689
0.001823907054,14690
0.001672207475,14691
0.001098951486,14692
0.001019571958,14693
0.001254827401,14694
6.187766451E-4,14695
0.001189176425,14696
0.004996332419,14697
0.004596701697,14698
0.003584738834,14699
0.003943933943,14700
0.003235940765,14701
0.0029539415,14702
0.001440992109,14703
0.002672108983,14704
0.00199966971,14705
0.002674561895,14706
0.002163645965,14707
0.003434629419,14708
0.003579485663,14709
0.004377661593,14710
0.002643443457,14711
0.001662558245,14712
0.001877674053,14713
0.002386826769,14714
0.004777469158,14715
0.00344209691,14716
0.003568881204,14717
0.004349615823,14718
0.002638389938,14719
0.001671191727,14720
