@RELATION 'Music feature'
%rows=1
%columns=14720
%sample_rate=22050
%window_size=512
%step_size=512

@ATTRIBUTE 'Angles in phase domain' NUMERIC
@ATTRIBUTE WindowNumber NUMERIC

@DATA
0.0,1
0.0493767,2
1.0395613,3
1.1486135,4
1.0298344,5
1.1007024,6
1.1056085,7
1.0380578,8
1.1279713,9
0.9822758,10
1.0861045,11
1.0221313,12
1.0121832,13
1.0838012,14
0.9919325,15
1.088494,16
1.0752367,17
1.124948,18
1.166815,19
2.4805572,20
2.8597713,21
2.8618495,22
2.859865,23
2.8378508,24
2.8180952,25
2.7952104,26
2.8216977,27
2.7364216,28
2.7537434,29
2.7092044,30
2.6172295,31
2.5529284,32
2.6300066,33
2.5995998,34
2.4979446,35
2.6177492,36
2.3953297,37
2.3342736,38
2.8397658,39
2.8402407,40
2.8397918,41
2.8395834,42
2.8386233,43
2.8375103,44
2.8357515,45
2.7445846,46
2.5341723,47
2.56073,48
2.7263908,49
2.7747085,50
2.7821324,51
2.7962687,52
2.8232799,53
2.8231323,54
2.825217,55
2.8251147,56
2.8159285,57
2.8188589,58
2.818281,59
2.8182569,60
2.8103857,61
2.8339555,62
2.8867278,63
2.8877983,64
2.8795023,65
2.8736076,66
2.8716142,67
2.835046,68
2.7355669,69
2.7049432,70
2.7107282,71
2.8370445,72
2.8414369,73
2.8603294,74
2.8707254,75
2.8707101,76
2.875505,77
2.8735325,78
2.8710127,79
2.8667886,80
2.8741057,81
2.8503618,82
2.869145,83
2.8256388,84
2.8736527,85
2.9236374,86
2.930122,87
2.922283,88
2.9224913,89
2.8736804,90
2.793603,91
2.8804872,92
2.890771,93
2.8264532,94
2.9075685,95
2.8926766,96
2.82829,97
2.8643394,98
2.9251714,99
2.936299,100
2.9328897,101
2.9343562,102
2.940062,103
2.9391077,104
2.936962,105
2.9406877,106
2.9343905,107
2.9170625,108
2.9332552,109
2.920018,110
2.915805,111
2.9275622,112
2.9135695,113
2.9087887,114
2.8268404,115
2.8268797,116
2.804268,117
2.8472235,118
2.8698685,119
2.9200537,120
2.8897772,121
2.886152,122
2.863427,123
2.808734,124
2.8625672,125
2.8334138,126
2.924716,127
2.937444,128
2.9328575,129
2.9365127,130
2.9408386,131
2.933605,132
2.9406698,133
2.940598,134
2.9344473,135
2.896615,136
2.919184,137
2.887581,138
2.8598924,139
2.8354886,140
2.8260512,141
2.8083887,142
2.788717,143
2.826629,144
2.8130462,145
2.8665853,146
2.8691008,147
2.881645,148
2.9049942,149
2.8394816,150
2.7932475,151
2.8372583,152
2.9143584,153
2.9012735,154
2.882434,155
2.9249363,156
2.9339297,157
2.9265208,158
2.9160304,159
2.8705165,160
2.8284237,161
2.72717,162
2.8113186,163
2.7736635,164
2.7381275,165
2.7473686,166
2.7694676,167
2.7542918,168
2.7850876,169
2.828928,170
2.8423634,171
2.8791783,172
2.8604052,173
2.8936155,174
2.8316715,175
2.8811877,176
2.9049811,177
2.9226003,178
2.923841,179
2.9280992,180
2.9282775,181
2.9403775,182
2.9395459,183
2.9333675,184
2.9265215,185
2.9249032,186
2.9234495,187
2.8925614,188
2.9096854,189
2.8769882,190
2.806321,191
2.760837,192
2.756481,193
2.7358394,194
2.7803597,195
2.7446845,196
2.7540195,197
2.7028039,198
2.7859356,199
2.773758,200
2.7619076,201
2.768086,202
2.8033583,203
2.8137026,204
2.9198132,205
2.9246619,206
2.918496,207
2.9103944,208
2.8935347,209
2.8729336,210
2.9186857,211
2.9142501,212
2.9011986,213
2.924558,214
2.8958158,215
2.9158473,216
2.8897684,217
2.8945694,218
2.8842473,219
2.916514,220
2.930116,221
2.9352257,222
2.9366307,223
2.9336214,224
2.9378166,225
2.9347095,226
2.9353058,227
2.9290981,228
2.903691,229
2.8589926,230
2.7745879,231
2.8408587,232
2.8945003,233
2.9114244,234
2.9069674,235
2.9171164,236
2.876368,237
2.8976774,238
2.872349,239
2.8737347,240
2.8123305,241
2.8637774,242
2.9634194,243
2.939917,244
2.938992,245
2.9742303,246
2.9770734,247
2.9771566,248
2.967626,249
2.9243038,250
2.9384391,251
2.9428277,252
2.9253373,253
2.898862,254
2.9492388,255
2.9488454,256
2.9444656,257
2.970876,258
2.923226,259
2.9691818,260
2.8699577,261
2.895836,262
2.9406521,263
2.9391341,264
2.9260235,265
2.9129183,266
2.9383974,267
2.9434547,268
2.9358118,269
2.9662335,270
2.9711096,271
2.9258425,272
2.9488215,273
2.9591384,274
2.9314,275
2.9255035,276
2.9258907,277
2.9301953,278
2.9329703,279
2.8458858,280
2.833126,281
2.8082435,282
2.7584584,283
2.8662527,284
2.8022902,285
2.816888,286
2.8841827,287
2.9802723,288
2.9759407,289
3.010035,290
2.9844441,291
2.9750152,292
2.9981654,293
2.9690382,294
2.9336135,295
2.9737446,296
2.9433684,297
2.9350624,298
2.8433547,299
2.9267201,300
2.8944087,301
2.905705,302
2.8829067,303
2.8730335,304
2.921838,305
2.9087636,306
2.8882196,307
2.9159784,308
2.8971012,309
2.8784337,310
2.8464043,311
2.8588288,312
2.8993373,313
2.8630793,314
2.8889647,315
2.9663835,316
2.9347882,317
2.9433117,318
2.9724002,319
2.9293823,320
2.931207,321
2.9459565,322
2.9670558,323
2.9546063,324
2.9100127,325
2.9692938,326
2.948635,327
2.9409158,328
2.9309614,329
2.8990493,330
2.9131312,331
2.884182,332
2.8861392,333
2.946576,334
2.8951514,335
2.8665516,336
2.8926606,337
2.8543797,338
2.851654,339
2.8866236,340
2.893497,341
2.8865805,342
2.8924725,343
2.8852975,344
2.8825471,345
2.7951708,346
2.9041882,347
2.8838737,348
2.8649302,349
2.8694258,350
2.8489683,351
2.8101997,352
2.8266845,353
2.881799,354
2.8916461,355
2.9091063,356
2.8287177,357
2.87104,358
2.8706,359
2.8758175,360
2.8730836,361
2.8738062,362
2.8662841,363
2.8729715,364
2.8563912,365
2.87627,366
2.8735116,367
2.866588,368
2.8640058,369
2.8875294,370
2.8748348,371
2.8670416,372
2.8430645,373
2.8395495,374
2.8399749,375
2.8409169,376
2.840368,377
2.8442762,378
2.844407,379
2.8437755,380
2.8382218,381
2.8212466,382
2.7657619,383
2.8065848,384
2.8218665,385
2.8211107,386
2.8252244,387
2.8344252,388
2.866736,389
2.8837776,390
2.87072,391
2.8619199,392
2.8268316,393
2.846153,394
2.8465538,395
2.8624382,396
2.8727794,397
2.8720026,398
2.8694196,399
2.8469303,400
2.8761237,401
2.8656836,402
2.845874,403
2.8391438,404
2.771337,405
2.7532177,406
2.821237,407
2.8469472,408
2.834668,409
2.821264,410
2.8160079,411
2.8313184,412
2.8225334,413
2.8347404,414
2.827076,415
2.812526,416
2.8534915,417
2.8195555,418
2.83942,419
2.8393116,420
2.8400846,421
2.8438761,422
2.8436837,423
2.8263912,424
2.8108342,425
2.8571677,426
2.8181317,427
2.8096657,428
2.7888565,429
2.7184923,430
2.7380302,431
2.7829585,432
2.8542867,433
2.8304608,434
2.8145754,435
2.7005417,436
2.7173512,437
2.766142,438
2.7346795,439
2.7618835,440
2.8799672,441
2.879699,442
2.864968,443
2.9034321,444
2.9175277,445
2.9053535,446
2.8259053,447
2.8226566,448
2.869598,449
2.8587527,450
2.8477085,451
2.7727263,452
2.6511476,453
2.5653737,454
2.6029475,455
2.647081,456
2.6696653,457
2.635183,458
2.6285403,459
2.7211897,460
2.7057564,461
2.7505069,462
2.7587905,463
2.7704685,464
2.7980006,465
2.8008978,466
2.7806897,467
2.8094363,468
2.8606586,469
2.8589847,470
2.8417447,471
2.8552992,472
2.8081934,473
2.8137226,474
2.8518023,475
2.807494,476
2.8154268,477
2.878819,478
2.8669908,479
2.8514762,480
2.8348892,481
2.840306,482
2.8368056,483
2.8016768,484
2.8295588,485
2.76858,486
2.835576,487
2.8788538,488
2.8790662,489
2.887651,490
2.8809896,491
2.868853,492
2.8800614,493
2.9125633,494
2.9132013,495
2.9094782,496
2.9100025,497
2.9142196,498
2.8818603,499
2.831883,500
2.8706987,501
2.8670242,502
2.8438737,503
2.8207824,504
2.8364327,505
2.897357,506
2.8963742,507
2.8798156,508
2.9162962,509
2.866727,510
2.8201385,511
2.8061354,512
2.8559053,513
2.793658,514
2.7198627,515
2.8256254,516
2.8261967,517
2.802008,518
2.8710756,519
2.8250916,520
2.819035,521
2.8549838,522
2.789852,523
2.7664065,524
2.8001685,525
2.8580499,526
2.7524443,527
2.9029462,528
2.8666062,529
2.869504,530
2.8928633,531
2.9623518,532
2.8635976,533
2.874402,534
2.9389286,535
2.9132595,536
2.8808906,537
2.8712072,538
2.947642,539
2.9013505,540
2.792835,541
2.8826723,542
2.8985307,543
2.8664622,544
2.9153051,545
2.8917315,546
2.884658,547
2.8965788,548
2.8846645,549
2.93327,550
2.9123704,551
2.8862276,552
2.9140577,553
2.9115362,554
2.8927984,555
2.9172273,556
2.9038255,557
2.9079945,558
2.8862257,559
2.918104,560
2.9160404,561
2.914851,562
2.934342,563
2.9057643,564
2.8978043,565
2.8618374,566
2.8490105,567
2.8512723,568
2.8493147,569
2.8412302,570
2.8264916,571
2.854061,572
2.8687203,573
2.8354473,574
2.9273987,575
2.925125,576
2.9362454,577
2.917702,578
2.9167697,579
2.9155972,580
2.8900738,581
2.8524308,582
2.8576863,583
2.9179697,584
2.9417603,585
2.8981924,586
2.9432225,587
2.9024956,588
2.9322846,589
2.925096,590
2.9072478,591
2.917506,592
2.924711,593
2.952779,594
2.9486766,595
2.965847,596
2.961232,597
2.9572172,598
2.9419,599
2.9401846,600
2.9345474,601
2.9100096,602
2.8758953,603
2.921116,604
2.9025424,605
2.820617,606
2.8581254,607
2.8682387,608
2.820456,609
2.8396518,610
2.8581388,611
2.8550136,612
2.8045945,613
2.9059453,614
2.8831449,615
2.9100337,616
2.9764009,617
2.9843602,618
2.953598,619
2.9734616,620
2.9781103,621
2.985547,622
2.9557104,623
2.9672375,624
2.9563456,625
2.9308734,626
2.9428468,627
2.9272375,628
2.8420603,629
2.8133345,630
2.8600633,631
2.8330607,632
2.8890288,633
2.848779,634
2.8016427,635
2.8955355,636
2.9031308,637
2.844341,638
2.8451786,639
2.843302,640
2.7780335,641
2.8307738,642
2.9105499,643
2.9721556,644
2.9571166,645
2.9401364,646
2.9473996,647
2.9775667,648
2.947542,649
2.9356782,650
2.9667513,651
2.9095478,652
2.9681087,653
2.928591,654
2.908272,655
2.9166803,656
2.9554985,657
2.858573,658
2.9199526,659
2.853042,660
2.8736818,661
2.8407109,662
2.869763,663
2.8535914,664
2.842722,665
2.8559098,666
2.8823135,667
2.8760011,668
2.8935246,669
2.8915505,670
2.9028122,671
2.8600843,672
2.8391495,673
2.885488,674
2.8826222,675
2.7648346,676
2.8207781,677
2.7473333,678
2.7935035,679
2.7831411,680
2.7058804,681
2.7747126,682
2.763501,683
2.6894584,684
2.762442,685
2.7728336,686
2.7881851,687
2.8564005,688
2.8884006,689
2.8755474,690
2.872103,691
2.87503,692
2.8727794,693
2.8657405,694
2.8656473,695
2.8619428,696
2.8613226,697
2.849286,698
2.8560288,699
2.8632627,700
2.8512425,701
2.80564,702
2.84618,703
2.814346,704
2.837421,705
2.8307426,706
2.898367,707
2.8449917,708
2.874007,709
2.872804,710
2.8654127,711
2.8399308,712
2.8599942,713
2.8725958,714
2.8386183,715
2.8560042,716
2.82393,717
2.7983506,718
2.8745031,719
2.8726807,720
2.871357,721
2.8631337,722
2.8595047,723
2.867908,724
2.868036,725
2.8568192,726
2.8627625,727
2.8722432,728
2.8735209,729
2.8381338,730
2.8741314,731
2.8463137,732
2.786066,733
2.8328745,734
2.8176427,735
2.7889776,736
2.7998254,737
2.8223245,738
2.7832243,739
2.8381884,740
2.8370206,741
2.8628747,742
2.8418076,743
2.828219,744
2.7974288,745
2.808544,746
2.7696497,747
2.858738,748
2.7943447,749
2.8094485,750
2.8430011,751
2.8212306,752
2.8552022,753
2.8180761,754
2.8041232,755
2.7610462,756
2.8121088,757
2.8074045,758
2.7879167,759
2.7942696,760
2.7673051,761
2.7761269,762
2.770091,763
2.80812,764
2.86192,765
2.8719258,766
2.7730446,767
2.8108683,768
2.8697846,769
2.8917134,770
2.8960063,771
2.8958719,772
2.8989725,773
2.904767,774
2.9052663,775
2.905652,776
2.900693,777
2.9001544,778
2.9002643,779
2.9055815,780
2.9042523,781
2.90277,782
2.900092,783
2.8980992,784
2.8961723,785
2.8863642,786
2.871985,787
2.8073993,788
2.8420599,789
2.8024964,790
2.8334608,791
2.807689,792
2.8449526,793
2.7833536,794
2.8033333,795
2.84994,796
2.858015,797
2.8311286,798
2.8117883,799
2.782363,800
2.8379216,801
2.9065423,802
2.9626303,803
2.9638913,804
2.9104059,805
2.9280682,806
2.93173,807
2.927251,808
2.9564734,809
2.9256036,810
2.9287012,811
2.9252515,812
2.8960032,813
2.8646362,814
2.8990986,815
2.8772724,816
2.8975763,817
2.9114456,818
2.90109,819
2.8360047,820
2.9121141,821
2.9064045,822
2.9294033,823
2.9629238,824
2.9342377,825
2.94173,826
2.913452,827
2.931448,828
2.9535325,829
2.9409328,830
2.9081573,831
2.9498374,832
2.9249995,833
2.923626,834
2.9298751,835
2.8911126,836
2.912637,837
2.9285164,838
2.9121478,839
2.899417,840
2.9169118,841
2.9132347,842
2.9350905,843
2.9089572,844
2.9000745,845
2.9168725,846
2.9078207,847
2.9184246,848
2.9604754,849
2.9608848,850
2.9398713,851
2.9020023,852
2.9095347,853
2.8891206,854
2.8893483,855
2.8941414,856
2.9217014,857
2.8623064,858
2.8848915,859
2.91177,860
2.904263,861
2.8977551,862
2.9173722,863
2.9442222,864
2.9469464,865
2.9036992,866
2.9339023,867
2.9113064,868
2.9420867,869
2.9078991,870
2.9115524,871
2.922522,872
2.9095633,873
2.8962817,874
2.9108913,875
2.9090497,876
2.906952,877
2.8862314,878
2.939876,879
2.9489815,880
2.96012,881
2.9253004,882
2.920237,883
2.972533,884
2.9577625,885
2.961923,886
2.9811478,887
2.9794507,888
2.9486535,889
2.9825416,890
2.9852912,891
2.9400654,892
2.9903433,893
2.9852242,894
2.9828618,895
2.9880483,896
2.9853766,897
2.9752839,898
2.9843347,899
2.9812872,900
2.959722,901
2.9436805,902
2.9706028,903
2.977451,904
2.9782557,905
2.959778,906
2.9486616,907
2.9497337,908
2.9650204,909
2.9158814,910
2.9455342,911
2.932579,912
2.9375434,913
2.9033995,914
2.9089067,915
2.9311776,916
2.929056,917
2.921013,918
2.9330628,919
2.9301958,920
2.9112122,921
2.9218543,922
2.911501,923
2.8970106,924
2.9180357,925
2.861182,926
2.9135015,927
2.9132454,928
2.90005,929
2.8760166,930
2.9086068,931
2.8363926,932
2.8802187,933
2.899619,934
2.883353,935
2.853466,936
2.9275577,937
2.937514,938
2.933441,939
2.9375846,940
2.9427428,941
2.9368804,942
2.939153,943
2.942901,944
2.9355605,945
2.936257,946
2.9319956,947
2.9239798,948
2.930368,949
2.926911,950
2.9098554,951
2.832346,952
2.8496227,953
2.855489,954
2.8268247,955
2.8472662,956
2.8661673,957
2.9007823,958
2.8503916,959
2.8181,960
2.8330956,961
2.8572154,962
2.8472135,963
2.8577862,964
2.862787,965
2.8096013,966
2.83543,967
2.9290714,968
2.9223816,969
2.886265,970
2.8988001,971
2.909388,972
2.9078834,973
2.849268,974
2.8967106,975
2.917946,976
2.885388,977
2.8980715,978
2.783413,979
2.87808,980
2.8960268,981
2.8326547,982
2.8728416,983
2.8089125,984
2.8271546,985
2.8662844,986
2.8939939,987
2.8164396,988
2.8224494,989
2.9106634,990
2.956422,991
3.0078444,992
3.0149968,993
3.021318,994
3.014665,995
2.989324,996
2.9981403,997
3.0127404,998
2.9701324,999
2.9578035,1000
2.9309084,1001
2.9028802,1002
2.9188666,1003
2.9118655,1004
2.9175146,1005
2.9052577,1006
2.9620988,1007
2.954705,1008
2.954259,1009
2.989052,1010
2.9636712,1011
2.951342,1012
2.9587934,1013
2.9230013,1014
2.9497151,1015
2.9095006,1016
2.8920572,1017
2.860118,1018
2.8380747,1019
2.8803513,1020
2.8491027,1021
2.7342672,1022
2.8003426,1023
2.818477,1024
2.8295197,1025
2.7730014,1026
2.7607532,1027
2.8367276,1028
2.8760722,1029
2.8474731,1030
2.8807151,1031
2.9263682,1032
2.8609078,1033
2.9138377,1034
2.812757,1035
2.7749166,1036
2.8082044,1037
2.916958,1038
2.933411,1039
2.9131935,1040
2.9177897,1041
2.9138417,1042
2.9338703,1043
2.8857634,1044
2.887578,1045
2.8797,1046
2.8416631,1047
2.838167,1048
2.8145998,1049
2.80066,1050
2.8346753,1051
2.7458189,1052
2.8184843,1053
2.8032331,1054
2.8287635,1055
2.714496,1056
2.7669034,1057
2.902223,1058
2.8979874,1059
2.9062316,1060
2.8888826,1061
2.9202144,1062
2.9217765,1063
2.918075,1064
2.891358,1065
2.8404326,1066
2.768018,1067
2.7337837,1068
2.7850535,1069
2.7561073,1070
2.7428377,1071
2.6383362,1072
2.727256,1073
2.794796,1074
2.8490658,1075
2.8109517,1076
2.8948143,1077
2.8422425,1078
2.8574092,1079
2.7595916,1080
2.7671318,1081
2.7316067,1082
2.7125602,1083
2.7398467,1084
2.7098737,1085
2.8340409,1086
2.706041,1087
2.7807348,1088
2.793825,1089
2.7517488,1090
2.7465765,1091
2.767913,1092
2.6930966,1093
2.6706314,1094
2.7173455,1095
2.7230814,1096
2.7067232,1097
2.7206943,1098
2.6736023,1099
2.7323344,1100
2.7731664,1101
2.72215,1102
2.7983844,1103
2.8060663,1104
2.7532532,1105
2.813488,1106
2.7677615,1107
2.8117895,1108
2.7839372,1109
2.7688982,1110
2.8047931,1111
2.8344095,1112
2.759611,1113
2.8016605,1114
2.8496473,1115
2.810292,1116
2.8090234,1117
2.7963202,1118
2.768349,1119
2.7297306,1120
2.7829926,1121
2.7267208,1122
2.7815263,1123
2.8405771,1124
2.8433788,1125
2.861652,1126
2.8692217,1127
2.8389013,1128
2.8416648,1129
2.8016527,1130
2.8197246,1131
2.782472,1132
2.79691,1133
2.8284764,1134
2.8459587,1135
2.8001747,1136
2.8647206,1137
2.8087506,1138
2.8719156,1139
2.9609344,1140
2.97174,1141
2.9813063,1142
2.9717286,1143
2.9741619,1144
2.9618335,1145
2.9217665,1146
2.9113712,1147
2.8566563,1148
2.826407,1149
2.8728428,1150
2.881323,1151
2.8648503,1152
2.8232865,1153
2.853162,1154
2.8331354,1155
2.8039832,1156
2.8363903,1157
2.8390117,1158
2.886151,1159
2.7307777,1160
2.6852183,1161
2.6815677,1162
2.6901326,1163
2.7848032,1164
2.63389,1165
2.6722536,1166
2.7352595,1167
2.7222252,1168
2.65768,1169
2.7101135,1170
2.698982,1171
2.754095,1172
2.7815971,1173
2.784647,1174
2.7697554,1175
2.7407892,1176
2.7182868,1177
2.7165253,1178
2.7424135,1179
2.6722999,1180
2.6676905,1181
2.7368217,1182
2.6951013,1183
2.7248027,1184
2.7258801,1185
2.670344,1186
2.7046556,1187
2.6540818,1188
2.6601558,1189
2.6461875,1190
2.692767,1191
2.8150835,1192
2.840067,1193
2.8073087,1194
2.852396,1195
2.8089888,1196
2.8177953,1197
2.7355022,1198
2.6418428,1199
2.6690283,1200
2.7110898,1201
2.8724802,1202
2.8573475,1203
2.8130229,1204
2.7765296,1205
2.857584,1206
2.87568,1207
2.808456,1208
2.7924175,1209
2.796902,1210
2.7936697,1211
2.83493,1212
2.8148205,1213
2.8740041,1214
2.8398082,1215
2.864382,1216
2.8537478,1217
2.8705177,1218
2.791063,1219
2.8746345,1220
2.9130561,1221
2.9216619,1222
2.9250555,1223
2.9245107,1224
2.926325,1225
2.9234443,1226
2.9292386,1227
2.9075325,1228
2.8756788,1229
2.8616886,1230
2.8015914,1231
2.770531,1232
2.8152428,1233
2.840521,1234
2.8981447,1235
2.874475,1236
2.9133277,1237
2.8859768,1238
2.891837,1239
2.84565,1240
2.7948778,1241
2.7857847,1242
2.7991674,1243
2.9129956,1244
2.9191604,1245
2.9159675,1246
2.920909,1247
2.8870335,1248
2.8923047,1249
2.8880649,1250
2.9122477,1251
2.915661,1252
2.8747213,1253
2.9077451,1254
2.9138637,1255
2.9121518,1256
2.8909807,1257
2.8714306,1258
2.9179568,1259
2.9151485,1260
2.9422166,1261
2.9051728,1262
2.887846,1263
2.9194248,1264
2.8580077,1265
2.8277087,1266
2.840729,1267
2.8065796,1268
2.8901904,1269
2.9143732,1270
2.9207366,1271
2.8876445,1272
2.9143517,1273
2.8868434,1274
2.8982673,1275
2.9297678,1276
2.9365115,1277
2.9396596,1278
2.9354713,1279
2.9401884,1280
2.9414203,1281
2.9367156,1282
2.9380438,1283
2.9395266,1284
2.9307156,1285
2.934046,1286
2.9227514,1287
2.9187386,1288
2.9205291,1289
2.9152138,1290
2.8923762,1291
2.8919103,1292
2.8946445,1293
2.8385608,1294
2.8436,1295
2.9039903,1296
2.898699,1297
2.9178617,1298
2.890607,1299
2.9003973,1300
2.905845,1301
2.8588066,1302
2.8798313,1303
2.8756115,1304
2.9210951,1305
2.9357867,1306
2.901207,1307
2.8966787,1308
2.9102578,1309
2.9010224,1310
2.8665152,1311
2.8245692,1312
2.8335896,1313
2.8267505,1314
2.8497736,1315
2.8725185,1316
2.9265978,1317
2.8907285,1318
2.9033468,1319
2.8954818,1320
2.8668954,1321
2.8127744,1322
2.7610347,1323
2.8119948,1324
2.7961025,1325
2.838155,1326
2.8721614,1327
2.8791883,1328
2.8206036,1329
2.8691592,1330
2.8148167,1331
2.8341079,1332
2.8609247,1333
2.8688679,1334
2.8803337,1335
2.9230819,1336
2.9083257,1337
2.955044,1338
2.9160945,1339
2.9346461,1340
2.9491885,1341
2.9435062,1342
2.9082408,1343
2.9312377,1344
2.9198055,1345
2.8968835,1346
2.894327,1347
2.8399446,1348
2.851161,1349
2.7980547,1350
2.853605,1351
2.879632,1352
2.7789865,1353
2.846599,1354
2.8479214,1355
2.8443584,1356
2.812547,1357
2.7812712,1358
2.707924,1359
2.863014,1360
2.84198,1361
2.8027225,1362
2.8227782,1363
2.8553476,1364
2.8074834,1365
2.8114555,1366
2.8473804,1367
2.8568916,1368
2.8551373,1369
2.8260174,1370
2.8057673,1371
2.8168302,1372
2.7881854,1373
2.7903767,1374
2.8411205,1375
2.750449,1376
2.7666655,1377
2.7930946,1378
2.7807689,1379
2.7688851,1380
2.7952974,1381
2.7261648,1382
2.723793,1383
2.7464783,1384
2.77431,1385
2.8384218,1386
2.8120158,1387
2.7936177,1388
2.805348,1389
2.780835,1390
2.6399562,1391
2.6401355,1392
2.6174312,1393
2.6015637,1394
2.6640265,1395
2.6483634,1396
2.6635492,1397
2.6704705,1398
2.7390106,1399
2.587534,1400
2.6201904,1401
2.553441,1402
2.421296,1403
2.4702632,1404
2.7621477,1405
2.8600333,1406
2.8641667,1407
2.8724253,1408
2.870039,1409
2.8495293,1410
2.8408065,1411
2.8432481,1412
2.8302069,1413
2.8092482,1414
2.8301718,1415
2.777057,1416
2.7664711,1417
2.8205721,1418
2.7698035,1419
2.6510768,1420
2.6751084,1421
2.662054,1422
2.6955695,1423
2.7896466,1424
2.726164,1425
2.8345342,1426
2.797624,1427
2.7138212,1428
2.723708,1429
2.745993,1430
2.8080847,1431
2.7550483,1432
2.770953,1433
2.7526212,1434
2.6936839,1435
2.818826,1436
2.842061,1437
2.8438163,1438
2.8442953,1439
2.8444948,1440
2.8432715,1441
2.8423696,1442
2.8363788,1443
2.8071375,1444
2.7598345,1445
2.801246,1446
2.8388593,1447
2.8418462,1448
2.8150468,1449
2.6565614,1450
2.807512,1451
2.8132226,1452
2.8261921,1453
2.8196635,1454
2.8190348,1455
2.8236625,1456
2.823496,1457
2.8202462,1458
2.8142605,1459
2.8390884,1460
2.8773408,1461
2.8402538,1462
2.8109512,1463
2.7777746,1464
2.7854393,1465
2.7639463,1466
2.713843,1467
2.7290626,1468
2.7497585,1469
2.836449,1470
2.8399217,1471
2.8435113,1472
2.8406386,1473
2.8450754,1474
2.8378613,1475
2.813354,1476
2.8185909,1477
2.8165498,1478
2.8296812,1479
2.8422446,1480
2.8423698,1481
2.811699,1482
2.8387918,1483
2.8284595,1484
2.7543163,1485
2.8692613,1486
2.8416748,1487
2.8184094,1488
2.7973425,1489
2.7239826,1490
2.7487357,1491
2.8127208,1492
2.7805505,1493
2.8226974,1494
2.833263,1495
2.7694924,1496
2.7635553,1497
2.825222,1498
2.7862117,1499
2.7727392,1500
2.8405058,1501
2.892487,1502
2.8987958,1503
2.8993926,1504
2.915463,1505
2.9309423,1506
2.9311488,1507
2.9225233,1508
2.8742747,1509
2.8954797,1510
2.9005458,1511
2.9069467,1512
2.9086816,1513
2.903547,1514
2.8448899,1515
2.7998946,1516
2.811551,1517
2.8264532,1518
2.7881227,1519
2.8351312,1520
2.7815201,1521
2.782796,1522
2.7632554,1523
2.7892447,1524
2.827444,1525
2.8033772,1526
2.8010144,1527
2.812584,1528
2.7726362,1529
2.820482,1530
2.7803783,1531
2.8666246,1532
2.9062095,1533
2.9266148,1534
2.9302373,1535
2.9381611,1536
2.9318774,1537
2.932262,1538
2.9390864,1539
2.9346707,1540
2.907075,1541
2.908679,1542
2.8889735,1543
2.8791533,1544
2.8615668,1545
2.8127174,1546
2.7778897,1547
2.8326273,1548
2.8932354,1549
2.8912096,1550
2.89294,1551
2.8812213,1552
2.8648286,1553
2.7479424,1554
2.7509234,1555
2.8275146,1556
2.9070425,1557
2.8963473,1558
2.892653,1559
2.9196708,1560
2.9133122,1561
2.9212708,1562
2.9144082,1563
2.807633,1564
2.8070052,1565
2.7794373,1566
2.804729,1567
2.7930481,1568
2.7798028,1569
2.7349236,1570
2.7246268,1571
2.7434423,1572
2.7339773,1573
2.7819855,1574
2.853412,1575
2.8375323,1576
2.8015237,1577
2.822289,1578
2.912185,1579
2.9141307,1580
2.9200828,1581
2.9145818,1582
2.9006152,1583
2.9266963,1584
2.9240682,1585
2.9323606,1586
2.916704,1587
2.865284,1588
2.8702114,1589
2.8912141,1590
2.8700206,1591
2.8643744,1592
2.8124232,1593
2.7421927,1594
2.692211,1595
2.662988,1596
2.5628276,1597
2.580708,1598
2.6275604,1599
2.5969408,1600
2.5728161,1601
2.5956385,1602
2.6739426,1603
2.6514018,1604
2.8821394,1605
2.924834,1606
2.9228702,1607
2.913209,1608
2.8863177,1609
2.7816255,1610
2.8661873,1611
2.8817909,1612
2.880107,1613
2.894243,1614
2.8720653,1615
2.8765845,1616
2.8977628,1617
2.8599305,1618
2.8925114,1619
2.8959844,1620
2.8669138,1621
2.880382,1622
2.873342,1623
2.8912086,1624
2.8361647,1625
2.8762295,1626
2.9225187,1627
2.9257364,1628
2.9184744,1629
2.9299593,1630
2.938527,1631
2.9368074,1632
2.9348168,1633
2.9209871,1634
2.8832607,1635
2.8607314,1636
2.7885568,1637
2.7800326,1638
2.874826,1639
2.9163373,1640
2.9317825,1641
2.94415,1642
2.935193,1643
2.9256167,1644
2.9011383,1645
2.8742583,1646
2.820034,1647
2.838879,1648
2.9274557,1649
2.9201896,1650
2.922287,1651
2.9445565,1652
2.9630022,1653
2.9791515,1654
2.9734077,1655
2.9476516,1656
2.9462678,1657
2.8950336,1658
2.9437368,1659
2.948671,1660
2.9370496,1661
2.9014819,1662
2.9672408,1663
2.8973923,1664
2.904083,1665
2.8777106,1666
2.9143517,1667
2.8289242,1668
2.8424497,1669
2.9356606,1670
2.882332,1671
2.8730452,1672
2.9176233,1673
2.8884776,1674
2.9039242,1675
2.9706624,1676
2.9745603,1677
2.966383,1678
2.949591,1679
2.951458,1680
2.8997948,1681
2.92624,1682
2.9125233,1683
2.9345727,1684
2.918336,1685
2.805041,1686
2.8586686,1687
2.7984083,1688
2.7518625,1689
2.7842827,1690
2.820584,1691
2.943048,1692
3.0115204,1693
2.989964,1694
3.0239227,1695
3.025346,1696
3.031476,1697
3.0216897,1698
3.027213,1699
3.0153117,1700
3.0074193,1701
3.0050387,1702
2.9855196,1703
2.917823,1704
2.8500657,1705
2.8422897,1706
2.9542134,1707
2.9207988,1708
2.911219,1709
2.9510548,1710
2.936917,1711
2.9493523,1712
2.927713,1713
2.946651,1714
2.9071589,1715
2.866415,1716
2.9240742,1717
2.9439983,1718
2.9351437,1719
2.9437625,1720
2.9368072,1721
2.9436674,1722
2.9587548,1723
2.9406335,1724
2.9399877,1725
2.9621139,1726
2.930724,1727
2.9448845,1728
2.9481175,1729
2.956393,1730
2.9201884,1731
2.8666544,1732
2.9243948,1733
2.925488,1734
2.9195225,1735
2.9272137,1736
2.9243755,1737
2.8489017,1738
2.871917,1739
2.8122184,1740
2.8463504,1741
2.8829813,1742
2.8524566,1743
2.8222916,1744
2.8524542,1745
2.8375967,1746
2.8495119,1747
2.8190367,1748
2.793232,1749
2.8222797,1750
2.8432386,1751
2.8663013,1752
2.8217454,1753
2.8653417,1754
2.9292862,1755
2.9708025,1756
2.9294236,1757
2.9328244,1758
2.8746572,1759
2.8733041,1760
2.8756769,1761
2.8754685,1762
2.8699324,1763
2.8741536,1764
2.8635728,1765
2.872516,1766
2.8703585,1767
2.8542051,1768
2.8641653,1769
2.8946252,1770
2.903993,1771
2.8599694,1772
2.8678887,1773
2.8666344,1774
2.8537362,1775
2.889749,1776
2.87976,1777
2.8964205,1778
2.8628628,1779
2.8341556,1780
2.8798573,1781
2.8910284,1782
2.8149455,1783
2.8647697,1784
2.8395371,1785
2.8443077,1786
2.8426175,1787
2.842129,1788
2.8401618,1789
2.8394427,1790
2.8389692,1791
2.8238654,1792
2.813312,1793
2.8465831,1794
2.8404272,1795
2.8418343,1796
2.777289,1797
2.7297919,1798
2.770714,1799
2.808004,1800
2.82598,1801
2.8179271,1802
2.8233192,1803
2.8243794,1804
2.8258426,1805
2.8146021,1806
2.85014,1807
2.8650815,1808
2.853926,1809
2.8169048,1810
2.803855,1811
2.8421519,1812
2.81326,1813
2.7726736,1814
2.7383957,1815
2.752112,1816
2.8207994,1817
2.8391612,1818
2.839658,1819
2.8395462,1820
2.8395376,1821
2.839867,1822
2.8391795,1823
2.8184392,1824
2.7809665,1825
2.8472235,1826
2.8642101,1827
2.8564355,1828
2.857586,1829
2.8371499,1830
2.7875628,1831
2.826053,1832
2.8134587,1833
2.7970653,1834
2.865252,1835
2.8635252,1836
2.8778064,1837
2.8149886,1838
2.7430825,1839
2.7744389,1840
2.7974432,1841
2.818467,1842
2.8278935,1843
2.784537,1844
2.7906315,1845
2.8264956,1846
2.887045,1847
2.8967445,1848
2.8888257,1849
2.8982215,1850
2.904106,1851
2.904408,1852
2.884151,1853
2.8676143,1854
2.859015,1855
2.806611,1856
2.8183286,1857
2.7912674,1858
2.7440736,1859
2.7661839,1860
2.7858224,1861
2.8202868,1862
2.845272,1863
2.8624153,1864
2.4066162,1865
2.3365414,1866
2.334211,1867
2.3356578,1868
2.3349264,1869
2.3694055,1870
2.3465343,1871
2.3353758,1872
2.3422658,1873
2.3438537,1874
2.3440661,1875
2.4040425,1876
2.4810796,1877
2.499984,1878
2.6002605,1879
2.7426567,1880
2.6609907,1881
2.6292512,1882
2.664732,1883
2.7057018,1884
2.3594916,1885
2.2984529,1886
2.4680576,1887
2.4051476,1888
2.3769474,1889
2.433168,1890
2.3909595,1891
2.380558,1892
2.3850868,1893
2.462142,1894
2.3786726,1895
2.3822129,1896
2.4049642,1897
2.3972812,1898
2.418304,1899
2.4633384,1900
2.4295938,1901
2.445734,1902
2.4596827,1903
2.4212089,1904
2.4380288,1905
2.468797,1906
2.50413,1907
2.5044515,1908
2.5058837,1909
2.4636326,1910
2.5004735,1911
2.502793,1912
2.5022824,1913
2.4757833,1914
2.474319,1915
2.53679,1916
2.5234408,1917
2.5028172,1918
2.572584,1919
2.6131873,1920
2.545357,1921
2.6022382,1922
2.5949454,1923
2.600221,1924
2.5994112,1925
2.58023,1926
2.6040423,1927
2.59935,1928
2.6249182,1929
2.5658495,1930
2.6091504,1931
2.5944088,1932
2.579146,1933
2.5367422,1934
2.5886989,1935
2.6922,1936
2.607326,1937
2.6461637,1938
2.6494808,1939
2.6996465,1940
2.6888928,1941
2.6985488,1942
2.7310061,1943
2.7221394,1944
2.7481065,1945
2.7020156,1946
2.7263587,1947
2.691508,1948
2.6518948,1949
2.7049813,1950
2.731127,1951
2.76448,1952
2.7414017,1953
2.6871285,1954
2.6948686,1955
2.6788447,1956
2.7170632,1957
2.7391608,1958
2.8007917,1959
2.7961106,1960
2.795112,1961
2.7912283,1962
2.824196,1963
2.8393724,1964
2.8395112,1965
2.8388906,1966
2.8287122,1967
2.8351421,1968
2.8281412,1969
2.8440351,1970
2.854112,1971
2.8547773,1972
2.8292341,1973
2.8421273,1974
2.8245697,1975
2.802795,1976
2.8189614,1977
2.8501818,1978
2.8192294,1979
2.815813,1980
2.7861354,1981
2.7779806,1982
2.803192,1983
2.7431288,1984
2.7675726,1985
2.8531365,1986
2.9048421,1987
2.8983407,1988
2.892483,1989
2.8883,1990
2.8515131,1991
2.8405461,1992
2.84174,1993
2.8355742,1994
2.8626113,1995
2.886333,1996
2.9009242,1997
2.9013107,1998
2.907372,1999
2.9072943,2000
2.8943648,2001
2.8965933,2002
2.8673654,2003
2.9306679,2004
2.9224026,2005
2.927822,2006
2.9450297,2007
2.9621387,2008
2.9554527,2009
2.9299216,2010
2.9527223,2011
2.9319897,2012
2.9104257,2013
2.9277484,2014
2.9065256,2015
2.9599538,2016
2.930885,2017
2.952892,2018
2.9545565,2019
2.9228508,2020
2.9435933,2021
2.9102187,2022
2.9302816,2023
2.937378,2024
2.9367094,2025
2.948951,2026
2.967407,2027
2.9534311,2028
2.9637413,2029
2.9606278,2030
2.963932,2031
2.9552689,2032
2.936769,2033
2.9574785,2034
2.9374647,2035
2.9036443,2036
2.8897736,2037
2.9146008,2038
2.8613465,2039
2.8656247,2040
2.8624744,2041
2.831788,2042
2.8187172,2043
2.7889304,2044
2.8250744,2045
2.9395487,2046
3.0140953,2047
3.0022292,2048
3.0303555,2049
3.027477,2050
3.0137842,2051
3.0319302,2052
3.013331,2053
3.011583,2054
2.9864485,2055
2.990925,2056
2.92783,2057
2.8644767,2058
2.9088979,2059
2.8758268,2060
2.8893337,2061
2.9345758,2062
2.899423,2063
2.9164064,2064
2.921531,2065
2.8815186,2066
2.892408,2067
2.908137,2068
2.9349103,2069
2.827413,2070
2.8748426,2071
2.8838005,2072
2.8315105,2073
2.9688554,2074
2.9778137,2075
2.9491491,2076
2.954377,2077
2.944415,2078
2.9599602,2079
2.946764,2080
2.9612806,2081
2.950044,2082
2.9476585,2083
2.9820583,2084
2.9586153,2085
2.9584908,2086
2.9709563,2087
2.9332075,2088
2.9087074,2089
2.8808944,2090
2.935696,2091
2.9354744,2092
2.8901334,2093
2.8842058,2094
2.934071,2095
2.8569472,2096
2.914917,2097
2.8604581,2098
2.8690765,2099
2.8244612,2100
2.8453104,2101
2.877927,2102
2.841526,2103
2.8422146,2104
2.8769107,2105
2.9001617,2106
2.8759694,2107
2.8705516,2108
2.875793,2109
2.8729167,2110
2.8747356,2111
2.8652816,2112
2.873259,2113
2.8683662,2114
2.8648906,2115
2.8871262,2116
2.8837397,2117
2.888643,2118
2.8761408,2119
2.8631668,2120
2.8881195,2121
2.9068773,2122
2.8239276,2123
2.8379755,2124
2.8704789,2125
2.816722,2126
2.811313,2127
2.7852829,2128
2.8501303,2129
2.842613,2130
2.8267882,2131
2.877832,2132
2.8590975,2133
2.8457212,2134
2.8765721,2135
2.8969276,2136
2.9000561,2137
2.9254665,2138
2.9296267,2139
2.9271834,2140
2.8960054,2141
2.8673413,2142
2.867568,2143
2.8700902,2144
2.9113257,2145
2.919218,2146
2.9369698,2147
2.9434338,2148
2.90852,2149
2.915321,2150
2.9476774,2151
2.995596,2152
3.019554,2153
2.9148712,2154
2.8755314,2155
2.8752842,2156
2.8749962,2157
2.8750176,2158
2.867548,2159
2.8716552,2160
2.874925,2161
2.8399668,2162
2.8726096,2163
2.8763363,2164
2.8754935,2165
2.8686807,2166
2.8855526,2167
2.875234,2168
2.871507,2169
2.8707411,2170
2.821167,2171
2.8927782,2172
2.911701,2173
2.8388345,2174
2.881478,2175
2.8715036,2176
2.873771,2177
2.8687117,2178
2.8652914,2179
2.855746,2180
2.8653762,2181
2.857532,2182
2.8453634,2183
2.856478,2184
2.8656735,2185
2.8521204,2186
2.8832457,2187
2.853724,2188
2.8289516,2189
2.7879515,2190
2.8202996,2191
2.854639,2192
2.7294705,2193
2.7666965,2194
2.750104,2195
2.7339206,2196
2.733815,2197
2.7943556,2198
2.8689003,2199
2.8536868,2200
2.8689363,2201
2.8725538,2202
2.8709433,2203
2.8718946,2204
2.858608,2205
2.8559017,2206
2.8686886,2207
2.8274143,2208
2.8547509,2209
2.8733695,2210
2.8718815,2211
2.8621595,2212
2.8113308,2213
2.7985353,2214
2.753638,2215
2.762082,2216
2.8282003,2217
2.792142,2218
2.8418462,2219
2.8829987,2220
2.906088,2221
2.903713,2222
2.8875327,2223
2.8866212,2224
2.8770928,2225
2.8477695,2226
2.8891823,2227
2.8896205,2228
2.8955204,2229
2.89434,2230
2.869982,2231
2.8795607,2232
2.8683593,2233
2.8313694,2234
2.8681066,2235
2.8531227,2236
2.858856,2237
2.8738947,2238
2.8468175,2239
2.855554,2240
2.867916,2241
2.8660994,2242
2.8442533,2243
2.8613832,2244
2.8518772,2245
2.8502564,2246
2.843234,2247
2.8397455,2248
2.8159235,2249
2.8090975,2250
2.921868,2251
2.9260077,2252
2.9088395,2253
2.9496653,2254
2.9283593,2255
2.907459,2256
2.884872,2257
2.9312906,2258
2.9362419,2259
2.9537995,2260
2.9379878,2261
2.9544039,2262
2.94062,2263
2.954411,2264
2.9264855,2265
2.9351134,2266
2.9350631,2267
2.93216,2268
2.9353843,2269
2.951962,2270
2.9528687,2271
2.936502,2272
2.9509919,2273
2.9496489,2274
2.9588559,2275
2.9205554,2276
2.9119828,2277
2.9233158,2278
2.8886402,2279
2.8528407,2280
2.8672993,2281
2.881668,2282
2.9311564,2283
2.914519,2284
2.8921752,2285
2.858247,2286
2.892141,2287
2.9237928,2288
2.9244983,2289
2.9303682,2290
2.9152687,2291
2.890603,2292
2.934667,2293
2.886114,2294
2.8339336,2295
2.8667345,2296
2.857805,2297
2.883105,2298
2.8432322,2299
2.884245,2300
2.8934305,2301
2.9212608,2302
2.8077946,2303
2.735547,2304
2.831622,2305
2.8313642,2306
2.8678002,2307
2.8894947,2308
2.8356798,2309
2.80106,2310
2.809456,2311
2.7689664,2312
2.7436032,2313
2.7963908,2314
2.8773267,2315
2.8587236,2316
2.828681,2317
2.8293195,2318
2.8552685,2319
2.8354704,2320
2.7693346,2321
2.7258065,2322
2.7438037,2323
2.7967522,2324
2.8781443,2325
2.8501232,2326
2.8894475,2327
2.8153412,2328
2.7494626,2329
2.7558374,2330
2.7545197,2331
2.709997,2332
2.7331824,2333
2.7845206,2334
2.7336023,2335
2.8033397,2336
2.7419355,2337
2.8788204,2338
2.8266084,2339
2.878347,2340
2.8227317,2341
2.8790627,2342
2.8702407,2343
2.8277895,2344
2.862847,2345
2.885883,2346
2.8303208,2347
2.7236173,2348
2.7646084,2349
2.8962057,2350
2.898843,2351
2.8592632,2352
2.8989239,2353
2.9096265,2354
2.9217544,2355
2.887732,2356
2.6314034,2357
2.4958558,2358
2.5361214,2359
2.7733328,2360
2.737155,2361
2.6693134,2362
2.8406177,2363
2.901378,2364
2.868685,2365
2.886159,2366
2.863222,2367
2.8005836,2368
2.8279757,2369
2.8310082,2370
2.8293915,2371
2.802791,2372
2.7273622,2373
2.6649165,2374
2.7157185,2375
2.686217,2376
2.6718504,2377
2.6996782,2378
2.7228947,2379
2.7374568,2380
2.736157,2381
2.7271245,2382
2.7015193,2383
2.7160287,2384
2.7182612,2385
2.7550573,2386
2.737332,2387
2.7151947,2388
2.7745175,2389
2.6860416,2390
2.6704574,2391
2.6992118,2392
2.705649,2393
2.705418,2394
2.7556994,2395
2.800403,2396
2.8547783,2397
2.8222225,2398
2.8410509,2399
2.8294773,2400
2.8162434,2401
2.8275814,2402
2.811854,2403
2.8556676,2404
2.7628021,2405
2.8264763,2406
2.5427942,2407
2.513845,2408
2.4979174,2409
2.5891435,2410
2.5330503,2411
2.5869174,2412
2.6598363,2413
2.6485834,2414
2.7017891,2415
2.667967,2416
2.669717,2417
2.720597,2418
2.7424352,2419
2.7796285,2420
2.720725,2421
2.7313788,2422
2.775271,2423
2.727252,2424
2.7486691,2425
2.8187475,2426
2.8074677,2427
2.8887193,2428
2.8472729,2429
2.8478942,2430
2.9232454,2431
2.919861,2432
2.8409147,2433
2.7136953,2434
2.72838,2435
2.8804104,2436
2.8546677,2437
2.8742537,2438
2.9005082,2439
2.9103236,2440
2.9196708,2441
2.8601627,2442
2.8456826,2443
2.8005168,2444
2.737575,2445
2.7529821,2446
2.7041545,2447
2.744739,2448
2.7277377,2449
2.731226,2450
2.7686226,2451
2.8673017,2452
2.5981572,2453
2.5537221,2454
2.5280786,2455
2.6053405,2456
2.5567398,2457
2.6382806,2458
2.5170329,2459
2.64202,2460
2.6720893,2461
2.678263,2462
2.6163614,2463
2.7039332,2464
2.739139,2465
2.7438302,2466
2.6800425,2467
2.562158,2468
2.644959,2469
2.8327894,2470
2.7836578,2471
2.7541044,2472
2.8071854,2473
2.8235219,2474
2.8513575,2475
2.8309848,2476
2.7924016,2477
2.7328937,2478
2.8573053,2479
2.8797622,2480
2.8894901,2481
2.8922908,2482
2.9016638,2483
2.9030657,2484
2.7888405,2485
2.7400563,2486
2.7413266,2487
2.7391002,2488
2.744378,2489
2.7976074,2490
2.7848263,2491
2.7223063,2492
2.7910948,2493
2.767164,2494
2.7923555,2495
2.7479007,2496
2.741944,2497
2.7078836,2498
2.7490964,2499
2.8003974,2500
2.768684,2501
2.8337646,2502
2.839284,2503
2.8382058,2504
2.8381562,2505
2.8377702,2506
2.8151662,2507
2.735627,2508
2.7609143,2509
2.764082,2510
2.8186228,2511
2.773831,2512
2.8207023,2513
2.7154262,2514
2.7684834,2515
2.7887025,2516
2.7996614,2517
2.7304082,2518
2.6051133,2519
2.7007926,2520
2.774107,2521
2.8006933,2522
2.7770128,2523
2.7927337,2524
2.7195904,2525
2.7276015,2526
2.745154,2527
2.7473066,2528
2.7912066,2529
2.7942145,2530
2.8235762,2531
2.775831,2532
2.79503,2533
2.764066,2534
2.800387,2535
2.7712817,2536
2.7542427,2537
2.7331095,2538
2.778948,2539
2.7668273,2540
2.7952082,2541
2.7885754,2542
2.7871203,2543
2.8149576,2544
2.7582169,2545
2.7838013,2546
2.7879357,2547
2.8560638,2548
2.8161914,2549
2.876616,2550
2.88731,2551
2.8236182,2552
2.831074,2553
2.777821,2554
2.7809644,2555
2.7849422,2556
2.790582,2557
2.74058,2558
2.7571728,2559
2.7632635,2560
2.784291,2561
2.7887359,2562
2.7870266,2563
2.8493488,2564
2.794278,2565
2.8062477,2566
2.6754742,2567
2.7801983,2568
2.8424795,2569
2.8017085,2570
2.8092697,2571
2.8334591,2572
2.7288284,2573
2.8045046,2574
2.8705149,2575
2.827159,2576
2.7918742,2577
2.7652035,2578
2.7860746,2579
2.8111465,2580
2.5802107,2581
2.5081208,2582
2.6041467,2583
2.5749078,2584
2.709144,2585
2.7955916,2586
2.8188546,2587
2.8027017,2588
2.77769,2589
2.7680025,2590
2.763001,2591
2.7948568,2592
2.7366555,2593
2.6239948,2594
2.6595247,2595
2.6614141,2596
2.7043953,2597
2.6445363,2598
2.685334,2599
2.7182736,2600
2.697188,2601
2.6410215,2602
2.7434926,2603
2.741954,2604
2.7502253,2605
2.8062565,2606
2.8231761,2607
2.682191,2608
2.6810591,2609
2.7411695,2610
2.676491,2611
2.6603823,2612
2.6724715,2613
2.7038212,2614
2.7832692,2615
2.7011702,2616
2.6843877,2617
2.78642,2618
2.794383,2619
2.802556,2620
2.760178,2621
2.8112922,2622
2.802423,2623
2.8140745,2624
2.827778,2625
2.8267112,2626
2.8858376,2627
2.8757749,2628
2.8825238,2629
2.9079192,2630
2.8537571,2631
2.7736742,2632
2.8736398,2633
2.8225076,2634
2.8073225,2635
2.8823369,2636
2.918477,2637
2.8872068,2638
2.9336345,2639
2.8943331,2640
2.876875,2641
2.8899276,2642
2.827119,2643
2.8250318,2644
2.825401,2645
2.857898,2646
2.77969,2647
2.5863268,2648
2.578039,2649
2.6664236,2650
2.7382588,2651
2.7640915,2652
2.7151568,2653
2.7354848,2654
2.769599,2655
2.7674,2656
2.7426183,2657
2.7178557,2658
2.7237136,2659
2.7058134,2660
2.6913476,2661
2.6788821,2662
2.6200924,2663
2.5150418,2664
2.6835093,2665
2.6898084,2666
2.7013404,2667
2.6579814,2668
2.5490053,2669
2.6853907,2670
2.6911647,2671
2.7242012,2672
2.7334821,2673
2.727444,2674
2.742571,2675
2.642112,2676
2.6892366,2677
2.7371671,2678
2.6661918,2679
2.6958413,2680
2.6697295,2681
2.7033315,2682
2.7435696,2683
2.7353852,2684
2.723243,2685
2.783537,2686
2.818194,2687
2.803744,2688
2.7865062,2689
2.810793,2690
2.7840476,2691
2.6686363,2692
2.6191478,2693
2.640604,2694
2.7376542,2695
2.7861056,2696
2.788402,2697
2.7789624,2698
2.7556024,2699
2.784023,2700
2.7619781,2701
2.7936077,2702
2.7817733,2703
2.754562,2704
2.7438555,2705
2.7326381,2706
2.778929,2707
2.7963846,2708
2.7366984,2709
2.7611427,2710
2.6417582,2711
2.7271886,2712
2.823015,2713
2.7371852,2714
2.8109465,2715
2.7563436,2716
2.6738062,2717
2.8745286,2718
2.8269775,2719
2.8143957,2720
2.6737418,2721
2.6402435,2722
2.7429464,2723
2.6264775,2724
2.520114,2725
2.6358094,2726
2.6019804,2727
2.6449573,2728
2.781739,2729
2.7799473,2730
2.7116275,2731
2.752615,2732
2.7173893,2733
2.7713037,2734
2.7482178,2735
2.6679423,2736
2.7124455,2737
2.7253888,2738
2.7338018,2739
2.6498594,2740
2.7030406,2741
2.728313,2742
2.6505938,2743
2.693818,2744
2.7760603,2745
2.769419,2746
2.7226527,2747
2.7966564,2748
2.7820694,2749
2.6512163,2750
2.6988478,2751
2.7716167,2752
2.7232258,2753
2.7034657,2754
2.7637012,2755
2.752066,2756
2.7142045,2757
2.731386,2758
2.7573693,2759
2.7542596,2760
2.7524648,2761
2.7528777,2762
2.7863333,2763
2.7456563,2764
2.8251207,2765
2.8503098,2766
2.7955215,2767
2.8197064,2768
2.8209772,2769
2.8111377,2770
2.8568788,2771
2.8540707,2772
2.8061428,2773
2.8265753,2774
2.809868,2775
2.8809001,2776
2.8476617,2777
2.9020019,2778
2.9104161,2779
2.85834,2780
2.859428,2781
2.8765485,2782
2.8070033,2783
2.8095329,2784
2.851115,2785
2.8269384,2786
2.6785111,2787
2.4948893,2788
2.4821177,2789
2.6290026,2790
2.7115061,2791
2.6955075,2792
2.689904,2793
2.7054768,2794
2.6165955,2795
2.7548766,2796
2.744103,2797
2.7896206,2798
2.7964664,2799
2.598519,2800
2.5289204,2801
2.6897225,2802
2.53849,2803
2.6737294,2804
2.5743155,2805
2.505171,2806
2.5044901,2807
2.505421,2808
2.490741,2809
2.5062177,2810
2.501558,2811
2.5017147,2812
2.5007842,2813
2.501862,2814
2.5075622,2815
2.5261643,2816
2.5000367,2817
2.5045943,2818
2.5580103,2819
2.5328598,2820
2.5063798,2821
2.5032308,2822
2.5256927,2823
2.5306406,2824
2.602464,2825
2.5529788,2826
2.7294605,2827
2.6174448,2828
2.621297,2829
2.5968995,2830
2.6394746,2831
2.5925744,2832
2.738585,2833
2.6999788,2834
2.6969712,2835
2.7152555,2836
2.6912124,2837
2.7335005,2838
2.6629837,2839
2.5987415,2840
2.6026547,2841
2.6050868,2842
2.601424,2843
2.6077049,2844
2.603707,2845
2.5973814,2846
2.5547736,2847
2.5843651,2848
2.5998278,2849
2.6036396,2850
2.6102881,2851
2.6367571,2852
2.5681405,2853
2.5749073,2854
2.5810578,2855
2.609504,2856
2.609447,2857
2.6398816,2858
2.6381946,2859
2.6649997,2860
2.6993737,2861
2.7040792,2862
2.6866014,2863
2.7214417,2864
2.6909058,2865
2.713571,2866
2.626561,2867
2.6978245,2868
2.7542603,2869
2.8084996,2870
2.7812083,2871
2.766889,2872
2.764606,2873
2.7662168,2874
2.8077044,2875
2.7639747,2876
2.7832303,2877
2.8073905,2878
2.8123474,2879
2.7988265,2880
2.8329806,2881
2.8628283,2882
2.8405144,2883
2.8177276,2884
2.7957087,2885
2.7631695,2886
2.8122911,2887
2.8009021,2888
2.7403092,2889
2.7939944,2890
2.795518,2891
2.7892764,2892
2.7867131,2893
2.642983,2894
2.569403,2895
2.6701643,2896
2.6638374,2897
2.754059,2898
2.7250369,2899
2.833314,2900
2.8021903,2901
2.7927742,2902
2.828364,2903
2.7871256,2904
2.8583436,2905
2.8756013,2906
2.8202546,2907
2.8593225,2908
2.8614213,2909
2.8616545,2910
2.8094506,2911
2.7903388,2912
2.8760974,2913
2.8016913,2914
2.8861003,2915
2.8741322,2916
2.9485261,2917
2.930587,2918
2.9534318,2919
2.9578755,2920
2.863011,2921
2.8924406,2922
2.8954017,2923
2.9044352,2924
2.9354153,2925
2.9056962,2926
2.9101431,2927
2.8912144,2928
2.8337226,2929
2.856076,2930
2.8684795,2931
2.869337,2932
2.827367,2933
2.7939708,2934
2.774674,2935
2.7754202,2936
2.7452657,2937
2.7328272,2938
2.7748282,2939
2.754789,2940
2.7719238,2941
2.7697916,2942
2.7422628,2943
2.6761322,2944
2.7437706,2945
2.6745026,2946
2.687219,2947
2.6816924,2948
2.703283,2949
2.697345,2950
2.7372243,2951
2.7112758,2952
2.739625,2953
2.755849,2954
2.8037543,2955
2.858793,2956
2.8577719,2957
2.8577507,2958
2.867199,2959
2.888009,2960
2.8566692,2961
2.8722134,2962
2.858751,2963
2.8683052,2964
2.8732624,2965
2.895702,2966
2.8713708,2967
2.8458033,2968
2.9118972,2969
2.9509106,2970
2.935751,2971
2.9368038,2972
2.9368215,2973
2.963807,2974
2.9110482,2975
2.9388807,2976
2.9226203,2977
2.9791355,2978
2.937883,2979
2.934932,2980
2.9258142,2981
2.768858,2982
2.6885545,2983
2.7651465,2984
2.7436018,2985
2.733498,2986
2.7121696,2987
2.7524512,2988
2.8317382,2989
2.897314,2990
2.8961697,2991
2.8858142,2992
2.8676689,2993
2.8997939,2994
2.936321,2995
2.9694307,2996
2.978004,2997
2.9774032,2998
2.9713042,2999
2.9365797,3000
2.984971,3001
2.9743633,3002
2.9512377,3003
2.970331,3004
2.9630702,3005
2.953485,3006
2.9308655,3007
2.9455187,3008
2.945765,3009
2.944186,3010
2.920236,3011
2.9342303,3012
2.9001563,3013
2.9254177,3014
2.9297566,3015
2.8967412,3016
2.846677,3017
2.9071875,3018
2.8586493,3019
2.8731537,3020
2.891943,3021
2.918803,3022
2.907808,3023
2.9502907,3024
2.9743142,3025
2.9557242,3026
2.9750698,3027
2.965536,3028
2.9684253,3029
2.9729774,3030
2.964081,3031
2.9419007,3032
2.9140558,3033
2.8793795,3034
2.8899424,3035
2.9064043,3036
2.8999114,3037
2.9087281,3038
2.8785,3039
2.9070148,3040
2.9092345,3041
2.8763921,3042
2.8581011,3043
2.8626716,3044
2.8330376,3045
2.8415606,3046
2.8681593,3047
2.8663356,3048
2.8334057,3049
2.864767,3050
2.8517494,3051
2.8147,3052
2.9173915,3053
2.9234214,3054
3.0112212,3055
3.0161436,3056
3.027786,3057
3.0284328,3058
3.0385716,3059
3.032708,3060
3.033343,3061
3.0279055,3062
2.9792204,3063
2.9977288,3064
2.907802,3065
2.9277887,3066
2.9236648,3067
2.8994536,3068
2.866636,3069
2.926575,3070
2.9309123,3071
2.908126,3072
2.8925154,3073
2.916773,3074
2.900251,3075
2.8875391,3076
2.9163582,3077
2.9179964,3078
2.8980556,3079
2.9779158,3080
2.9520671,3081
2.9436228,3082
2.988219,3083
2.9665017,3084
2.944141,3085
2.9779189,3086
2.9777966,3087
2.9441721,3088
2.9620616,3089
2.9478054,3090
2.9545474,3091
2.9237592,3092
2.946687,3093
2.92814,3094
2.8952749,3095
2.8795815,3096
2.8832803,3097
2.879602,3098
2.8170047,3099
2.8906434,3100
2.9270883,3101
2.9124284,3102
2.931856,3103
2.875148,3104
2.9215035,3105
2.9377267,3106
2.9412065,3107
2.9357646,3108
2.8735654,3109
2.9352517,3110
2.9120057,3111
2.8994262,3112
2.8890054,3113
2.8890097,3114
2.8645043,3115
2.870761,3116
2.8926048,3117
2.8537579,3118
2.8975854,3119
2.8632314,3120
2.8504503,3121
2.9330573,3122
2.8623233,3123
2.893104,3124
2.9131334,3125
2.923967,3126
2.8910177,3127
2.904738,3128
2.889064,3129
2.8720765,3130
2.8835673,3131
2.894024,3132
2.9168324,3133
2.9020052,3134
2.9184842,3135
2.8775244,3136
2.8761368,3137
2.9195068,3138
2.8700953,3139
2.903384,3140
2.880102,3141
2.7555947,3142
2.886562,3143
2.8275702,3144
2.8278108,3145
2.9095788,3146
2.8977914,3147
2.8983462,3148
2.8588493,3149
2.854807,3150
2.8674102,3151
2.87379,3152
2.9011507,3153
2.8598874,3154
2.8642468,3155
2.8300898,3156
2.7236679,3157
2.5091872,3158
2.7906003,3159
2.7667003,3160
2.8506517,3161
2.8756888,3162
2.8499143,3163
2.8240712,3164
2.8358853,3165
2.8297665,3166
2.9150915,3167
2.8943856,3168
2.9520967,3169
2.9698288,3170
2.909583,3171
2.9289682,3172
2.979402,3173
2.9710503,3174
2.9158404,3175
2.966973,3176
2.9223366,3177
2.9179487,3178
2.8908432,3179
2.8666668,3180
2.833853,3181
2.9021392,3182
2.8901954,3183
2.9232137,3184
2.9341824,3185
2.9245791,3186
2.9304116,3187
2.9453208,3188
2.9424682,3189
2.9062872,3190
2.9112604,3191
2.9247797,3192
2.858613,3193
2.900764,3194
2.8825665,3195
2.8712108,3196
2.7579038,3197
2.8781068,3198
2.8646796,3199
2.8716514,3200
2.786132,3201
2.82362,3202
2.8953798,3203
2.8218656,3204
2.8580482,3205
2.8378386,3206
2.9010308,3207
2.8561568,3208
2.8219419,3209
2.8192732,3210
2.8185112,3211
2.8758242,3212
2.7430882,3213
2.8356993,3214
2.81464,3215
2.8506615,3216
2.9347222,3217
2.9328134,3218
2.9385202,3219
2.9341397,3220
2.9290802,3221
2.9205475,3222
2.9338338,3223
2.9230354,3224
2.9344156,3225
2.9234717,3226
2.9323456,3227
2.907086,3228
2.9015553,3229
2.843261,3230
2.8146715,3231
2.85003,3232
2.853987,3233
2.8166468,3234
2.8568673,3235
2.852198,3236
2.878427,3237
2.899411,3238
2.8399239,3239
2.834755,3240
2.8566215,3241
2.8692486,3242
2.917314,3243
2.8675644,3244
2.868884,3245
2.893668,3246
2.8359044,3247
2.8973935,3248
2.836086,3249
2.871218,3250
2.8429084,3251
2.78251,3252
2.9335518,3253
2.9227924,3254
2.878736,3255
2.8326988,3256
2.8674796,3257
2.893048,3258
2.8312182,3259
2.8790631,3260
2.8736985,3261
2.8355649,3262
2.8729975,3263
2.7703488,3264
2.8052194,3265
2.7844877,3266
2.7904515,3267
2.9683187,3268
2.9552934,3269
2.9343183,3270
2.9644089,3271
2.9063888,3272
2.913352,3273
2.9198697,3274
2.923169,3275
2.895148,3276
2.914636,3277
2.9187725,3278
2.8988683,3279
2.8667576,3280
2.9302266,3281
2.9180875,3282
2.852535,3283
2.9249666,3284
2.8493197,3285
2.9023135,3286
2.8993926,3287
2.9080572,3288
2.9400413,3289
2.9000823,3290
2.9028592,3291
2.9419537,3292
2.8781242,3293
2.851343,3294
2.886994,3295
2.906654,3296
2.9071198,3297
2.9051878,3298
2.858867,3299
2.893715,3300
2.8729687,3301
2.8868132,3302
2.909152,3303
2.884977,3304
2.8405201,3305
2.8529508,3306
2.8436017,3307
2.8487182,3308
2.9023302,3309
2.8560958,3310
2.8668966,3311
2.8433197,3312
2.8888454,3313
2.8968887,3314
2.8545802,3315
2.8632998,3316
2.8707416,3317
2.863498,3318
2.8804343,3319
2.8814917,3320
2.8871603,3321
2.912133,3322
2.935075,3323
2.90719,3324
2.8938751,3325
2.88829,3326
2.8922193,3327
2.8771636,3328
2.872964,3329
2.8661313,3330
2.9038277,3331
2.9092638,3332
2.8689466,3333
2.8600018,3334
2.8720195,3335
2.9109137,3336
2.90472,3337
2.910878,3338
2.8554766,3339
2.9557738,3340
2.9033923,3341
2.9414155,3342
2.943788,3343
2.9211462,3344
2.961352,3345
2.9338605,3346
2.968336,3347
2.9401932,3348
2.942225,3349
2.9457266,3350
2.9400573,3351
2.962779,3352
2.8914144,3353
2.9194624,3354
2.9207249,3355
2.9262629,3356
2.8982017,3357
2.945422,3358
2.9163895,3359
2.9101994,3360
2.903845,3361
2.8909588,3362
2.9566977,3363
2.908065,3364
2.9561229,3365
2.908301,3366
2.945139,3367
2.8618135,3368
2.8924305,3369
2.902001,3370
2.9019363,3371
2.8710713,3372
2.9245882,3373
2.891081,3374
2.7974155,3375
2.875113,3376
2.9228263,3377
2.9590275,3378
2.9634795,3379
2.9598005,3380
2.9593997,3381
2.9592633,3382
2.9583805,3383
2.9535313,3384
2.9483187,3385
2.958331,3386
2.9530463,3387
2.9513144,3388
2.9585297,3389
2.9594872,3390
2.955738,3391
2.9558997,3392
2.9525545,3393
2.9516368,3394
2.9430702,3395
2.9165118,3396
2.8735545,3397
2.8867216,3398
2.9012513,3399
2.9066043,3400
2.92502,3401
2.9284766,3402
2.9255319,3403
2.9342694,3404
2.933747,3405
2.947772,3406
2.9416099,3407
2.9323192,3408
2.9094372,3409
2.83185,3410
2.9517398,3411
2.948897,3412
2.9588568,3413
2.9568627,3414
2.94457,3415
2.919977,3416
2.9394555,3417
2.946317,3418
2.9187412,3419
2.9286857,3420
2.9492865,3421
2.954875,3422
2.9564793,3423
2.9562848,3424
2.9537413,3425
2.951565,3426
2.9414182,3427
2.9069474,3428
2.9057205,3429
2.8953204,3430
2.9260838,3431
2.9296913,3432
2.9811249,3433
2.9753678,3434
2.9873078,3435
2.9787557,3436
2.9829278,3437
2.968711,3438
2.9356,3439
2.9332445,3440
2.9321122,3441
2.9280288,3442
2.926596,3443
2.9527855,3444
2.971941,3445
2.9185402,3446
2.9129367,3447
2.9495056,3448
2.9299393,3449
2.936819,3450
2.938786,3451
2.9566483,3452
2.9399846,3453
2.91726,3454
2.8581321,3455
2.8410804,3456
2.8767428,3457
2.8574564,3458
2.87716,3459
2.899935,3460
2.8727307,3461
2.8648791,3462
2.8863068,3463
2.8866608,3464
2.9557123,3465
2.9663293,3466
2.984915,3467
2.9796321,3468
2.9470606,3469
2.959687,3470
2.9295628,3471
2.94543,3472
2.9338896,3473
2.9680877,3474
2.9547498,3475
2.9091437,3476
2.957478,3477
2.9262986,3478
2.9375653,3479
2.9025795,3480
2.887115,3481
2.890095,3482
2.8608022,3483
2.9333954,3484
2.9885705,3485
2.9301255,3486
2.963916,3487
2.9003296,3488
2.9246418,3489
2.870523,3490
2.898275,3491
2.898803,3492
2.8790097,3493
2.8845797,3494
2.8502076,3495
2.8994439,3496
2.8890734,3497
2.9063237,3498
2.9337034,3499
2.9183047,3500
2.9347448,3501
2.927329,3502
2.9320016,3503
2.896373,3504
2.8852384,3505
2.956249,3506
2.9126282,3507
2.887838,3508
2.889576,3509
2.921693,3510
2.9097788,3511
2.908128,3512
2.9062457,3513
2.931246,3514
2.8865037,3515
2.9321458,3516
2.944055,3517
2.9169724,3518
2.8680637,3519
2.9122589,3520
2.890261,3521
2.8951123,3522
2.8902857,3523
2.9382343,3524
2.9159725,3525
2.8775198,3526
2.9034069,3527
2.9302115,3528
2.91422,3529
2.851068,3530
2.9067712,3531
2.9262493,3532
2.910851,3533
2.8624752,3534
2.8724294,3535
2.9025521,3536
2.8947845,3537
2.8466866,3538
2.7561238,3539
2.7817988,3540
2.8278577,3541
2.7912335,3542
2.8331892,3543
2.8300302,3544
2.8597891,3545
2.8406622,3546
2.8578854,3547
2.8584914,3548
2.8302917,3549
2.8871264,3550
2.9055717,3551
2.8545668,3552
2.864967,3553
2.860526,3554
2.8240175,3555
2.8593218,3556
2.86451,3557
2.8777046,3558
2.8553884,3559
2.8919623,3560
2.8420115,3561
2.8675418,3562
2.860593,3563
2.8375607,3564
2.791708,3565
2.915535,3566
2.9449744,3567
2.9347675,3568
2.912788,3569
2.9658046,3570
2.9797866,3571
2.9748802,3572
2.9820533,3573
2.9560087,3574
2.9459755,3575
2.9375377,3576
2.9262917,3577
2.9175591,3578
2.9494195,3579
2.916435,3580
2.933093,3581
2.9353473,3582
2.9567883,3583
2.9411836,3584
2.9103873,3585
2.9530814,3586
2.9230103,3587
2.8993237,3588
2.901903,3589
2.933525,3590
2.9536312,3591
2.9101844,3592
2.9403713,3593
2.9686995,3594
2.9072778,3595
2.9259388,3596
2.8530314,3597
2.863666,3598
2.8036468,3599
2.843718,3600
2.8581896,3601
2.8559737,3602
2.861817,3603
2.8977144,3604
2.9045131,3605
2.8247907,3606
2.86238,3607
2.897051,3608
2.7815206,3609
2.7118359,3610
2.8156192,3611
2.7069528,3612
2.8254278,3613
2.7819512,3614
2.8221235,3615
2.7914374,3616
2.7485979,3617
2.8200932,3618
2.8166025,3619
2.9110441,3620
2.8629334,3621
2.8945823,3622
2.8854485,3623
2.7832386,3624
2.8359725,3625
2.8034801,3626
2.781023,3627
2.8127737,3628
2.7934499,3629
2.8217227,3630
2.6841187,3631
2.5344238,3632
2.6249833,3633
2.725916,3634
2.7465696,3635
2.8084702,3636
2.82241,3637
2.7621017,3638
2.7795327,3639
2.7960494,3640
2.733887,3641
2.7087228,3642
2.772281,3643
2.842414,3644
2.8865104,3645
2.7972648,3646
2.76298,3647
2.825648,3648
2.789592,3649
2.7598877,3650
2.7411423,3651
2.7459807,3652
2.750234,3653
2.7285347,3654
2.8383029,3655
2.7913904,3656
2.8440053,3657
2.7871456,3658
2.9079647,3659
2.7942023,3660
2.903798,3661
2.8232749,3662
2.8791451,3663
2.7910905,3664
2.8397355,3665
2.8551588,3666
2.852671,3667
2.8481872,3668
2.867516,3669
2.852147,3670
2.8625672,3671
2.8461604,3672
2.9159167,3673
2.608,3674
2.6955228,3675
2.7214794,3676
2.7123032,3677
2.7331274,3678
2.7954211,3679
2.7636425,3680
2.7985418,3681
2.8116221,3682
2.8235142,3683
2.7641866,3684
2.771816,3685
2.8496284,3686
2.865084,3687
2.8252838,3688
2.8101428,3689
2.7843485,3690
2.8127766,3691
2.8130527,3692
2.8319223,3693
2.841699,3694
2.886418,3695
2.8942387,3696
2.8597887,3697
2.9283113,3698
2.870282,3699
2.86711,3700
2.8550653,3701
2.855141,3702
2.8678155,3703
2.8702087,3704
2.8667006,3705
2.8624218,3706
2.858503,3707
2.8530045,3708
2.855502,3709
2.8530865,3710
2.8800802,3711
2.89154,3712
2.8792436,3713
2.8722417,3714
2.879009,3715
2.8696702,3716
2.8752964,3717
2.8586156,3718
2.8910482,3719
2.9073846,3720
2.8872998,3721
2.8822215,3722
2.8773537,3723
2.8993783,3724
2.902324,3725
2.9052408,3726
2.9017828,3727
2.9032006,3728
2.900762,3729
2.9007223,3730
2.9060576,3731
2.9055588,3732
2.9011972,3733
2.900781,3734
2.8997164,3735
2.9022045,3736
2.8951123,3737
2.8941886,3738
2.8904476,3739
2.891566,3740
2.9365857,3741
2.8943186,3742
2.871632,3743
2.8369198,3744
2.8022838,3745
2.8363395,3746
2.8526418,3747
2.896797,3748
2.9370968,3749
2.935014,3750
2.9348097,3751
2.9405682,3752
2.9406302,3753
2.9366455,3754
2.9427872,3755
2.936598,3756
2.9342835,3757
2.9359958,3758
2.9208453,3759
2.8777032,3760
2.9003935,3761
2.8802109,3762
2.8558493,3763
2.8654068,3764
2.85826,3765
2.8409343,3766
2.9189997,3767
2.8992114,3768
2.8704474,3769
2.8992226,3770
2.8961844,3771
2.897476,3772
2.9135873,3773
2.8577445,3774
2.9191377,3775
2.9396808,3776
2.9351118,3777
2.945866,3778
2.8978012,3779
2.8864403,3780
2.8917933,3781
2.8693006,3782
2.9039958,3783
2.858946,3784
2.8357174,3785
2.8438401,3786
2.822154,3787
2.9395893,3788
2.9070926,3789
2.9276738,3790
2.9216487,3791
2.9345152,3792
2.9215596,3793
2.956717,3794
2.9316244,3795
2.937112,3796
2.9152324,3797
2.9584959,3798
2.9688463,3799
2.931157,3800
2.9539363,3801
2.9244337,3802
2.9098604,3803
2.9254785,3804
2.9396613,3805
2.8822203,3806
2.932105,3807
2.9323864,3808
2.9390142,3809
2.9247508,3810
2.881099,3811
2.8579724,3812
2.8903298,3813
2.9072022,3814
2.8388755,3815
2.8634758,3816
2.8684838,3817
2.8861966,3818
2.8272645,3819
2.8144526,3820
2.8489997,3821
2.85345,3822
2.8762605,3823
2.8487754,3824
2.8653064,3825
2.8774517,3826
2.8487453,3827
2.8518574,3828
2.8615708,3829
2.8940415,3830
2.843454,3831
2.938375,3832
2.8536866,3833
2.855165,3834
2.8792152,3835
2.8688474,3836
2.9184668,3837
2.934392,3838
2.9009418,3839
2.9119253,3840
2.9370658,3841
2.9324706,3842
2.937985,3843
2.9340556,3844
2.933804,3845
2.9506054,3846
2.9380677,3847
2.8750741,3848
2.8844285,3849
2.8245497,3850
2.8555903,3851
2.793579,3852
2.827625,3853
2.8301196,3854
2.8496,3855
2.7785113,3856
2.8490424,3857
2.933413,3858
2.8861547,3859
2.9107602,3860
2.9172733,3861
2.8843498,3862
2.8721383,3863
2.8900526,3864
2.9273415,3865
2.8713968,3866
2.9248054,3867
2.8585603,3868
2.8429892,3869
2.9043167,3870
2.8914168,3871
2.9195209,3872
2.9037597,3873
2.9305336,3874
2.9226801,3875
2.8766332,3876
2.8629472,3877
2.9051588,3878
2.8848476,3879
2.8816411,3880
2.9242506,3881
2.9143589,3882
2.941503,3883
2.8427417,3884
2.8501577,3885
2.8530736,3886
2.8026624,3887
2.7118957,3888
2.810738,3889
2.7577493,3890
2.7688048,3891
2.7705088,3892
2.8228488,3893
2.8130853,3894
2.839705,3895
2.8659205,3896
2.8782434,3897
2.890774,3898
2.8806193,3899
2.8500469,3900
2.8860958,3901
2.9396527,3902
2.9340518,3903
2.9321096,3904
2.9131901,3905
2.9352937,3906
2.9137943,3907
2.9379137,3908
2.926854,3909
2.8901665,3910
2.8658848,3911
2.8871531,3912
2.8749259,3913
2.912885,3914
2.9233506,3915
2.913601,3916
2.8841698,3917
2.8823657,3918
2.9102924,3919
2.9050558,3920
2.8768308,3921
2.897574,3922
2.9046395,3923
2.8648698,3924
2.8715649,3925
2.7953205,3926
2.8428972,3927
2.8328218,3928
2.8663056,3929
2.8868382,3930
2.836444,3931
2.8667746,3932
2.87832,3933
2.8925066,3934
2.928647,3935
2.8484762,3936
2.9067075,3937
2.8375723,3938
2.8799343,3939
2.874869,3940
2.8772132,3941
2.9021661,3942
2.8545587,3943
2.8784986,3944
2.9545155,3945
2.9076672,3946
2.851446,3947
2.8972864,3948
2.8962843,3949
2.9016068,3950
2.8876035,3951
2.801669,3952
2.9029267,3953
2.8738778,3954
2.8812733,3955
2.9252257,3956
2.9431708,3957
2.9579701,3958
2.9060502,3959
2.9748414,3960
2.8904939,3961
2.9701169,3962
2.9731495,3963
2.9186583,3964
2.9383616,3965
2.9044573,3966
2.9246252,3967
2.913453,3968
2.9640114,3969
2.898974,3970
2.8818462,3971
2.9408631,3972
2.939754,3973
2.9088557,3974
2.889076,3975
2.8937778,3976
2.9029312,3977
2.8237052,3978
2.926936,3979
2.9114356,3980
2.9374132,3981
2.8571854,3982
2.9293993,3983
2.8571212,3984
2.8931744,3985
2.833354,3986
2.8977602,3987
2.7151086,3988
2.7982645,3989
2.838293,3990
2.8387702,3991
2.8544838,3992
2.9116504,3993
2.8644817,3994
2.866983,3995
2.844624,3996
2.8628232,3997
2.808169,3998
2.7789588,3999
2.8015609,4000
2.8637824,4001
2.7893229,4002
2.8311872,4003
2.800498,4004
2.761797,4005
2.862168,4006
2.8484445,4007
2.7077098,4008
2.7588012,4009
2.7355056,4010
2.7832088,4011
2.8277278,4012
2.7746372,4013
2.7807198,4014
2.7910557,4015
2.8060985,4016
2.798445,4017
2.754086,4018
2.740577,4019
2.789017,4020
2.9551811,4021
2.970175,4022
2.9617112,4023
2.9653676,4024
2.9582286,4025
2.9544623,4026
2.9202375,4027
2.9482958,4028
2.9551814,4029
2.933834,4030
2.9319177,4031
2.9224048,4032
2.9127812,4033
2.8903134,4034
2.9178958,4035
2.8757644,4036
2.8976846,4037
2.898422,4038
2.8973966,4039
2.9292781,4040
2.9143872,4041
2.9105997,4042
2.8803008,4043
2.8741672,4044
2.8098595,4045
2.850637,4046
2.8562677,4047
2.8878763,4048
2.8605733,4049
2.8904457,4050
2.9359102,4051
2.9183793,4052
2.9422786,4053
2.927104,4054
2.8996947,4055
2.9222162,4056
2.8949077,4057
2.9401367,4058
2.8920608,4059
2.8786635,4060
2.8956316,4061
2.866389,4062
2.9119287,4063
2.8872821,4064
2.9063702,4065
2.905912,4066
2.8688865,4067
2.9426887,4068
2.9730995,4069
2.9688184,4070
2.9728398,4071
2.968418,4072
2.9700885,4073
2.9590628,4074
2.9414165,4075
2.9366305,4076
2.9304204,4077
2.9526565,4078
2.9376328,4079
2.909904,4080
2.9309497,4081
2.8945076,4082
2.9613874,4083
2.9163709,4084
2.8948843,4085
2.8591897,4086
2.907864,4087
2.8563564,4088
2.843485,4089
2.884372,4090
2.869206,4091
2.7844596,4092
2.8008678,4093
2.8417728,4094
2.8691883,4095
2.891584,4096
2.926624,4097
2.9058213,4098
2.944442,4099
2.9765542,4100
2.9647417,4101
2.9521112,4102
2.9742754,4103
2.9555056,4104
2.9519336,4105
2.931152,4106
2.9543593,4107
2.9532197,4108
2.9687505,4109
2.9315002,4110
2.9587502,4111
2.9291134,4112
2.9241996,4113
2.8861885,4114
2.8898602,4115
2.9425514,4116
2.9460258,4117
2.9616005,4118
2.9655907,4119
2.9762363,4120
2.972651,4121
2.9794326,4122
2.9643717,4123
2.9617074,4124
2.9558988,4125
2.943153,4126
2.9677255,4127
2.9667675,4128
2.9306686,4129
2.9389434,4130
2.9344175,4131
2.9060276,4132
2.9410563,4133
2.92913,4134
2.8945308,4135
2.8538122,4136
2.8785357,4137
2.8712242,4138
2.8617156,4139
2.8694665,4140
2.8027608,4141
2.9054997,4142
2.9536607,4143
2.906948,4144
2.903669,4145
2.8915913,4146
2.916231,4147
2.8645678,4148
2.9032447,4149
2.9044003,4150
2.932289,4151
2.8514936,4152
2.8845274,4153
2.9024174,4154
2.9518485,4155
2.905452,4156
2.8755858,4157
2.899497,4158
2.8737755,4159
2.8747313,4160
2.8724601,4161
2.927444,4162
2.873872,4163
2.9410145,4164
2.9796417,4165
2.9708905,4166
2.957705,4167
2.977027,4168
2.973527,4169
2.9707913,4170
2.9715893,4171
3.0006425,4172
2.9810166,4173
2.941903,4174
2.9512022,4175
2.9231148,4176
2.9195342,4177
2.946104,4178
2.9107776,4179
2.9408247,4180
2.9585044,4181
2.9524403,4182
2.9582138,4183
2.95786,4184
2.951645,4185
2.9404955,4186
2.9374151,4187
2.933824,4188
2.9592762,4189
2.9240696,4190
2.9267886,4191
2.9359171,4192
2.970131,4193
2.8911765,4194
2.9494038,4195
2.9635391,4196
2.9693706,4197
2.9645202,4198
2.970116,4199
2.958246,4200
2.941371,4201
2.9312477,4202
2.9402664,4203
2.940057,4204
2.9307468,4205
2.936744,4206
2.9444396,4207
2.9576726,4208
2.9356332,4209
2.90413,4210
2.9045317,4211
2.908122,4212
2.9582791,4213
2.9538918,4214
2.9017467,4215
2.6453524,4216
2.7004125,4217
2.7133303,4218
2.74244,4219
2.6757464,4220
2.7391217,4221
2.7150695,4222
2.7099438,4223
2.767345,4224
2.6997492,4225
2.7877455,4226
2.7884018,4227
2.83335,4228
2.6583796,4229
2.9020534,4230
2.8815575,4231
2.8509738,4232
2.9307442,4233
2.8863842,4234
2.8326268,4235
2.7421396,4236
2.69348,4237
2.7657259,4238
2.806989,4239
2.7928276,4240
2.823783,4241
2.8410327,4242
2.8176687,4243
2.7886302,4244
2.8016212,4245
2.732628,4246
2.7494833,4247
2.8071458,4248
2.649614,4249
2.694249,4250
2.721778,4251
2.7391028,4252
2.7632475,4253
2.75364,4254
2.821889,4255
2.8394485,4256
2.8607335,4257
2.8590944,4258
2.903255,4259
2.86607,4260
2.8922367,4261
2.8728192,4262
2.8719196,4263
2.906287,4264
2.914993,4265
2.8829162,4266
2.9092886,4267
2.9325197,4268
2.918308,4269
2.93121,4270
2.9210105,4271
2.8781285,4272
2.8832889,4273
2.7855103,4274
2.736445,4275
2.7801838,4276
2.81615,4277
2.7952135,4278
2.8439221,4279
2.8448775,4280
2.8578908,4281
2.8937504,4282
2.879815,4283
2.9413412,4284
2.9407024,4285
2.939355,4286
2.970969,4287
2.9267898,4288
2.9092803,4289
2.8985054,4290
2.8925195,4291
2.9166214,4292
2.8803833,4293
2.8939517,4294
2.9103332,4295
2.8590705,4296
2.8363883,4297
2.830938,4298
2.8563516,4299
2.8409238,4300
2.8172846,4301
2.8906262,4302
2.8849733,4303
2.866893,4304
2.8980713,4305
2.9037738,4306
2.9255335,4307
2.913834,4308
2.9129562,4309
2.9144523,4310
2.861691,4311
2.897085,4312
2.8353872,4313
2.9120398,4314
2.8789577,4315
2.8374069,4316
2.907033,4317
2.8414743,4318
2.7739186,4319
2.891464,4320
2.8520842,4321
2.7856143,4322
2.833263,4323
2.8240302,4324
2.843796,4325
2.8519046,4326
2.79108,4327
2.8138032,4328
2.8112752,4329
2.7998135,4330
2.7924194,4331
2.7977743,4332
2.8410115,4333
2.8433025,4334
2.8107662,4335
2.816255,4336
2.8273683,4337
2.8644283,4338
2.7962303,4339
2.7365317,4340
2.860089,4341
2.849367,4342
2.866284,4343
2.866597,4344
2.9256551,4345
2.9386425,4346
2.919867,4347
2.9213936,4348
2.9271824,4349
2.9139833,4350
2.8983276,4351
2.895021,4352
2.883422,4353
2.9103322,4354
2.8585057,4355
2.868046,4356
2.8590782,4357
2.8440583,4358
2.8683772,4359
2.9296107,4360
2.8930428,4361
2.7984583,4362
2.8124495,4363
2.8384776,4364
2.780805,4365
2.7549927,4366
2.774552,4367
2.785303,4368
2.8311155,4369
2.7441142,4370
2.7292478,4371
2.7748911,4372
2.7833912,4373
2.7894924,4374
2.7925436,4375
2.8132367,4376
2.8284714,4377
2.836721,4378
2.803077,4379
2.870635,4380
2.8201082,4381
2.8432853,4382
2.8410866,4383
2.8792217,4384
2.8576283,4385
2.8231046,4386
2.9015315,4387
2.8886273,4388
2.8611329,4389
2.8569992,4390
2.8733273,4391
2.8668792,4392
2.875342,4393
2.911217,4394
2.8658144,4395
2.8505507,4396
2.867215,4397
2.8405173,4398
2.8754172,4399
2.8512995,4400
2.8698251,4401
2.9017735,4402
2.8615315,4403
2.8871026,4404
2.864712,4405
2.8945668,4406
2.8802907,4407
2.8959737,4408
2.9113843,4409
2.8427222,4410
2.74783,4411
2.772432,4412
2.8142054,4413
2.8503582,4414
2.7548544,4415
2.8089807,4416
2.8196394,4417
2.816381,4418
2.7930474,4419
2.861809,4420
2.871783,4421
2.8967144,4422
2.9242117,4423
2.885367,4424
2.8548687,4425
2.8808377,4426
2.8105097,4427
2.8164227,4428
2.833354,4429
2.8394039,4430
2.7972767,4431
2.7912645,4432
2.787602,4433
2.7879715,4434
2.80923,4435
2.8139954,4436
2.8206675,4437
2.8331301,4438
2.8472114,4439
2.8620634,4440
2.843395,4441
2.8770318,4442
2.861592,4443
2.8732858,4444
2.8799655,4445
2.8539307,4446
2.8165457,4447
2.832293,4448
2.7960665,4449
2.80961,4450
2.8118103,4451
2.8586142,4452
2.8541763,4453
2.8174627,4454
2.8386097,4455
2.8341126,4456
2.8470094,4457
2.8556983,4458
2.8134959,4459
2.7886784,4460
2.804625,4461
2.8431284,4462
2.8633394,4463
2.8549285,4464
2.8336892,4465
2.8253865,4466
2.894289,4467
2.845565,4468
2.8626206,4469
2.8527622,4470
2.8834243,4471
2.8777301,4472
2.856179,4473
2.8568597,4474
2.8659544,4475
2.852931,4476
2.8794262,4477
2.9004025,4478
2.8633413,4479
2.8520017,4480
2.8733516,4481
2.8753474,4482
2.8633795,4483
2.8653724,4484
2.8680823,4485
2.8451807,4486
2.8577194,4487
2.8320713,4488
2.783774,4489
2.9253373,4490
2.9293394,4491
2.9297552,4492
2.9190714,4493
2.9365003,4494
2.9377217,4495
2.9379206,4496
2.939595,4497
2.9342132,4498
2.9087198,4499
2.9079666,4500
2.93665,4501
2.924712,4502
2.9205685,4503
2.9222505,4504
2.8949995,4505
2.8381214,4506
2.8025043,4507
2.7784393,4508
2.8392231,4509
2.8588164,4510
2.8693597,4511
2.8098927,4512
2.8537397,4513
2.8382566,4514
2.8457959,4515
2.8308651,4516
2.8170497,4517
2.816067,4518
2.7907104,4519
2.878034,4520
2.8268466,4521
2.7688165,4522
2.8686395,4523
2.8170226,4524
2.8860373,4525
2.8622584,4526
2.8927705,4527
2.868535,4528
2.828415,4529
2.8139138,4530
2.813001,4531
2.800136,4532
2.8674364,4533
2.830106,4534
2.8620918,4535
2.8682923,4536
2.8840108,4537
2.8413575,4538
2.8650315,4539
2.8161304,4540
2.8062606,4541
2.8428142,4542
2.8005219,4543
2.8484747,4544
2.8369958,4545
2.8342118,4546
2.876544,4547
2.7929575,4548
2.8127165,4549
2.7479887,4550
2.8617723,4551
2.8071375,4552
2.823515,4553
2.8083324,4554
2.8003876,4555
2.8371203,4556
2.8893635,4557
2.930641,4558
2.919452,4559
2.8823707,4560
2.9157526,4561
2.837428,4562
2.8652287,4563
2.8491602,4564
2.8105862,4565
2.8974237,4566
2.9345086,4567
2.9286451,4568
2.9274468,4569
2.8575428,4570
2.9212708,4571
2.8804538,4572
2.8714187,4573
2.870159,4574
2.8704846,4575
2.8882174,4576
2.8599997,4577
2.8630068,4578
2.8446386,4579
2.876567,4580
2.9338362,4581
2.8858192,4582
2.9240549,4583
2.9539404,4584
2.9215927,4585
2.9082742,4586
2.9453635,4587
2.9265244,4588
2.914556,4589
2.937304,4590
2.9141686,4591
2.9270546,4592
2.892499,4593
2.9258437,4594
2.882642,4595
2.8826566,4596
2.8902137,4597
2.853411,4598
2.8378344,4599
2.8415303,4600
2.8790367,4601
2.8993826,4602
2.968657,4603
2.9741342,4604
2.9376276,4605
2.950545,4606
2.9610288,4607
2.982254,4608
2.9279435,4609
2.9771502,4610
2.9594934,4611
2.944666,4612
2.9314182,4613
2.9556324,4614
2.9032981,4615
2.905888,4616
2.9626296,4617
2.924743,4618
2.8917477,4619
2.9553277,4620
2.9401522,4621
2.9733963,4622
2.916705,4623
2.9370055,4624
2.8730612,4625
2.9530697,4626
2.9288714,4627
2.934083,4628
2.9551566,4629
2.877789,4630
2.941721,4631
2.93237,4632
2.93855,4633
2.9466994,4634
2.8927333,4635
2.9100459,4636
2.867882,4637
2.9038115,4638
2.9274907,4639
2.911232,4640
2.9380016,4641
2.9485276,4642
2.9103265,4643
2.9279094,4644
2.940721,4645
2.935898,4646
2.9578872,4647
2.9663365,4648
2.917739,4649
2.9434066,4650
2.9431622,4651
2.9396245,4652
2.9466288,4653
2.904915,4654
2.9310029,4655
2.9103847,4656
2.915905,4657
2.9279745,4658
2.9529362,4659
2.9214573,4660
2.9209962,4661
2.9525113,4662
2.9340458,4663
2.9272408,4664
2.935238,4665
2.9373333,4666
2.946287,4667
2.9557068,4668
2.932043,4669
2.9390616,4670
2.9315073,4671
2.8780234,4672
2.8972876,4673
2.9289327,4674
2.9617152,4675
2.9600391,4676
2.9471269,4677
2.941386,4678
2.9274676,4679
2.9255998,4680
2.9298377,4681
2.91767,4682
2.9440773,4683
2.9351554,4684
2.9439387,4685
2.9405124,4686
2.9047945,4687
2.9353578,4688
2.938079,4689
2.9147332,4690
2.8884916,4691
2.9069648,4692
2.9081578,4693
2.9809968,4694
2.9795482,4695
2.9818685,4696
2.9807684,4697
2.9786432,4698
2.9822235,4699
2.9567163,4700
2.9342005,4701
2.935557,4702
2.959476,4703
2.9533591,4704
2.9586835,4705
2.9299872,4706
2.9182665,4707
2.9351647,4708
2.9527943,4709
2.9415462,4710
2.9402313,4711
2.9498289,4712
2.9445825,4713
2.9394476,4714
2.9107957,4715
2.8838336,4716
2.971702,4717
2.9445567,4718
2.8995552,4719
2.9418862,4720
2.9662442,4721
2.93334,4722
2.9566278,4723
2.9412677,4724
2.9603677,4725
2.9505808,4726
2.9672184,4727
2.9552217,4728
2.9402976,4729
2.924342,4730
2.8948722,4731
2.9189012,4732
2.9273334,4733
2.8710988,4734
2.9179974,4735
2.888447,4736
2.8884687,4737
2.911123,4738
2.9089828,4739
2.9250817,4740
2.9204235,4741
2.8794677,4742
2.9005613,4743
2.9126241,4744
2.9399235,4745
2.9503043,4746
2.9198027,4747
2.958887,4748
2.8821044,4749
2.8690636,4750
2.8608818,4751
2.9034245,4752
2.9052253,4753
2.896888,4754
2.9265332,4755
2.91346,4756
2.9263465,4757
2.9650738,4758
2.9372308,4759
2.9603348,4760
2.9397671,4761
2.9650254,4762
2.9708648,4763
2.94187,4764
2.9740787,4765
2.956689,4766
2.9346495,4767
2.910526,4768
2.9324358,4769
2.9700785,4770
2.9210942,4771
2.9545772,4772
2.9782941,4773
2.89519,4774
2.9460669,4775
2.9184723,4776
2.9015195,4777
2.9302473,4778
2.89014,4779
2.9087827,4780
2.9290974,4781
2.9010282,4782
2.8899846,4783
2.9622574,4784
2.9428406,4785
2.9333003,4786
2.918595,4787
2.929875,4788
2.9198537,4789
2.942311,4790
2.94436,4791
2.90685,4792
2.9032495,4793
2.9318974,4794
2.8907642,4795
2.826956,4796
2.8501916,4797
2.8188736,4798
2.888839,4799
2.8811433,4800
2.8716369,4801
2.9498417,4802
2.873594,4803
2.948998,4804
2.9284391,4805
2.9120872,4806
2.9538414,4807
2.963926,4808
2.9221737,4809
2.8908122,4810
2.917099,4811
2.8696723,4812
2.9030735,4813
2.8997586,4814
2.8714998,4815
2.9100726,4816
2.8640614,4817
2.9000185,4818
2.8375568,4819
2.7363272,4820
2.9356165,4821
2.898991,4822
2.8994992,4823
2.9379642,4824
2.9546852,4825
2.9787817,4826
2.9736428,4827
2.966146,4828
2.9048104,4829
2.9087741,4830
2.8828626,4831
2.894083,4832
2.8961177,4833
2.9394906,4834
2.9175627,4835
2.9260342,4836
2.912733,4837
2.9379683,4838
2.8888402,4839
2.89032,4840
2.8839793,4841
2.886371,4842
2.8574963,4843
2.904776,4844
2.919757,4845
2.8752232,4846
2.9415002,4847
2.9151566,4848
2.8983722,4849
2.9020455,4850
2.9156759,4851
2.8801727,4852
2.869365,4853
2.7983954,4854
2.83873,4855
2.7866552,4856
2.864936,4857
2.869186,4858
2.8765156,4859
2.900971,4860
2.8612456,4861
2.8950987,4862
2.871207,4863
2.8720157,4864
2.9170403,4865
2.8053503,4866
2.6643772,4867
2.786451,4868
2.7279792,4869
2.8459582,4870
2.7327433,4871
2.7397716,4872
2.7751644,4873
2.7375255,4874
2.7151175,4875
2.728336,4876
2.8042521,4877
2.8429627,4878
2.8506227,4879
2.8482637,4880
2.7160594,4881
2.7969623,4882
2.8306296,4883
2.7180424,4884
2.6931515,4885
2.6868484,4886
2.737327,4887
2.727967,4888
2.7105136,4889
2.7718914,4890
2.7379043,4891
2.563674,4892
2.656106,4893
2.7416935,4894
2.7764475,4895
2.8001475,4896
2.8470027,4897
2.7998884,4898
2.7943082,4899
2.7396092,4900
2.699324,4901
2.6119235,4902
2.6903033,4903
2.7997534,4904
2.7862215,4905
2.7606056,4906
2.7769992,4907
2.7967124,4908
2.7204103,4909
2.7118442,4910
2.7594042,4911
2.6899552,4912
2.731529,4913
2.824253,4914
2.7343864,4915
2.8492267,4916
2.7949548,4917
2.8585205,4918
2.888622,4919
2.8495579,4920
2.8094141,4921
2.8030467,4922
2.8016474,4923
2.814481,4924
2.8023944,4925
2.8025198,4926
2.8477094,4927
2.798101,4928
2.8198485,4929
2.8048463,4930
2.8006208,4931
2.7975256,4932
2.7836084,4933
2.6140933,4934
2.601847,4935
2.8178887,4936
2.8138175,4937
2.823644,4938
2.848959,4939
2.843113,4940
2.903687,4941
2.9012492,4942
2.8760967,4943
2.8154066,4944
2.782272,4945
2.7545536,4946
2.7928984,4947
2.7812927,4948
2.8263414,4949
2.7762651,4950
2.7615776,4951
2.7458656,4952
2.7587905,4953
2.7677202,4954
2.8015249,4955
2.757316,4956
2.7706008,4957
2.8429608,4958
2.866062,4959
2.836015,4960
2.8306847,4961
2.8479674,4962
2.860426,4963
2.7978024,4964
2.8535964,4965
2.8595314,4966
2.845975,4967
2.8468337,4968
2.84263,4969
2.889249,4970
2.8885689,4971
2.8872151,4972
2.8812506,4973
2.828758,4974
2.8424413,4975
2.8510497,4976
2.8525896,4977
2.8602054,4978
2.864403,4979
2.8848295,4980
2.8430886,4981
2.87962,4982
2.8540964,4983
2.8917658,4984
2.8940268,4985
2.9002907,4986
2.8989353,4987
2.8983152,4988
2.9001937,4989
2.9003398,4990
2.9057248,4991
2.9026632,4992
2.900654,4993
2.892998,4994
2.9013264,4995
2.912019,4996
2.899626,4997
2.8853147,4998
2.8973565,4999
2.8898761,5000
2.9008727,5001
2.9023113,5002
2.8990908,5003
2.8992002,5004
2.8995464,5005
2.901869,5006
2.905316,5007
2.901609,5008
2.900162,5009
2.9006166,5010
2.8987,5011
2.9061427,5012
2.9151568,5013
2.9251835,5014
2.9139252,5015
2.9485638,5016
2.926891,5017
2.9509676,5018
2.9291804,5019
2.9419932,5020
2.9129546,5021
2.8903186,5022
2.852398,5023
2.9231458,5024
2.9046977,5025
2.9136953,5026
2.875193,5027
2.839464,5028
2.8170304,5029
2.846364,5030
2.8820157,5031
2.910267,5032
2.898798,5033
2.8868787,5034
2.9033742,5035
2.9062173,5036
2.9043486,5037
2.937699,5038
2.8626466,5039
2.8809435,5040
2.8953357,5041
2.9373684,5042
2.9216173,5043
2.9159577,5044
2.9253879,5045
2.9351358,5046
2.9466653,5047
2.9262922,5048
2.8977664,5049
2.9038765,5050
2.9246368,5051
2.940333,5052
2.9167495,5053
2.912454,5054
2.926762,5055
2.9031916,5056
2.8940988,5057
2.9031465,5058
2.9004393,5059
2.9189713,5060
2.9085546,5061
2.899181,5062
2.920833,5063
2.9296026,5064
2.9183772,5065
2.943037,5066
2.911858,5067
2.9043472,5068
2.9191608,5069
2.910254,5070
2.894823,5071
2.9119687,5072
2.904817,5073
2.882552,5074
2.908782,5075
2.9235752,5076
2.9123948,5077
2.8837638,5078
2.8672748,5079
2.8819666,5080
2.9178507,5081
2.84137,5082
2.8857055,5083
2.901507,5084
2.8779416,5085
2.853334,5086
2.8994849,5087
2.890874,5088
2.8907177,5089
2.8849673,5090
2.9304473,5091
2.941737,5092
2.935617,5093
2.9356186,5094
2.9416254,5095
2.9403117,5096
2.9419057,5097
2.942059,5098
2.9366307,5099
2.9249837,5100
2.9337223,5101
2.928947,5102
2.918068,5103
2.9268138,5104
2.841913,5105
2.8744864,5106
2.8984907,5107
2.8400316,5108
2.8897452,5109
2.9021478,5110
2.9349027,5111
2.8524966,5112
2.8650773,5113
2.8763533,5114
2.9321918,5115
2.89021,5116
2.9089348,5117
2.8973248,5118
2.8824701,5119
2.8490767,5120
2.8941085,5121
2.8584895,5122
2.8714206,5123
2.8775477,5124
2.8808322,5125
2.8673828,5126
2.814647,5127
2.850535,5128
2.9121366,5129
2.9450614,5130
2.95527,5131
2.9572735,5132
2.9351883,5133
2.9544415,5134
2.942245,5135
2.9232023,5136
2.8810046,5137
2.9268007,5138
2.8865998,5139
2.9096372,5140
2.8686166,5141
2.883894,5142
2.6953366,5143
2.8590684,5144
2.8959012,5145
2.9141085,5146
2.9360752,5147
2.9387257,5148
2.9350874,5149
2.9303362,5150
2.8764577,5151
2.946613,5152
2.909865,5153
2.8880253,5154
2.944427,5155
2.8623695,5156
2.898655,5157
2.9074495,5158
2.9054656,5159
2.8846674,5160
2.8561234,5161
2.8554423,5162
2.9236734,5163
2.91293,5164
2.900913,5165
2.8583944,5166
2.881775,5167
2.8911245,5168
2.8867016,5169
2.8390996,5170
2.8530846,5171
2.8619397,5172
2.8723207,5173
2.8460782,5174
2.8676188,5175
2.8557086,5176
2.8927276,5177
2.8830962,5178
2.8832726,5179
2.9001546,5180
2.9142683,5181
2.9149477,5182
2.9117432,5183
2.8748286,5184
2.903195,5185
2.8938773,5186
2.9068394,5187
2.8400593,5188
2.8609061,5189
2.891759,5190
2.8587878,5191
2.9037368,5192
2.888119,5193
2.895456,5194
2.8868287,5195
2.8912914,5196
2.9210994,5197
2.8778229,5198
2.7970479,5199
2.8799725,5200
2.8385909,5201
2.8579257,5202
2.8694763,5203
2.9221802,5204
2.9233878,5205
2.8921647,5206
2.946395,5207
2.9041357,5208
2.8963351,5209
2.9152844,5210
2.9357336,5211
2.932693,5212
2.9138665,5213
2.8857024,5214
2.8664386,5215
2.9072824,5216
2.8954659,5217
2.9299555,5218
2.8636844,5219
2.9068813,5220
2.8334208,5221
2.8778732,5222
2.9141877,5223
2.9070039,5224
2.8864255,5225
2.848487,5226
2.8974724,5227
2.8730159,5228
2.889188,5229
2.8459647,5230
2.8947845,5231
2.894145,5232
2.86758,5233
2.8504145,5234
2.8527906,5235
2.8495686,5236
2.8631337,5237
2.8895679,5238
2.845687,5239
2.768421,5240
2.8446567,5241
2.8359053,5242
2.860158,5243
2.794733,5244
2.8884826,5245
2.8717752,5246
2.8220973,5247
2.8464353,5248
2.8203535,5249
2.761709,5250
2.8260493,5251
2.8377237,5252
2.8156993,5253
2.913325,5254
2.8165014,5255
2.881517,5256
2.897521,5257
2.7970502,5258
2.86331,5259
2.778596,5260
2.8389013,5261
2.8581407,5262
2.8317187,5263
2.7974906,5264
2.8604681,5265
2.8430533,5266
2.8414383,5267
2.8717554,5268
2.8558443,5269
2.822995,5270
2.9616117,5271
2.9654036,5272
2.9665365,5273
2.9591446,5274
2.964207,5275
2.957925,5276
2.9375231,5277
2.92629,5278
2.9210186,5279
2.9326775,5280
2.922042,5281
2.9226809,5282
2.9017396,5283
2.9339435,5284
2.8729577,5285
2.9004164,5286
2.8872147,5287
2.8920257,5288
2.9204063,5289
2.899583,5290
2.9223726,5291
2.8882134,5292
2.8836806,5293
2.8498116,5294
2.8865232,5295
2.9011734,5296
2.8757668,5297
2.887532,5298
2.8917015,5299
2.8672144,5300
2.874289,5301
2.8626776,5302
2.8665893,5303
2.8746698,5304
2.8316414,5305
2.8586528,5306
2.8650162,5307
2.8831096,5308
2.8744822,5309
2.937562,5310
2.9407325,5311
2.9646835,5312
2.9263728,5313
2.9611092,5314
2.954958,5315
2.9651768,5316
2.95185,5317
2.945976,5318
2.91567,5319
2.9181721,5320
2.9392664,5321
2.9200003,5322
2.9383962,5323
2.896057,5324
2.9182172,5325
2.9121678,5326
2.9295497,5327
2.9010615,5328
2.911486,5329
2.9265864,5330
2.9144335,5331
2.8697007,5332
2.866496,5333
2.9185507,5334
2.9015298,5335
2.9332037,5336
2.9114215,5337
2.9128294,5338
2.9539182,5339
2.9498796,5340
2.9549358,5341
2.9411757,5342
2.9564228,5343
2.937487,5344
2.9499772,5345
2.9500365,5346
2.9412506,5347
2.9173932,5348
2.9345484,5349
2.9322534,5350
2.933689,5351
2.9320505,5352
2.9192448,5353
2.9000976,5354
2.943304,5355
2.9698064,5356
2.9800231,5357
2.9812896,5358
2.9770179,5359
2.9730613,5360
2.9717963,5361
2.951707,5362
2.981404,5363
2.951917,5364
2.9707463,5365
2.9794014,5366
2.9636714,5367
2.9580328,5368
2.9458966,5369
2.9180248,5370
2.8847888,5371
2.937918,5372
2.867698,5373
2.9024763,5374
2.8461344,5375
2.881114,5376
2.8817484,5377
2.8724892,5378
2.9229052,5379
2.8645985,5380
2.9012039,5381
2.8900487,5382
2.8967085,5383
2.9351203,5384
2.9530916,5385
2.9336028,5386
2.9267719,5387
2.9748182,5388
2.967607,5389
2.956323,5390
2.900899,5391
2.9516325,5392
2.9672446,5393
2.9436235,5394
2.9468374,5395
2.9509215,5396
2.9438543,5397
2.894292,5398
2.967717,5399
2.9446604,5400
2.8924577,5401
2.930913,5402
2.9323053,5403
2.9781399,5404
2.9709325,5405
2.9219513,5406
2.9024045,5407
2.902145,5408
2.9143684,5409
2.9268787,5410
2.9320545,5411
2.9300497,5412
2.9453857,5413
2.92709,5414
2.930301,5415
2.9590778,5416
2.9611871,5417
2.9256005,5418
2.9005408,5419
2.9093359,5420
2.922418,5421
2.88296,5422
2.9451864,5423
2.929858,5424
2.9513445,5425
2.9030979,5426
2.8640957,5427
2.9193776,5428
2.8675644,5429
2.927931,5430
2.9168785,5431
2.8863595,5432
2.8369482,5433
2.8324564,5434
2.8343418,5435
2.9640932,5436
2.9683194,5437
2.9723,5438
2.9668396,5439
2.970572,5440
2.9610138,5441
2.9502714,5442
2.9087176,5443
2.8962193,5444
2.915656,5445
2.9163642,5446
2.8964763,5447
2.9101293,5448
2.8391702,5449
2.8532782,5450
2.8928514,5451
2.8327336,5452
2.8708017,5453
2.8904276,5454
2.8835123,5455
2.8403068,5456
2.8899934,5457
2.8227854,5458
2.88315,5459
2.8646865,5460
2.9003077,5461
2.819617,5462
2.9053593,5463
2.845693,5464
2.9081557,5465
2.9051826,5466
2.879882,5467
2.8779867,5468
2.880157,5469
2.9144006,5470
2.916961,5471
2.875228,5472
2.8761642,5473
2.8964279,5474
2.9063306,5475
2.9446926,5476
2.9700794,5477
2.9623222,5478
2.951432,5479
2.9479892,5480
2.926934,5481
2.8976245,5482
2.8744795,5483
2.8347754,5484
2.902976,5485
2.9133968,5486
2.8844993,5487
2.8988614,5488
2.894487,5489
2.903841,5490
2.9163115,5491
2.908511,5492
2.890629,5493
2.8674762,5494
2.8414075,5495
2.899545,5496
2.7936862,5497
2.7631125,5498
2.7213845,5499
2.7696612,5500
2.7744465,5501
2.7723477,5502
2.8565927,5503
2.8782496,5504
2.9452374,5505
2.8899708,5506
2.9380796,5507
2.9337583,5508
2.9505875,5509
2.9128418,5510
2.9221866,5511
2.9180639,5512
2.9287632,5513
2.8719826,5514
2.9322426,5515
2.9222014,5516
2.9110289,5517
2.8976326,5518
2.8861263,5519
2.898613,5520
2.898632,5521
2.915283,5522
2.8629782,5523
2.8191104,5524
2.7966087,5525
2.605856,5526
2.6000166,5527
2.6533985,5528
2.638832,5529
2.710943,5530
2.7864375,5531
2.8424058,5532
2.813148,5533
2.8344054,5534
2.8233037,5535
2.8832593,5536
2.8803716,5537
2.905558,5538
2.9182453,5539
2.8950117,5540
2.9119422,5541
2.8802147,5542
2.938065,5543
2.918162,5544
2.9351068,5545
2.8433993,5546
2.8627965,5547
2.8365984,5548
2.7899024,5549
2.802954,5550
2.806034,5551
2.8076189,5552
2.7901824,5553
2.81984,5554
2.816266,5555
2.808509,5556
2.8271694,5557
2.8574522,5558
2.873992,5559
2.8546617,5560
2.8658433,5561
2.8536923,5562
2.8877869,5563
2.877609,5564
2.8339696,5565
2.8827236,5566
2.764342,5567
2.786859,5568
2.8348775,5569
2.8554127,5570
2.8021178,5571
2.8118665,5572
2.8030221,5573
2.8192093,5574
2.8101616,5575
2.811868,5576
2.8299398,5577
2.8322427,5578
2.8409219,5579
2.8218303,5580
2.9023962,5581
2.884169,5582
2.8915617,5583
2.892327,5584
2.8436406,5585
2.8587282,5586
2.8310845,5587
2.8518307,5588
2.8590138,5589
2.8646698,5590
2.85027,5591
2.8218322,5592
2.8422933,5593
2.858501,5594
2.869246,5595
2.661155,5596
2.851863,5597
2.807434,5598
2.802933,5599
2.8193097,5600
2.843215,5601
2.8658693,5602
2.8781452,5603
2.871947,5604
2.874102,5605
2.8869922,5606
2.8939705,5607
2.8951232,5608
2.8664048,5609
2.8657632,5610
2.8525236,5611
2.7960923,5612
2.8464825,5613
2.8207994,5614
2.852818,5615
2.8452928,5616
2.8373554,5617
2.7855175,5618
2.7744539,5619
2.7765598,5620
2.7972906,5621
2.777689,5622
2.803613,5623
2.81872,5624
2.7380774,5625
2.7617621,5626
2.7636106,5627
2.7920313,5628
2.8025846,5629
2.8154156,5630
2.8404942,5631
2.754917,5632
2.813107,5633
2.8345356,5634
2.8276155,5635
2.8436394,5636
2.8374963,5637
2.8391125,5638
2.8343458,5639
2.8736966,5640
2.825626,5641
2.8540397,5642
2.9016142,5643
2.8338764,5644
2.897059,5645
2.8935773,5646
2.8754492,5647
2.9087725,5648
2.8806581,5649
2.8260825,5650
2.7248251,5651
2.792595,5652
2.785288,5653
2.7624383,5654
2.843172,5655
2.820138,5656
2.8263073,5657
2.8314693,5658
2.8352494,5659
2.8491838,5660
2.8053844,5661
2.8562117,5662
2.8673837,5663
2.8268168,5664
2.7178457,5665
2.726057,5666
2.727367,5667
2.794461,5668
2.7352138,5669
2.7619228,5670
2.7480707,5671
2.7648041,5672
2.7493272,5673
2.766232,5674
2.821195,5675
2.8216686,5676
2.8385494,5677
2.8031435,5678
2.7786477,5679
2.751689,5680
2.7799213,5681
2.7368045,5682
2.7576966,5683
2.7650084,5684
2.71621,5685
2.6670694,5686
2.7013032,5687
2.7031994,5688
2.7533934,5689
2.7244911,5690
2.7468548,5691
2.7494655,5692
2.8105168,5693
2.8064446,5694
2.806178,5695
2.7783072,5696
2.8183541,5697
2.8018115,5698
2.8178074,5699
2.7652075,5700
2.8463829,5701
2.8612063,5702
2.867935,5703
2.835737,5704
2.8596425,5705
2.8292744,5706
2.8239849,5707
2.8633783,5708
2.8268394,5709
2.8577693,5710
2.8585343,5711
2.8753862,5712
2.8641324,5713
2.8849118,5714
2.866636,5715
2.8407862,5716
2.8679883,5717
2.8903112,5718
2.863374,5719
2.8753533,5720
2.8086507,5721
2.7792263,5722
2.76321,5723
2.766495,5724
2.776274,5725
2.7186732,5726
2.7541168,5727
2.740769,5728
2.7639225,5729
2.7889416,5730
2.8241901,5731
2.8340263,5732
2.8438292,5733
2.8523335,5734
2.8117867,5735
2.5853853,5736
2.5550218,5737
2.714117,5738
2.7109084,5739
2.7498982,5740
2.7720294,5741
2.8048608,5742
2.785099,5743
2.6996162,5744
2.679028,5745
2.6717374,5746
2.704135,5747
2.820665,5748
2.8134968,5749
2.825169,5750
2.715446,5751
2.8597658,5752
2.7631862,5753
2.7242804,5754
2.7191038,5755
2.7572396,5756
2.6951113,5757
2.797744,5758
2.8039737,5759
2.7780359,5760
2.8129456,5761
2.7651863,5762
2.8062553,5763
2.8015132,5764
2.8563726,5765
2.885989,5766
2.9037194,5767
2.9081585,5768
2.8820894,5769
2.8982425,5770
2.8718524,5771
2.8974786,5772
2.9114804,5773
2.8937523,5774
2.8994699,5775
2.8929803,5776
2.9387105,5777
2.8818998,5778
2.8976746,5779
2.8873274,5780
2.870636,5781
2.9029126,5782
2.8888855,5783
2.8682714,5784
2.8533168,5785
2.8988369,5786
2.87727,5787
2.8984423,5788
2.8742766,5789
2.9094994,5790
2.9125524,5791
2.8682182,5792
2.8020873,5793
2.8090005,5794
2.8081226,5795
2.7561588,5796
2.8184922,5797
2.799093,5798
2.7659762,5799
2.6946757,5800
2.7429392,5801
2.498162,5802
2.5979939,5803
2.6902695,5804
2.7384496,5805
2.7616298,5806
2.7490058,5807
2.772441,5808
2.793611,5809
2.7825322,5810
2.7759707,5811
2.7659173,5812
2.7245302,5813
2.73118,5814
2.717316,5815
2.7522428,5816
2.7317445,5817
2.7333577,5818
2.7775593,5819
2.7153654,5820
2.7419577,5821
2.75323,5822
2.790256,5823
2.7920892,5824
2.774756,5825
2.815683,5826
2.8446066,5827
2.7903454,5828
2.8411252,5829
2.8109796,5830
2.8379564,5831
2.8174856,5832
2.8265717,5833
2.8277564,5834
2.8382633,5835
2.8845692,5836
2.8425071,5837
2.8615782,5838
2.8228118,5839
2.8419716,5840
2.8479223,5841
2.8650837,5842
2.833549,5843
2.8713496,5844
2.8513577,5845
2.848288,5846
2.7950754,5847
2.8353138,5848
2.8403554,5849
2.824598,5850
2.8393323,5851
2.8356194,5852
2.867057,5853
2.8765323,5854
2.8542743,5855
2.843387,5856
2.8719506,5857
2.8508,5858
2.8799593,5859
2.8618124,5860
2.7959676,5861
2.8106532,5862
2.7848246,5863
2.8391812,5864
2.8605235,5865
2.8494825,5866
2.8529778,5867
2.8267803,5868
2.8007848,5869
2.8666773,5870
2.8538878,5871
2.8783898,5872
2.842107,5873
2.7945313,5874
2.8309112,5875
2.817181,5876
2.7881043,5877
2.785504,5878
2.777782,5879
2.707207,5880
2.7513945,5881
2.777761,5882
2.7837377,5883
2.7857144,5884
2.8039901,5885
2.81084,5886
2.8163085,5887
2.7541277,5888
2.8807886,5889
2.853147,5890
2.8636985,5891
2.8549774,5892
2.8294175,5893
2.8206859,5894
2.5373802,5895
2.6157858,5896
2.7661102,5897
2.7486506,5898
2.8207402,5899
2.8048558,5900
2.8251638,5901
2.870327,5902
2.8940246,5903
2.8403625,5904
2.8387773,5905
2.8369327,5906
2.754025,5907
2.799133,5908
2.7983263,5909
2.7071142,5910
2.8052108,5911
2.762781,5912
2.7117367,5913
2.6982722,5914
2.7182953,5915
2.7244856,5916
2.7672284,5917
2.71754,5918
2.6677957,5919
2.4658139,5920
2.6045604,5921
2.7059774,5922
2.7289908,5923
2.6991127,5924
2.801119,5925
2.7961106,5926
2.830147,5927
2.6902184,5928
2.7464776,5929
2.7011385,5930
2.7637336,5931
2.7507105,5932
2.7252545,5933
2.8530233,5934
2.7960258,5935
2.7886844,5936
2.793298,5937
2.7124949,5938
2.8247492,5939
2.8348324,5940
2.7926512,5941
2.8183732,5942
2.7988958,5943
2.7856612,5944
2.7836244,5945
2.8637767,5946
2.8670726,5947
2.8430598,5948
2.7716541,5949
2.8093607,5950
2.8021626,5951
2.8351936,5952
2.8285398,5953
2.8257766,5954
2.8179564,5955
2.857098,5956
2.8458529,5957
2.8363242,5958
2.8468637,5959
2.6074862,5960
2.4886205,5961
2.5441082,5962
2.544782,5963
2.686071,5964
2.75268,5965
2.7680206,5966
2.7217162,5967
2.6892855,5968
2.6770856,5969
2.674205,5970
2.6156108,5971
2.7248948,5972
2.7205396,5973
2.708218,5974
2.6963544,5975
2.5901418,5976
2.6920664,5977
2.6651993,5978
2.4523141,5979
2.6747274,5980
2.7349057,5981
2.7862298,5982
2.7309027,5983
2.8480694,5984
2.8686159,5985
2.881444,5986
2.8923128,5987
2.890254,5988
2.8816805,5989
2.8828378,5990
2.8792863,5991
2.845769,5992
2.8696039,5993
2.8447573,5994
2.8573391,5995
2.8280597,5996
2.8335078,5997
2.857365,5998
2.8499217,5999
2.7927833,6000
2.7251265,6001
2.778298,6002
2.7228322,6003
2.7283769,6004
2.7253642,6005
2.7345731,6006
2.752052,6007
2.7696102,6008
2.7527826,6009
2.7469773,6010
2.8083422,6011
2.7710946,6012
2.7666733,6013
2.736288,6014
2.7354362,6015
2.7582662,6016
2.7557683,6017
2.7905567,6018
2.7631907,6019
2.7662606,6020
2.7920966,6021
2.7975705,6022
2.7361312,6023
2.7675483,6024
2.841785,6025
2.748573,6026
2.793926,6027
2.7388062,6028
2.7394779,6029
2.829944,6030
2.8142629,6031
2.7702503,6032
2.7933671,6033
2.7803624,6034
2.7932997,6035
2.738626,6036
2.7839055,6037
2.8141463,6038
2.7943184,6039
2.6624885,6040
2.7851171,6041
2.8270872,6042
2.7853172,6043
2.804965,6044
2.8173249,6045
2.8015153,6046
2.8610067,6047
2.8670685,6048
2.8860056,6049
2.8288534,6050
2.7811105,6051
2.810719,6052
2.8226948,6053
2.8438642,6054
2.8146253,6055
2.7574348,6056
2.7791917,6057
2.7438972,6058
2.620902,6059
2.6797493,6060
2.7563713,6061
2.7403426,6062
2.7787852,6063
2.8050842,6064
2.8482747,6065
2.833884,6066
2.8317635,6067
2.7845507,6068
2.8423223,6069
2.5990071,6070
2.5762246,6071
2.6606395,6072
2.7809253,6073
2.7639093,6074
2.7585025,6075
2.7663653,6076
2.8437102,6077
2.8633895,6078
2.8378308,6079
2.7910964,6080
2.7896945,6081
2.7634249,6082
2.7378392,6083
2.7749672,6084
2.7468565,6085
2.7171242,6086
2.7452176,6087
2.7668214,6088
2.7780187,6089
2.819438,6090
2.8256621,6091
2.7637796,6092
2.799331,6093
2.7970335,6094
2.840968,6095
2.908137,6096
2.8804512,6097
2.867359,6098
2.8505423,6099
2.7983868,6100
2.799508,6101
2.8738916,6102
2.8725352,6103
2.884284,6104
2.8980615,6105
2.8608277,6106
2.8887641,6107
2.8910213,6108
2.8845818,6109
2.8386261,6110
2.8524756,6111
2.7791722,6112
2.8466833,6113
2.9062655,6114
2.9168265,6115
2.9016106,6116
2.9172523,6117
2.9096043,6118
2.9110446,6119
2.9058278,6120
2.8662417,6121
2.8245263,6122
2.7461894,6123
2.8643706,6124
2.8839781,6125
2.8867729,6126
2.9087696,6127
2.902448,6128
2.8967788,6129
2.8312483,6130
2.8169937,6131
2.8889062,6132
2.8538349,6133
2.8825686,6134
2.8961155,6135
2.8545287,6136
2.8651311,6137
2.8809881,6138
2.8526483,6139
2.9005547,6140
2.814318,6141
2.8343918,6142
2.8616567,6143
2.9382849,6144
2.9438295,6145
2.9566965,6146
2.955626,6147
2.952835,6148
2.958234,6149
2.953413,6150
2.9487143,6151
2.910757,6152
2.9322903,6153
2.9427364,6154
2.9497347,6155
2.926435,6156
2.9526653,6157
2.9417098,6158
2.9364061,6159
2.9515097,6160
2.93184,6161
2.8803449,6162
2.910173,6163
2.9082346,6164
2.9040945,6165
2.9156137,6166
2.901552,6167
2.8887758,6168
2.9106536,6169
2.8768218,6170
2.9133554,6171
2.8785493,6172
2.8854487,6173
2.9327269,6174
2.8815684,6175
2.9231842,6176
2.917678,6177
2.9341078,6178
2.9614615,6179
2.852902,6180
2.8995235,6181
2.934521,6182
2.944264,6183
2.9048085,6184
2.8968585,6185
2.874252,6186
2.8780336,6187
2.8673084,6188
2.8928232,6189
2.862732,6190
2.8154595,6191
2.8810773,6192
2.884113,6193
2.8879454,6194
2.831388,6195
2.9095573,6196
2.8880086,6197
2.8919756,6198
2.9083295,6199
2.8999798,6200
2.8942974,6201
2.9083562,6202
2.9234347,6203
2.9139805,6204
2.9039001,6205
2.8728795,6206
2.8790014,6207
2.8895059,6208
2.9000916,6209
2.8564503,6210
2.9071798,6211
2.8587143,6212
2.8912382,6213
2.83882,6214
2.8214328,6215
2.8302267,6216
2.831324,6217
2.7970393,6218
2.8331878,6219
2.879944,6220
2.8554974,6221
2.8320735,6222
2.8142972,6223
2.8387473,6224
2.8062818,6225
2.7627394,6226
2.817613,6227
2.8810449,6228
2.9263828,6229
2.8793194,6230
2.9185112,6231
2.8761384,6232
2.9072716,6233
2.921799,6234
2.9149563,6235
2.9139562,6236
2.8607388,6237
2.8775225,6238
2.9477644,6239
2.8753016,6240
2.9238803,6241
2.914966,6242
2.9332867,6243
2.9496253,6244
2.883001,6245
2.8930905,6246
2.929746,6247
2.8936136,6248
2.8815236,6249
2.9081397,6250
2.840022,6251
2.873269,6252
2.8737483,6253
2.8465118,6254
2.782317,6255
2.908579,6256
2.8988874,6257
2.869361,6258
2.8828735,6259
2.883908,6260
2.8054264,6261
2.8571122,6262
2.791695,6263
2.8400123,6264
2.8925662,6265
2.8842251,6266
2.8535738,6267
2.833583,6268
2.8272126,6269
2.8987398,6270
2.8964198,6271
2.903548,6272
2.9243383,6273
2.871706,6274
2.9170706,6275
2.8567495,6276
2.6672616,6277
2.8058116,6278
2.8940754,6279
2.818088,6280
2.858193,6281
2.8364723,6282
2.8155253,6283
2.7846687,6284
2.8725188,6285
2.8414302,6286
2.8289664,6287
2.934922,6288
2.9348118,6289
2.9374652,6290
2.9406283,6291
2.935262,6292
2.9343,6293
2.9400933,6294
2.9356635,6295
2.9355795,6296
2.9356802,6297
2.9055037,6298
2.921349,6299
2.9222183,6300
2.9142635,6301
2.8812363,6302
2.9184995,6303
2.8618698,6304
2.8652534,6305
2.8166633,6306
2.8384888,6307
2.8791687,6308
2.8616443,6309
2.8827262,6310
2.8815944,6311
2.917296,6312
2.859565,6313
2.888563,6314
2.918912,6315
2.805842,6316
2.9096887,6317
2.8139358,6318
2.8802137,6319
2.9303243,6320
2.9041767,6321
2.8900688,6322
2.8528895,6323
2.9416392,6324
2.9574637,6325
2.8607175,6326
2.8930898,6327
2.9345224,6328
2.910162,6329
2.918179,6330
2.9473324,6331
2.9718719,6332
2.9556568,6333
2.9739568,6334
2.9220939,6335
2.9410725,6336
2.9267802,6337
2.9224937,6338
2.8910873,6339
2.9268982,6340
2.9438362,6341
2.8981757,6342
2.8918283,6343
2.9114347,6344
2.9417174,6345
2.9019976,6346
2.9037113,6347
2.877695,6348
2.881845,6349
2.8951435,6350
2.9013436,6351
2.8789976,6352
2.9568603,6353
2.9074817,6354
2.9301043,6355
2.7606137,6356
2.9068139,6357
2.9141984,6358
2.923441,6359
2.8436391,6360
2.833924,6361
2.8491936,6362
2.8874347,6363
2.8813882,6364
2.867155,6365
2.84612,6366
2.8583994,6367
2.8788536,6368
2.8174345,6369
2.8489325,6370
2.853247,6371
2.8614342,6372
2.8300953,6373
2.7870147,6374
2.888994,6375
2.8636754,6376
2.8968859,6377
2.8791342,6378
2.8305995,6379
2.8888633,6380
2.8713915,6381
2.90705,6382
2.9139361,6383
2.9042938,6384
2.9158006,6385
2.907608,6386
2.8905337,6387
2.8807495,6388
2.896613,6389
2.9167416,6390
2.8529208,6391
2.897562,6392
2.9118047,6393
2.8488383,6394
2.8918352,6395
2.8759007,6396
2.8499072,6397
2.9038742,6398
2.8741674,6399
2.872315,6400
2.8058114,6401
2.845824,6402
2.8658142,6403
2.8853707,6404
2.9118452,6405
2.9367986,6406
2.9313512,6407
2.8129969,6408
2.883186,6409
2.8580098,6410
2.8965502,6411
2.873069,6412
2.8591363,6413
2.8764098,6414
2.8643582,6415
2.8501189,6416
2.8927693,6417
2.868752,6418
2.8900692,6419
2.8513134,6420
2.8985753,6421
2.883053,6422
2.932738,6423
2.929745,6424
2.8419166,6425
2.8971272,6426
2.839534,6427
2.8492022,6428
2.867225,6429
2.8674095,6430
2.9260187,6431
2.8397813,6432
2.8369496,6433
2.849696,6434
2.8745852,6435
2.781018,6436
2.8119998,6437
2.8224056,6438
2.7701862,6439
2.8580978,6440
2.8525798,6441
2.7783692,6442
2.7469077,6443
2.8272054,6444
2.8296921,6445
2.8352275,6446
2.7942407,6447
2.7933085,6448
2.7724426,6449
2.805908,6450
2.7882304,6451
2.8382921,6452
2.718959,6453
2.7267694,6454
2.8644881,6455
2.7557862,6456
2.7037687,6457
2.8472672,6458
2.7712555,6459
2.855552,6460
2.7975311,6461
2.8042004,6462
2.850792,6463
2.7372003,6464
2.8600283,6465
2.7312613,6466
2.7367918,6467
2.8443115,6468
2.7288153,6469
2.8177223,6470
2.703971,6471
2.8333642,6472
2.7474768,6473
2.722209,6474
2.9518318,6475
2.970305,6476
2.9657629,6477
2.969611,6478
2.9649587,6479
2.9632833,6480
2.9354014,6481
2.9068544,6482
2.9290767,6483
2.9234517,6484
2.9250991,6485
2.895049,6486
2.91803,6487
2.8936694,6488
2.8378868,6489
2.7200358,6490
2.717041,6491
2.7424836,6492
2.7922153,6493
2.8196135,6494
2.8453572,6495
2.8387003,6496
2.7688766,6497
2.8730402,6498
2.9003062,6499
2.8980143,6500
2.8781133,6501
2.873206,6502
2.802075,6503
2.8876793,6504
2.9110281,6505
2.9308357,6506
2.880966,6507
2.8806813,6508
2.9087067,6509
2.8647387,6510
2.8758492,6511
2.887566,6512
2.9088895,6513
2.902402,6514
2.890853,6515
2.8827248,6516
2.8759296,6517
2.886539,6518
2.9376485,6519
2.9641438,6520
2.9675794,6521
2.970633,6522
2.9669843,6523
2.9266448,6524
2.8920152,6525
2.8900385,6526
2.8759727,6527
2.899894,6528
2.9293087,6529
2.919848,6530
2.9300292,6531
2.9317214,6532
2.912208,6533
2.954645,6534
2.955538,6535
2.934769,6536
2.9190452,6537
2.961837,6538
2.975326,6539
2.9255974,6540
2.9370039,6541
2.8844728,6542
2.893439,6543
2.934543,6544
2.9003556,6545
2.942534,6546
2.9236994,6547
2.895254,6548
2.9078128,6549
2.930268,6550
2.9328287,6551
2.9152517,6552
2.9440331,6553
2.9294276,6554
2.9631603,6555
2.9590616,6556
2.9172337,6557
2.9417999,6558
2.9060369,6559
2.955242,6560
2.9189806,6561
2.9414551,6562
2.884163,6563
2.9502163,6564
2.9871566,6565
2.993555,6566
2.9908414,6567
2.9898028,6568
2.986328,6569
2.9817455,6570
2.9733047,6571
2.9829044,6572
2.9612036,6573
2.9561508,6574
2.9565918,6575
2.945124,6576
2.9439929,6577
2.9185145,6578
2.9432516,6579
2.9355412,6580
2.9458563,6581
2.9423003,6582
2.93021,6583
2.8531287,6584
2.8323886,6585
2.8974183,6586
2.8741243,6587
2.8559625,6588
2.9087327,6589
2.9436142,6590
2.9349968,6591
2.9320924,6592
2.9346926,6593
2.9321532,6594
2.9127166,6595
2.9592564,6596
2.952426,6597
2.9588377,6598
2.9369266,6599
2.9650896,6600
2.9556887,6601
2.9366403,6602
2.9417012,6603
2.9506285,6604
2.9500484,6605
2.9264712,6606
2.9646711,6607
2.973523,6608
2.9559114,6609
2.9333339,6610
2.9363353,6611
2.9694664,6612
2.9550004,6613
2.9733264,6614
2.9700162,6615
3.0172617,6616
2.974087,6617
2.9735186,6618
2.999658,6619
3.0027056,6620
2.9690094,6621
2.9565592,6622
2.9040177,6623
2.9205463,6624
2.8988433,6625
2.9100697,6626
2.9458358,6627
2.9562683,6628
2.9213407,6629
2.8215742,6630
2.904398,6631
2.9124672,6632
2.9031909,6633
2.8971653,6634
2.8828378,6635
2.9153564,6636
2.838027,6637
2.8888423,6638
2.948724,6639
2.8306184,6640
2.8768487,6641
2.879618,6642
2.9029624,6643
2.9102752,6644
2.971577,6645
2.9663715,6646
2.9713466,6647
2.9666483,6648
2.9625998,6649
2.9478323,6650
2.9158404,6651
2.89955,6652
2.902516,6653
2.8917778,6654
2.898944,6655
2.911017,6656
2.9280908,6657
2.8792677,6658
2.7176676,6659
2.773284,6660
2.7944531,6661
2.8419704,6662
2.8423553,6663
2.8493876,6664
2.849071,6665
2.8355517,6666
2.9109924,6667
2.9330573,6668
2.926344,6669
2.9186788,6670
2.875686,6671
2.921386,6672
2.887751,6673
2.9196715,6674
2.895992,6675
2.914092,6676
2.9082549,6677
2.9149463,6678
2.920939,6679
2.9311986,6680
2.9668086,6681
2.96929,6682
2.970849,6683
2.9716926,6684
2.9718165,6685
2.965993,6686
2.9669907,6687
2.9496965,6688
2.9537425,6689
2.9400449,6690
2.9391794,6691
2.93583,6692
2.9284418,6693
2.90029,6694
2.9288406,6695
2.9197066,6696
2.9125092,6697
2.9090278,6698
2.8838935,6699
2.9433286,6700
2.904157,6701
2.8425157,6702
2.9048188,6703
2.9338744,6704
2.9198534,6705
2.9687958,6706
2.964243,6707
2.9778826,6708
2.986851,6709
2.9981904,6710
3.0116677,6711
2.9999578,6712
3.0021532,6713
3.0048635,6714
3.0073478,6715
3.008856,6716
2.998171,6717
2.9874794,6718
3.0048454,6719
2.989191,6720
2.992732,6721
3.0029247,6722
2.9770207,6723
2.9340816,6724
2.934076,6725
2.8868327,6726
2.9159882,6727
2.903783,6728
2.9157085,6729
2.9470165,6730
2.9368467,6731
2.9316435,6732
2.9674091,6733
2.9161913,6734
2.9148796,6735
2.9039228,6736
2.9380567,6737
2.9173682,6738
2.8465207,6739
2.8921793,6740
2.9385848,6741
2.937197,6742
2.8822846,6743
2.888766,6744
2.8818643,6745
2.9293036,6746
2.8986793,6747
2.9148555,6748
2.8848312,6749
2.8848996,6750
2.8663433,6751
2.9337604,6752
2.8686843,6753
2.9077537,6754
2.917095,6755
2.9741127,6756
2.9605732,6757
2.902823,6758
2.9351707,6759
2.9380517,6760
2.9240816,6761
2.945415,6762
2.9273307,6763
2.9194615,6764
2.8617585,6765
2.9339747,6766
2.9343257,6767
2.8928194,6768
2.8854377,6769
2.8850806,6770
2.8776057,6771
2.9005914,6772
2.8978753,6773
2.852905,6774
2.8881073,6775
2.9305758,6776
2.9419441,6777
2.9269288,6778
2.912569,6779
2.922926,6780
2.8203032,6781
2.82956,6782
2.88108,6783
2.8543315,6784
2.868036,6785
2.8711388,6786
2.8755488,6787
2.8346062,6788
2.8583777,6789
2.8581626,6790
2.8654542,6791
2.8615873,6792
2.888038,6793
2.958567,6794
2.9345036,6795
2.9634478,6796
2.9678051,6797
2.9581523,6798
2.9776666,6799
2.9829261,6800
2.985337,6801
2.9717274,6802
2.9708543,6803
2.9777558,6804
2.9526124,6805
2.9625165,6806
2.967863,6807
2.9485967,6808
2.9633627,6809
2.9466598,6810
2.950076,6811
2.9577377,6812
2.929705,6813
2.8955567,6814
2.8733783,6815
2.8192596,6816
2.9154334,6817
2.9216926,6818
2.9424849,6819
2.911612,6820
2.8809307,6821
2.8663223,6822
2.8702621,6823
2.8929148,6824
2.88087,6825
2.896029,6826
2.86301,6827
2.8931408,6828
2.887457,6829
2.9078841,6830
2.9243848,6831
2.9166095,6832
2.9513013,6833
2.9005697,6834
2.9333389,6835
2.8930666,6836
2.9113917,6837
2.9333222,6838
2.925329,6839
2.9085894,6840
2.9100792,6841
2.8695438,6842
2.8126957,6843
2.885591,6844
2.911903,6845
2.931779,6846
2.9349742,6847
2.9577482,6848
2.9424782,6849
2.9254713,6850
2.9044569,6851
2.8910956,6852
2.8950632,6853
2.877428,6854
2.923262,6855
2.8839235,6856
2.9157805,6857
2.9381483,6858
2.9138694,6859
2.915071,6860
2.9321916,6861
2.9067929,6862
2.936934,6863
2.9047453,6864
2.909056,6865
2.8852842,6866
2.8657923,6867
2.8695667,6868
2.8650823,6869
2.8061335,6870
2.8349717,6871
2.8207746,6872
2.8666763,6873
2.7838607,6874
2.8106382,6875
2.8201172,6876
2.8045874,6877
2.7931786,6878
2.851043,6879
2.8872442,6880
2.8765297,6881
2.9241083,6882
2.8620012,6883
2.8464122,6884
2.8978152,6885
2.8310254,6886
2.799605,6887
2.7819016,6888
2.813042,6889
2.7818322,6890
2.8365366,6891
2.8420794,6892
2.8114076,6893
2.832117,6894
2.828494,6895
2.8755937,6896
2.8651505,6897
2.8825927,6898
2.8570762,6899
2.8430982,6900
2.7856421,6901
2.8154993,6902
2.8169322,6903
2.846943,6904
2.8541276,6905
2.8324008,6906
2.8506365,6907
2.8273182,6908
2.8169937,6909
2.9076247,6910
2.880514,6911
2.8954136,6912
2.900167,6913
2.8675485,6914
2.8887107,6915
2.8890498,6916
2.8665366,6917
2.8979526,6918
2.8997157,6919
2.8228142,6920
2.7715793,6921
2.7333715,6922
2.812367,6923
2.7311463,6924
2.7727609,6925
2.7651815,6926
2.832292,6927
2.793917,6928
2.719414,6929
2.709301,6930
2.7171,6931
2.7595236,6932
2.7005646,6933
2.6841898,6934
2.6809592,6935
2.7224348,6936
2.6900723,6937
2.7195597,6938
2.7293332,6939
2.6811163,6940
2.6856244,6941
2.5925238,6942
2.8208814,6943
2.883095,6944
2.8501277,6945
2.8920977,6946
2.854099,6947
2.857482,6948
2.8435686,6949
2.7923496,6950
2.7692413,6951
2.7954216,6952
2.8563461,6953
2.8257995,6954
2.8377602,6955
2.830494,6956
2.8703966,6957
2.8801193,6958
2.7722528,6959
2.7882714,6960
2.7172427,6961
2.7856092,6962
2.8016474,6963
2.8371315,6964
2.8200824,6965
2.7724926,6966
2.8037648,6967
2.8251727,6968
2.8644488,6969
2.8338866,6970
2.863301,6971
2.885415,6972
2.8750148,6973
2.8687038,6974
2.8833704,6975
2.9034073,6976
2.9120858,6977
2.9173503,6978
2.8753967,6979
2.8650239,6980
2.8800633,6981
2.8169148,6982
2.8555973,6983
2.853252,6984
2.8985753,6985
2.8736384,6986
2.9066024,6987
2.8396885,6988
2.7893293,6989
2.7966695,6990
2.800142,6991
2.8442748,6992
2.7946482,6993
2.8044379,6994
2.8607278,6995
2.782403,6996
2.7635121,6997
2.7968578,6998
2.8332891,6999
2.7501955,7000
2.7522497,7001
2.7217982,7002
2.740813,7003
2.7743394,7004
2.61983,7005
2.5362675,7006
2.68808,7007
2.8214138,7008
2.7696195,7009
2.74953,7010
2.864006,7011
2.8723605,7012
2.7875896,7013
2.86372,7014
2.8207698,7015
2.781508,7016
2.7252526,7017
2.7658646,7018
2.7269955,7019
2.7065756,7020
2.768066,7021
2.7177043,7022
2.7502282,7023
2.7499943,7024
2.769521,7025
2.7309036,7026
2.7779713,7027
2.7606478,7028
2.7151637,7029
2.7751112,7030
2.7656088,7031
2.7621417,7032
2.76756,7033
2.7188196,7034
2.7596984,7035
2.7796483,7036
2.7928424,7037
2.80114,7038
2.7761211,7039
2.772492,7040
2.8016312,7041
2.744329,7042
2.8006017,7043
2.7609017,7044
2.8153455,7045
2.8509676,7046
2.8716106,7047
2.8793907,7048
2.832222,7049
2.8454664,7050
2.8384798,7051
2.7814062,7052
2.7972705,7053
2.7788987,7054
2.7795098,7055
2.8159084,7056
2.825614,7057
2.7598684,7058
2.761284,7059
2.7720132,7060
2.7325187,7061
2.787869,7062
2.7928016,7063
2.7544801,7064
2.6779304,7065
2.8174827,7066
2.8059268,7067
2.8552358,7068
2.8442152,7069
2.7093449,7070
2.750299,7071
2.7425184,7072
2.6664963,7073
2.775989,7074
2.7561133,7075
2.6893406,7076
2.7106538,7077
2.6564977,7078
2.757697,7079
2.7047129,7080
2.7235284,7081
2.736427,7082
2.7288346,7083
2.7153127,7084
2.824149,7085
2.7863903,7086
2.8010635,7087
2.75085,7088
2.7987175,7089
2.759711,7090
2.6110406,7091
2.5775943,7092
2.7160964,7093
2.7374275,7094
2.8354154,7095
2.753347,7096
2.7908492,7097
2.8568015,7098
2.8499856,7099
2.8413632,7100
2.8212442,7101
2.767846,7102
2.7386549,7103
2.7022429,7104
2.7724483,7105
2.70805,7106
2.7028968,7107
2.737376,7108
2.7564921,7109
2.7129664,7110
2.786296,7111
2.7088492,7112
2.5736604,7113
2.570528,7114
2.717431,7115
2.7787933,7116
2.7468195,7117
2.8156645,7118
2.7917392,7119
2.840964,7120
2.761065,7121
2.7528439,7122
2.7122471,7123
2.7592096,7124
2.803934,7125
2.7477512,7126
2.778238,7127
2.7933578,7128
2.8094485,7129
2.6918848,7130
2.7594147,7131
2.80063,7132
2.6862447,7133
2.7661493,7134
2.6665037,7135
2.6134868,7136
2.8065772,7137
2.7530208,7138
2.7611852,7139
2.7975576,7140
2.799583,7141
2.7768447,7142
2.793008,7143
2.764915,7144
2.7161663,7145
2.7751045,7146
2.8047235,7147
2.7265427,7148
2.7558286,7149
2.7583241,7150
2.7913873,7151
2.601018,7152
2.4762437,7153
2.621841,7154
2.7799969,7155
2.829217,7156
2.792022,7157
2.7722359,7158
2.7882836,7159
2.7813993,7160
2.700199,7161
2.6986685,7162
2.7033021,7163
2.7127674,7164
2.7746518,7165
2.7663584,7166
2.7822742,7167
2.787012,7168
2.7534728,7169
2.5005448,7170
2.511421,7171
2.7086346,7172
2.8003404,7173
2.773925,7174
2.7712607,7175
2.7823007,7176
2.7947357,7177
2.8133187,7178
2.8370664,7179
2.8724728,7180
2.8720934,7181
2.850326,7182
2.8671553,7183
2.8367858,7184
2.8876693,7185
2.8564131,7186
2.8711917,7187
2.8773813,7188
2.8325815,7189
2.7956915,7190
2.6454372,7191
2.6455626,7192
2.607817,7193
2.6669893,7194
2.687009,7195
2.7508142,7196
2.7196496,7197
2.7219024,7198
2.6897957,7199
2.725782,7200
2.7039576,7201
2.6847293,7202
2.6940138,7203
2.7115989,7204
2.6948807,7205
2.7066383,7206
2.7214463,7207
2.7510002,7208
2.750143,7209
2.7543595,7210
2.7415416,7211
2.7898538,7212
2.81512,7213
2.7323143,7214
2.731859,7215
2.6241107,7216
2.6650033,7217
2.771911,7218
2.7142277,7219
2.7611752,7220
2.8084278,7221
2.7872002,7222
2.7693155,7223
2.7747414,7224
2.7741327,7225
2.726524,7226
2.6524475,7227
2.779023,7228
2.8167448,7229
2.8502233,7230
2.7887485,7231
2.8294241,7232
2.8487763,7233
2.8682795,7234
2.8640633,7235
2.8776803,7236
2.8929007,7237
2.80524,7238
2.8535948,7239
2.8647583,7240
2.809214,7241
2.8245797,7242
2.8562171,7243
2.8060977,7244
2.782251,7245
2.639088,7246
2.599799,7247
2.7122552,7248
2.6670997,7249
2.743968,7250
2.7078652,7251
2.7998667,7252
2.7456932,7253
2.8522623,7254
2.7077694,7255
2.822106,7256
2.6662397,7257
2.6559432,7258
2.6844027,7259
2.7351024,7260
2.7713535,7261
2.7831614,7262
2.763509,7263
2.815977,7264
2.8384616,7265
2.7358341,7266
2.7673347,7267
2.7722712,7268
2.733042,7269
2.7480023,7270
2.7196004,7271
2.7988975,7272
2.7428353,7273
2.765894,7274
2.8686154,7275
2.8387017,7276
2.8761685,7277
2.8594627,7278
2.7778907,7279
2.8209486,7280
2.8739796,7281
2.8920968,7282
2.8748276,7283
2.8660896,7284
2.871378,7285
2.8404896,7286
2.868227,7287
2.9257438,7288
2.8243954,7289
2.889161,7290
2.8735209,7291
2.8995814,7292
2.8490963,7293
2.8828173,7294
2.8516552,7295
2.8499696,7296
2.8957648,7297
2.855906,7298
2.8559945,7299
2.8646686,7300
2.865546,7301
2.8762536,7302
2.9257884,7303
2.8898687,7304
2.9568229,7305
2.8939645,7306
2.919783,7307
2.9000719,7308
2.9413807,7309
2.8236778,7310
2.942103,7311
2.8129456,7312
2.9106514,7313
2.9331586,7314
2.9384902,7315
2.9318001,7316
2.9237633,7317
2.8761158,7318
2.882882,7319
2.911431,7320
2.8263876,7321
2.888812,7322
2.8655322,7323
2.884148,7324
2.8913393,7325
2.8567207,7326
2.8766713,7327
2.8842213,7328
2.8904076,7329
2.8596046,7330
2.8470771,7331
2.8994207,7332
2.823687,7333
2.8191998,7334
2.8561814,7335
2.9028444,7336
2.8866146,7337
2.8599658,7338
2.8620925,7339
2.913832,7340
2.9229949,7341
2.8817813,7342
2.923908,7343
2.9251966,7344
2.8817565,7345
2.9368534,7346
2.897934,7347
2.8887832,7348
2.903319,7349
2.925555,7350
2.8601723,7351
2.8761988,7352
2.870877,7353
2.919084,7354
2.8394845,7355
2.831858,7356
2.8693328,7357
2.9108539,7358
2.904614,7359
2.8410826,7360
2.8797445,7361
2.8644605,7362
2.894666,7363
2.8816502,7364
2.9029763,7365
2.8745408,7366
2.9056454,7367
2.901599,7368
2.872716,7369
2.9289894,7370
2.920615,7371
2.9009209,7372
2.9001324,7373
2.9204133,7374
2.8921986,7375
2.9383812,7376
2.9032965,7377
2.8565097,7378
2.8965194,7379
2.889576,7380
2.9147394,7381
2.8899837,7382
2.8801694,7383
2.880416,7384
2.8982522,7385
2.922748,7386
2.9111438,7387
2.9330297,7388
2.9430306,7389
2.9256985,7390
2.912002,7391
2.9153712,7392
2.9324062,7393
2.8951309,7394
2.8940187,7395
2.8897803,7396
2.9023085,7397
2.9047823,7398
2.9269886,7399
2.9319048,7400
2.9049346,7401
2.8731608,7402
2.904796,7403
2.8248847,7404
2.9102497,7405
2.8626308,7406
2.8077762,7407
2.8355386,7408
2.8399694,7409
2.8661997,7410
2.8950093,7411
2.8311594,7412
2.8488963,7413
2.8409545,7414
2.8093169,7415
2.8626513,7416
2.77674,7417
2.8472831,7418
2.870328,7419
2.8836226,7420
2.915876,7421
2.9116116,7422
2.872659,7423
2.625269,7424
2.8992457,7425
2.9033706,7426
2.9476943,7427
2.921163,7428
2.8751578,7429
2.8952863,7430
2.931669,7431
2.9030762,7432
2.9359722,7433
2.8891752,7434
2.8616629,7435
2.9370766,7436
2.9121099,7437
2.8757703,7438
2.8575587,7439
2.9112828,7440
2.8683717,7441
2.907562,7442
2.9438107,7443
2.9127614,7444
2.9192662,7445
2.9269466,7446
2.9093957,7447
2.930031,7448
2.9161522,7449
2.896925,7450
2.8919425,7451
2.849066,7452
2.9022198,7453
2.9104817,7454
2.9177303,7455
2.9253037,7456
2.9033859,7457
2.8378444,7458
2.8836823,7459
2.9195442,7460
2.8869598,7461
2.9537356,7462
2.9479299,7463
2.9049373,7464
2.8992,7465
2.9157276,7466
2.9399414,7467
2.922288,7468
2.9418077,7469
2.8424644,7470
2.8433855,7471
2.8453326,7472
2.836914,7473
2.8223403,7474
2.8962388,7475
2.922715,7476
2.9180074,7477
2.868203,7478
2.8537493,7479
2.8653617,7480
2.868238,7481
2.8402436,7482
2.8942049,7483
2.8750043,7484
2.8113086,7485
2.7996936,7486
2.934958,7487
2.9367115,7488
2.939519,7489
2.9415767,7490
2.9374716,7491
2.9414737,7492
2.9378998,7493
2.938309,7494
2.938482,7495
2.9378376,7496
2.8993416,7497
2.8838706,7498
2.920151,7499
2.8618767,7500
2.875659,7501
2.8680525,7502
2.8670707,7503
2.890924,7504
2.8168533,7505
2.8315985,7506
2.7973764,7507
2.8165307,7508
2.7777786,7509
2.8465612,7510
2.7749522,7511
2.8533592,7512
2.8290613,7513
2.7968698,7514
2.8436975,7515
2.7800782,7516
2.7584546,7517
2.8205163,7518
2.8240728,7519
2.8052964,7520
2.7958343,7521
2.824414,7522
2.9027753,7523
2.8698103,7524
2.8930001,7525
2.8474443,7526
2.8542337,7527
2.826456,7528
2.8794491,7529
2.8536963,7530
2.8201776,7531
2.9233115,7532
2.9367633,7533
2.9201112,7534
2.9347403,7535
2.9269602,7536
2.933817,7537
2.925135,7538
2.8999982,7539
2.9265916,7540
2.9329371,7541
2.952464,7542
2.951561,7543
2.8781319,7544
2.8978343,7545
2.906139,7546
2.9368675,7547
2.940945,7548
2.9215474,7549
2.895919,7550
2.9016433,7551
2.8949227,7552
2.913137,7553
2.9213343,7554
2.9183912,7555
2.8919666,7556
2.8881948,7557
2.824409,7558
2.9255948,7559
2.87799,7560
2.8205087,7561
2.7861183,7562
2.8760498,7563
2.8958523,7564
2.9173975,7565
2.920693,7566
2.8527455,7567
2.8557544,7568
2.8962507,7569
2.8928168,7570
2.91458,7571
2.8884487,7572
2.8713613,7573
2.8794527,7574
2.870924,7575
2.8585584,7576
2.8758109,7577
2.888795,7578
2.9039536,7579
2.8920443,7580
2.861583,7581
2.8539884,7582
2.8923788,7583
2.8883693,7584
2.8983145,7585
2.8940983,7586
2.8918617,7587
2.8701787,7588
2.8897018,7589
2.8889306,7590
2.8670094,7591
2.854007,7592
2.8602748,7593
2.884393,7594
2.8621757,7595
2.8575702,7596
2.8794186,7597
2.838078,7598
2.8887043,7599
2.8613946,7600
2.822233,7601
2.8943017,7602
2.9546432,7603
2.8966975,7604
2.961871,7605
2.9207697,7606
2.9520698,7607
2.9508867,7608
2.9025528,7609
2.9646695,7610
2.8911796,7611
2.9537358,7612
2.913218,7613
2.9618995,7614
2.7956843,7615
2.9012723,7616
2.8796787,7617
2.8746676,7618
2.8855717,7619
2.9209616,7620
2.8953068,7621
2.8904974,7622
2.9152853,7623
2.8151376,7624
2.8769343,7625
2.8676114,7626
2.900373,7627
2.8197315,7628
2.8432841,7629
2.8409846,7630
2.9017835,7631
2.8559325,7632
2.8735223,7633
2.771745,7634
2.8776588,7635
2.8121867,7636
2.891498,7637
2.9069865,7638
2.8277187,7639
2.903871,7640
2.7119346,7641
2.8724065,7642
2.7154574,7643
2.8493319,7644
2.8460934,7645
2.8167639,7646
2.8216944,7647
2.8003805,7648
2.8173673,7649
2.7198942,7650
2.8331072,7651
2.6672497,7652
2.7883823,7653
2.784783,7654
2.7538626,7655
2.7862241,7656
2.76651,7657
2.7609372,7658
2.7024012,7659
2.7534852,7660
2.6664498,7661
2.7213602,7662
2.8016024,7663
2.818468,7664
2.7032027,7665
2.9574668,7666
2.9653206,7667
2.963935,7668
2.961312,7669
2.9575574,7670
2.938738,7671
2.8801773,7672
2.881664,7673
2.896834,7674
2.9070466,7675
2.9116824,7676
2.8948085,7677
2.9156036,7678
2.8817935,7679
2.8422375,7680
2.75654,7681
2.812382,7682
2.8471873,7683
2.8564303,7684
2.8679976,7685
2.835697,7686
2.8671875,7687
2.8200011,7688
2.7158005,7689
2.7179601,7690
2.9338145,7691
2.9360251,7692
2.9296336,7693
2.8621438,7694
2.8294017,7695
2.8850765,7696
2.8877966,7697
2.9085214,7698
2.9059677,7699
2.9307964,7700
2.9206421,7701
2.9006116,7702
2.909456,7703
2.8864913,7704
2.9554012,7705
2.9720428,7706
2.9718595,7707
2.9663079,7708
2.9673753,7709
2.971,7710
2.973078,7711
2.9872098,7712
2.958552,7713
2.9415362,7714
2.9655707,7715
2.933512,7716
2.9856012,7717
2.9283755,7718
2.9379728,7719
2.9247782,7720
2.9089167,7721
2.924347,7722
2.934464,7723
2.9398525,7724
2.903133,7725
2.7777078,7726
2.822134,7727
2.8676734,7728
2.9069366,7729
2.9141407,7730
2.9267368,7731
2.9420393,7732
2.9653573,7733
2.9888046,7734
2.9976528,7735
2.9995081,7736
2.9999397,7737
3.0062423,7738
2.998222,7739
3.00544,7740
3.0029697,7741
3.0075982,7742
3.0069795,7743
3.0031576,7744
3.0072482,7745
2.9987907,7746
3.000985,7747
2.9768693,7748
2.9339492,7749
2.9316583,7750
2.9857612,7751
2.9855328,7752
2.9867208,7753
2.9898882,7754
2.9913921,7755
2.98902,7756
2.9844325,7757
2.976414,7758
2.9846177,7759
2.962101,7760
2.9751818,7761
2.9662929,7762
2.920129,7763
2.8820293,7764
2.9355292,7765
2.9209778,7766
2.9263399,7767
2.9349356,7768
2.8460307,7769
2.7682073,7770
2.8537934,7771
2.8183064,7772
2.8701658,7773
2.8851557,7774
2.875814,7775
2.9212728,7776
2.909839,7777
2.9132497,7778
2.9135854,7779
2.922689,7780
2.952412,7781
2.8863575,7782
2.953145,7783
2.8914862,7784
2.9413533,7785
2.934825,7786
2.9340026,7787
2.9086463,7788
2.9619377,7789
2.9564633,7790
2.9496868,7791
2.9576952,7792
2.988378,7793
2.9630504,7794
2.9479449,7795
2.9268441,7796
2.962927,7797
2.9572692,7798
2.9281712,7799
2.925211,7800
2.9368856,7801
2.9485722,7802
2.9243515,7803
2.931461,7804
2.9463685,7805
2.9140565,7806
2.9282374,7807
2.9264104,7808
2.9170847,7809
2.8950503,7810
2.9024162,7811
2.9140038,7812
2.8925881,7813
2.883902,7814
2.9071724,7815
2.8838384,7816
2.8877776,7817
2.8813689,7818
2.8951416,7819
2.9119225,7820
2.9271243,7821
2.8568063,7822
2.8735957,7823
2.8945608,7824
2.9297853,7825
2.9723048,7826
2.9732108,7827
2.973002,7828
2.9683983,7829
2.9631963,7830
2.925682,7831
2.9282537,7832
2.93192,7833
2.9188595,7834
2.898598,7835
2.8757539,7836
2.895618,7837
2.8690827,7838
2.8000107,7839
2.8573246,7840
2.8603258,7841
2.8888533,7842
2.8586109,7843
2.863533,7844
2.905768,7845
2.880099,7846
2.8981616,7847
2.9051454,7848
2.923299,7849
2.944978,7850
2.8531344,7851
2.9358375,7852
2.9239173,7853
2.8869104,7854
2.9267273,7855
2.9390476,7856
2.90603,7857
2.8617353,7858
2.8636289,7859
2.84018,7860
2.9150364,7861
2.9422863,7862
2.951211,7863
2.8738558,7864
2.90897,7865
2.9369907,7866
2.9416697,7867
2.9567165,7868
2.9530358,7869
2.9289846,7870
2.9352808,7871
2.922946,7872
2.9342666,7873
2.9387534,7874
2.9449801,7875
2.9438229,7876
2.9232264,7877
2.9194658,7878
2.9077125,7879
2.9373956,7880
2.9564846,7881
2.9073956,7882
2.7435863,7883
2.7336726,7884
2.7799919,7885
2.8352008,7886
2.8549535,7887
2.8685653,7888
2.861312,7889
2.9434712,7890
2.9573293,7891
2.968043,7892
2.984227,7893
2.9833014,7894
2.954791,7895
2.9892023,7896
2.9801717,7897
2.9878662,7898
2.9925046,7899
2.9826684,7900
2.9839857,7901
3.0011382,7902
2.9851205,7903
2.9692953,7904
2.9635293,7905
2.968083,7906
2.9088676,7907
2.9305477,7908
2.9226015,7909
2.8004048,7910
2.8557234,7911
2.7963743,7912
2.8351867,7913
2.895238,7914
2.834433,7915
2.9097757,7916
2.8309329,7917
2.8725152,7918
2.9269655,7919
2.9075124,7920
2.929301,7921
2.931678,7922
2.9177122,7923
2.8741598,7924
2.8816633,7925
2.8886704,7926
2.8980527,7927
2.95187,7928
2.9159555,7929
2.9059565,7930
2.8889115,7931
2.8930216,7932
2.8333979,7933
2.8217962,7934
2.8701262,7935
2.8686337,7936
2.8555493,7937
2.8419323,7938
2.837193,7939
2.8690429,7940
2.8447192,7941
2.9000726,7942
2.9117675,7943
2.9140818,7944
2.8914723,7945
2.887607,7946
2.9258113,7947
2.8927648,7948
2.9358323,7949
2.9309192,7950
2.9426694,7951
2.915613,7952
2.9249225,7953
2.9109125,7954
2.9126124,7955
2.9167044,7956
2.9025388,7957
2.944562,7958
2.9138026,7959
2.933917,7960
2.9199746,7961
2.908866,7962
2.9222474,7963
2.9175627,7964
2.9630206,7965
2.9214592,7966
2.9815724,7967
2.9857798,7968
2.9313142,7969
2.879191,7970
2.79502,7971
2.7675066,7972
2.8324916,7973
2.81269,7974
2.8267536,7975
2.8087783,7976
2.8382347,7977
2.805089,7978
2.7543106,7979
2.8849142,7980
2.914403,7981
2.8378406,7982
2.8614187,7983
2.8342946,7984
2.8827024,7985
2.8919387,7986
2.8936126,7987
2.8945544,7988
2.9239879,7989
2.9062743,7990
2.8735473,7991
2.811234,7992
2.9022174,7993
2.8202946,7994
2.8447719,7995
2.8522143,7996
2.8796856,7997
2.8619082,7998
2.8462472,7999
2.8050194,8000
2.8121958,8001
2.8170023,8002
2.7862272,8003
2.8188555,8004
2.8329084,8005
2.766119,8006
2.8073537,8007
2.7790995,8008
2.8296294,8009
2.7777815,8010
2.7376585,8011
2.7924335,8012
2.813193,8013
2.8229275,8014
2.809214,8015
2.806995,8016
2.8015602,8017
2.8023446,8018
2.8412282,8019
2.8253973,8020
2.9083638,8021
2.8748267,8022
2.8304842,8023
2.823743,8024
2.7892554,8025
2.803715,8026
2.755159,8027
2.863645,8028
2.811826,8029
2.8192093,8030
2.8704364,8031
2.846749,8032
2.8733537,8033
2.7964725,8034
2.7748716,8035
2.8185468,8036
2.7934842,8037
2.8114169,8038
2.8120322,8039
2.759893,8040
2.8201725,8041
2.8103583,8042
2.8252013,8043
2.7930913,8044
2.817607,8045
2.8489842,8046
2.8495195,8047
2.8462946,8048
2.6737905,8049
2.6492593,8050
2.6672022,8051
2.6616805,8052
2.748139,8053
2.6772876,8054
2.6770577,8055
2.7491043,8056
2.7608333,8057
2.7381344,8058
2.7850611,8059
2.8677397,8060
2.875107,8061
2.8903425,8062
2.8726544,8063
2.7616723,8064
2.7078469,8065
2.7814746,8066
2.7187023,8067
2.7571142,8068
2.716929,8069
2.7452855,8070
2.7648356,8071
2.7092526,8072
2.6906888,8073
2.7499387,8074
2.6987476,8075
2.7511983,8076
2.7099092,8077
2.7721727,8078
2.7567258,8079
2.7647169,8080
2.7760649,8081
2.7752452,8082
2.793966,8083
2.7931466,8084
2.7676127,8085
2.8099194,8086
2.8036048,8087
2.8261435,8088
2.843301,8089
2.827727,8090
2.8071969,8091
2.7753496,8092
2.8015444,8093
2.785224,8094
2.8525054,8095
2.8257647,8096
2.8527873,8097
2.854919,8098
2.7599044,8099
2.82172,8100
2.7994602,8101
2.759399,8102
2.7515738,8103
2.7737896,8104
2.7696853,8105
2.7353005,8106
2.783298,8107
2.7444882,8108
2.7785633,8109
2.8196738,8110
2.7946537,8111
2.776939,8112
2.7631133,8113
2.776546,8114
2.7853715,8115
2.7917233,8116
2.7715724,8117
2.7950644,8118
2.7834609,8119
2.7655406,8120
2.8108258,8121
2.7975528,8122
2.735864,8123
2.7854369,8124
2.78394,8125
2.7472987,8126
2.4234178,8127
2.5214326,8128
2.4855056,8129
2.577512,8130
2.6918006,8131
2.7000308,8132
2.7054427,8133
2.7183084,8134
2.7006574,8135
2.735528,8136
2.781845,8137
2.6578376,8138
2.6829906,8139
2.7155378,8140
2.7063267,8141
2.6924121,8142
2.6854053,8143
2.7405665,8144
2.675597,8145
2.6735947,8146
2.69994,8147
2.7612877,8148
2.7099562,8149
2.7330005,8150
2.6542552,8151
2.706418,8152
2.6550188,8153
2.675733,8154
2.7422457,8155
2.6877823,8156
2.7980278,8157
2.7945745,8158
2.7479045,8159
2.7921958,8160
2.76484,8161
2.7865696,8162
2.7829309,8163
2.750414,8164
2.7734396,8165
2.7432551,8166
2.756947,8167
2.765321,8168
2.7209277,8169
2.7191637,8170
2.7453094,8171
2.7891598,8172
2.7950928,8173
2.401269,8174
2.5327702,8175
2.7167327,8176
2.8371005,8177
2.7778876,8178
2.8191714,8179
2.8213625,8180
2.8244758,8181
2.7559278,8182
2.6635869,8183
2.5004573,8184
2.6109033,8185
2.681361,8186
2.722686,8187
2.8141692,8188
2.7452645,8189
2.7919781,8190
2.796348,8191
2.749158,8192
2.7085605,8193
2.7072628,8194
2.7059848,8195
2.6735418,8196
2.7466881,8197
2.7924592,8198
2.8169994,8199
2.7820344,8200
2.8106952,8201
2.7665396,8202
2.7834196,8203
2.7542005,8204
2.7555513,8205
2.7952688,8206
2.7617207,8207
2.761697,8208
2.7789795,8209
2.808081,8210
2.7607768,8211
2.8332553,8212
2.770115,8213
2.7557936,8214
2.751937,8215
2.7076273,8216
2.7289095,8217
2.7033875,8218
2.7564244,8219
2.7474744,8220
2.7888544,8221
2.766521,8222
2.7229948,8223
2.7990804,8224
2.8424363,8225
2.8049223,8226
2.753919,8227
2.812056,8228
2.8336418,8229
2.8088894,8230
2.798052,8231
2.803803,8232
2.7145872,8233
2.6201565,8234
2.7165647,8235
2.7082095,8236
2.7106693,8237
2.6258302,8238
2.6924534,8239
2.6980815,8240
2.7156126,8241
2.710694,8242
2.765341,8243
2.7045004,8244
2.7659557,8245
2.747378,8246
2.747556,8247
2.656926,8248
2.6680658,8249
2.6858273,8250
2.693075,8251
2.7141023,8252
2.6447277,8253
2.6880674,8254
2.5203462,8255
2.5105789,8256
2.699735,8257
2.7619178,8258
2.745569,8259
2.781699,8260
2.8113575,8261
2.86028,8262
2.868919,8263
2.861108,8264
2.893221,8265
2.873213,8266
2.8847315,8267
2.8839211,8268
2.8803318,8269
2.8833652,8270
2.8538759,8271
2.8431084,8272
2.830607,8273
2.8280406,8274
2.7988055,8275
2.810313,8276
2.7205617,8277
2.744808,8278
2.750294,8279
2.784928,8280
2.7778232,8281
2.7477214,8282
2.8059316,8283
2.7925658,8284
2.827373,8285
2.8276503,8286
2.731161,8287
2.7721088,8288
2.7773542,8289
2.7924385,8290
2.7607055,8291
2.8261771,8292
2.806016,8293
2.7739174,8294
2.756606,8295
2.7037823,8296
2.7643886,8297
2.814574,8298
2.7253642,8299
2.7880416,8300
2.8286839,8301
2.7506254,8302
2.801889,8303
2.7102826,8304
2.6703067,8305
2.7889981,8306
2.8021748,8307
2.803679,8308
2.8340716,8309
2.803815,8310
2.7829983,8311
2.8107662,8312
2.8752587,8313
2.823634,8314
2.805481,8315
2.8165164,8316
2.785954,8317
2.7915106,8318
2.7151737,8319
2.7687893,8320
2.8035524,8321
2.7634225,8322
2.7947316,8323
2.6567054,8324
2.6391714,8325
2.693462,8326
2.7355092,8327
2.7742233,8328
2.7575307,8329
2.8150163,8330
2.8302174,8331
2.8223035,8332
2.8305254,8333
2.8659177,8334
2.8680704,8335
2.8470218,8336
2.7829762,8337
2.8438182,8338
2.8054962,8339
2.8201368,8340
2.8156009,8341
2.7852175,8342
2.8252187,8343
2.8123324,8344
2.7594311,8345
2.761535,8346
2.785495,8347
2.7772682,8348
2.7734208,8349
2.7876534,8350
2.8266845,8351
2.8037863,8352
2.7860665,8353
2.7978513,8354
2.7613835,8355
2.7612731,8356
2.7431061,8357
2.7643275,8358
2.7571023,8359
2.7533946,8360
2.752858,8361
2.7643495,8362
2.7910607,8363
2.7744482,8364
2.7826366,8365
2.7647085,8366
2.7584147,8367
2.8063822,8368
2.8271232,8369
2.860657,8370
2.7519484,8371
2.7284274,8372
2.7757797,8373
2.779689,8374
2.767002,8375
2.7851286,8376
2.7805343,8377
2.7554905,8378
2.7677045,8379
2.7861598,8380
2.7851212,8381
2.5529003,8382
2.5070112,8383
2.5656648,8384
2.6217465,8385
2.7388463,8386
2.806692,8387
2.7779934,8388
2.7771375,8389
2.7641711,8390
2.8113337,8391
2.7508693,8392
2.7254035,8393
2.7908716,8394
2.7911773,8395
2.6693356,8396
2.722567,8397
2.7415059,8398
2.7360628,8399
2.7673826,8400
2.7857337,8401
2.7693303,8402
2.7472992,8403
2.7466605,8404
2.8000565,8405
2.7709992,8406
2.795646,8407
2.7772777,8408
2.7858715,8409
2.8084803,8410
2.8135867,8411
2.800821,8412
2.7816741,8413
2.7876093,8414
2.772405,8415
2.8122175,8416
2.801085,8417
2.8068714,8418
2.8244638,8419
2.82094,8420
2.7838964,8421
2.8116646,8422
2.8418798,8423
2.8441737,8424
2.8653297,8425
2.8346848,8426
2.778404,8427
2.5184414,8428
2.60079,8429
2.6562676,8430
2.7665732,8431
2.7614398,8432
2.7997916,8433
2.758029,8434
2.760177,8435
2.6726089,8436
2.7006495,8437
2.6411943,8438
2.704634,8439
2.6662593,8440
2.5132654,8441
2.5730405,8442
2.7224984,8443
2.700054,8444
2.678312,8445
2.7888043,8446
2.75708,8447
2.794003,8448
2.8222187,8449
2.7094152,8450
2.6989741,8451
2.5805962,8452
2.60791,8453
2.6994066,8454
2.7415984,8455
2.7400966,8456
2.7728667,8457
2.7461274,8458
2.7641087,8459
2.707527,8460
2.6750185,8461
2.639388,8462
2.6479557,8463
2.6593268,8464
2.7156653,8465
2.7022698,8466
2.6903777,8467
2.6942723,8468
2.724844,8469
2.6838877,8470
2.6925638,8471
2.7385073,8472
2.78062,8473
2.795915,8474
2.8323314,8475
2.828548,8476
2.76412,8477
2.807455,8478
2.8398614,8479
2.8604465,8480
2.8150713,8481
2.7765498,8482
2.8203115,8483
2.7615561,8484
2.737917,8485
2.7441175,8486
2.6957583,8487
2.5926151,8488
2.635931,8489
2.6586049,8490
2.7155046,8491
2.677452,8492
2.662363,8493
2.7288568,8494
2.6792605,8495
2.7107618,8496
2.7459133,8497
2.7671182,8498
2.7518895,8499
2.786836,8500
2.7914891,8501
2.7050414,8502
2.6606302,8503
2.7106326,8504
2.7475712,8505
2.728963,8506
2.6978717,8507
2.6972377,8508
2.6447666,8509
2.5738451,8510
2.7564738,8511
2.815738,8512
2.794506,8513
2.794917,8514
2.8524144,8515
2.8670309,8516
2.8843188,8517
2.877468,8518
2.888389,8519
2.8901024,8520
2.8867385,8521
2.8773704,8522
2.8846076,8523
2.8985445,8524
2.8683243,8525
2.8272831,8526
2.8505943,8527
2.7612283,8528
2.815457,8529
2.8204274,8530
2.7987678,8531
2.7503698,8532
2.7248003,8533
2.7683284,8534
2.8045957,8535
2.7395191,8536
2.782803,8537
2.828129,8538
2.8038242,8539
2.6809587,8540
2.6296918,8541
2.759868,8542
2.7369297,8543
2.7238955,8544
2.7945828,8545
2.79903,8546
2.8347847,8547
2.8585172,8548
2.8538837,8549
2.8655217,8550
2.7821445,8551
2.822318,8552
2.7604246,8553
2.7896662,8554
2.8090925,8555
2.8056664,8556
2.8504848,8557
2.8229601,8558
2.8041847,8559
2.6970205,8560
2.8432612,8561
2.8223755,8562
2.8112774,8563
2.813171,8564
2.8244858,8565
2.8249507,8566
2.8665435,8567
2.8379335,8568
2.834086,8569
2.8297577,8570
2.8229094,8571
2.782213,8572
2.7004457,8573
2.8063328,8574
2.786316,8575
2.7838314,8576
2.8060672,8577
2.7998855,8578
2.730151,8579
2.7739205,8580
2.8494475,8581
2.8500383,8582
2.85298,8583
2.869364,8584
2.8421855,8585
2.856171,8586
2.8661005,8587
2.8753276,8588
2.8846033,8589
2.8667495,8590
2.8892567,8591
2.8638353,8592
2.8362637,8593
2.874123,8594
2.867966,8595
2.8748615,8596
2.8487651,8597
2.853469,8598
2.839868,8599
2.8157854,8600
2.790132,8601
2.7944615,8602
2.8114576,8603
2.8492947,8604
2.827034,8605
2.8317652,8606
2.833068,8607
2.8226583,8608
2.7895985,8609
2.7796252,8610
2.740202,8611
2.7460816,8612
2.7666712,8613
2.7906797,8614
2.7333088,8615
2.7683372,8616
2.839604,8617
2.8762338,8618
2.8867378,8619
2.8601236,8620
2.8511646,8621
2.844139,8622
2.8402917,8623
2.7964869,8624
2.832688,8625
2.749753,8626
2.704331,8627
2.7650056,8628
2.7110167,8629
2.712616,8630
2.7288961,8631
2.7291546,8632
2.769887,8633
2.7470946,8634
2.7874374,8635
2.8003466,8636
2.7957718,8637
2.756076,8638
2.5923214,8639
2.6476836,8640
2.6805055,8641
2.7265813,8642
2.7439206,8643
2.7383182,8644
2.7110775,8645
2.7119298,8646
2.7554486,8647
2.7295709,8648
2.7634501,8649
2.7809982,8650
2.78502,8651
2.7999415,8652
2.7797241,8653
2.7872808,8654
2.71174,8655
2.7784688,8656
2.7098312,8657
2.703719,8658
2.7656198,8659
2.752328,8660
2.7263591,8661
2.7805068,8662
2.7684424,8663
2.8096893,8664
2.7984755,8665
2.7379034,8666
2.7119253,8667
2.7428112,8668
2.7605028,8669
2.7606068,8670
2.760028,8671
2.7061615,8672
2.7751932,8673
2.77095,8674
2.7155662,8675
2.7556524,8676
2.7150643,8677
2.674436,8678
2.7578304,8679
2.7753835,8680
2.7691426,8681
2.7231102,8682
2.681618,8683
2.6310318,8684
2.6919155,8685
2.742666,8686
2.7368014,8687
2.704552,8688
2.6507647,8689
2.7457707,8690
2.7556875,8691
2.7964213,8692
2.7590444,8693
2.7807038,8694
2.835286,8695
2.865399,8696
2.8578134,8697
2.7457788,8698
2.8296225,8699
2.8666155,8700
2.8587554,8701
2.8446891,8702
2.8445714,8703
2.853792,8704
2.884165,8705
2.8892097,8706
2.8047116,8707
2.6591868,8708
2.683321,8709
2.7855604,8710
2.7654564,8711
2.786335,8712
2.832386,8713
2.795657,8714
2.821737,8715
2.8382921,8716
2.8040836,8717
2.8214576,8718
2.7841396,8719
2.8022149,8720
2.766878,8721
2.7498085,8722
2.7333376,8723
2.7711961,8724
2.7651393,8725
2.744281,8726
2.7508242,8727
2.741575,8728
2.7783742,8729
2.7607243,8730
2.8050659,8731
2.7115538,8732
2.72606,8733
2.796965,8734
2.7837439,8735
2.8162518,8736
2.7954447,8737
2.7419596,8738
2.7969308,8739
2.7815068,8740
2.7284658,8741
2.743627,8742
2.7234836,8743
2.8226433,8744
2.8235967,8745
2.8118947,8746
2.8322601,8747
2.7979147,8748
2.816806,8749
2.7596483,8750
2.7457952,8751
2.7439485,8752
2.7025137,8753
2.676203,8754
2.7245286,8755
2.7362049,8756
2.799044,8757
2.7786872,8758
2.766646,8759
2.7583296,8760
2.788338,8761
2.8385963,8762
2.8389676,8763
2.8187852,8764
2.8279757,8765
2.7586038,8766
2.7872772,8767
2.8447974,8768
2.8161922,8769
2.825224,8770
2.8541813,8771
2.8105307,8772
2.8165605,8773
2.7868462,8774
2.7659101,8775
2.7408485,8776
2.7382355,8777
2.7786167,8778
2.8016791,8779
2.8141646,8780
2.7027295,8781
2.7737854,8782
2.8162591,8783
2.818247,8784
2.8218138,8785
2.849819,8786
2.8328485,8787
2.8152676,8788
2.823302,8789
2.7822192,8790
2.7857919,8791
2.8317525,8792
2.8241994,8793
2.846597,8794
2.8821626,8795
2.8106122,8796
2.9036856,8797
2.817165,8798
2.8657212,8799
2.8340292,8800
2.831408,8801
2.866876,8802
2.8690343,8803
2.8486555,8804
2.86573,8805
2.9081106,8806
2.9068618,8807
2.875336,8808
2.9063394,8809
2.904201,8810
2.8906033,8811
2.846509,8812
2.8784013,8813
2.8946648,8814
2.8670523,8815
2.8707325,8816
2.8688138,8817
2.8828354,8818
2.9054363,8819
2.9044137,8820
2.9083252,8821
2.908614,8822
2.8887718,8823
2.879512,8824
2.8947232,8825
2.889023,8826
2.8978207,8827
2.9043028,8828
2.9043329,8829
2.9010932,8830
2.9006002,8831
2.9023013,8832
2.9026473,8833
2.9061415,8834
2.90588,8835
2.9009264,8836
2.9009736,8837
2.8993583,8838
2.895528,8839
2.8851867,8840
2.8962436,8841
2.9001575,8842
2.8664882,8843
2.859364,8844
2.8800032,8845
2.894732,8846
2.8379953,8847
2.8404315,8848
2.8614943,8849
2.9113023,8850
2.8815582,8851
2.8832235,8852
2.9038332,8853
2.8971121,8854
2.9188845,8855
2.9405146,8856
2.966047,8857
2.9531558,8858
2.9593525,8859
2.934151,8860
2.9173915,8861
2.9291396,8862
2.945251,8863
2.9242837,8864
2.92056,8865
2.9186087,8866
2.9182923,8867
2.921274,8868
2.9268386,8869
2.86589,8870
2.900874,8871
2.8828545,8872
2.9007702,8873
2.9206238,8874
2.9143205,8875
2.9012372,8876
2.9188964,8877
2.8705962,8878
2.9241762,8879
2.9229343,8880
2.9187846,8881
2.9087424,8882
2.8977137,8883
2.9243035,8884
2.9317746,8885
2.9265702,8886
2.9479601,8887
2.9302735,8888
2.936593,8889
2.936819,8890
2.9226487,8891
2.9336507,8892
2.9230583,8893
2.914267,8894
2.931315,8895
2.8666987,8896
2.9284184,8897
2.9305668,8898
2.937695,8899
2.9375858,8900
2.9339938,8901
2.9411101,8902
2.9285748,8903
2.9366465,8904
2.9377646,8905
2.930099,8906
2.9138966,8907
2.9258962,8908
2.885559,8909
2.8787754,8910
2.8925574,8911
2.8944218,8912
2.882308,8913
2.9093437,8914
2.9206922,8915
2.8708203,8916
2.9074688,8917
2.880663,8918
2.867619,8919
2.871831,8920
2.8018064,8921
2.8562346,8922
2.824525,8923
2.8135548,8924
2.8725,8925
2.831113,8926
2.8548722,8927
2.8584552,8928
2.874764,8929
2.8429475,8930
2.8668957,8931
2.8662894,8932
2.8492842,8933
2.8409085,8934
2.8441393,8935
2.9074516,8936
2.9105852,8937
2.909792,8938
2.958969,8939
2.9450922,8940
2.9417613,8941
2.9237177,8942
2.9251812,8943
2.9322567,8944
2.9310741,8945
2.9404755,8946
2.8954663,8947
2.9224565,8948
2.9074144,8949
2.901294,8950
2.9557908,8951
2.9549348,8952
2.981463,8953
2.9754553,8954
2.9455895,8955
2.9236076,8956
2.8491988,8957
2.8838491,8958
2.8718128,8959
2.8728652,8960
2.8726592,8961
2.8852727,8962
2.8886538,8963
2.8856246,8964
2.9159033,8965
2.9057436,8966
2.9154332,8967
2.844701,8968
2.8696103,8969
2.840998,8970
2.8809783,8971
2.9012828,8972
2.8969462,8973
2.900541,8974
2.9634807,8975
2.8854296,8976
2.9201944,8977
2.898604,8978
2.9372907,8979
2.8927774,8980
2.9236512,8981
2.9208984,8982
2.8941603,8983
2.8791442,8984
2.8825836,8985
2.8853486,8986
2.9070082,8987
2.9031332,8988
2.9213846,8989
2.8978364,8990
2.9251308,8991
2.898213,8992
2.9282553,8993
2.9270532,8994
2.9109216,8995
2.8920085,8996
2.9441488,8997
2.9397297,8998
2.9220521,8999
2.9516943,9000
2.9467814,9001
2.9339645,9002
2.9048855,9003
2.9280066,9004
2.9310513,9005
2.924687,9006
2.9193103,9007
2.904523,9008
2.8842032,9009
2.8989508,9010
2.89611,9011
2.8916762,9012
2.8387928,9013
2.898981,9014
2.898531,9015
2.9402218,9016
2.9470694,9017
2.9368713,9018
2.9172246,9019
2.9602897,9020
2.9472818,9021
2.979179,9022
2.9700992,9023
2.932171,9024
2.9463377,9025
2.992021,9026
2.948639,9027
2.9418392,9028
2.9086215,9029
2.9153602,9030
2.8826144,9031
2.896951,9032
2.8631573,9033
2.920804,9034
2.9557242,9035
2.847086,9036
2.955483,9037
2.9529433,9038
2.918497,9039
2.9672518,9040
2.8794367,9041
2.9420245,9042
2.9282663,9043
2.876849,9044
2.9390273,9045
2.902991,9046
2.9340084,9047
2.9258509,9048
2.932678,9049
2.892639,9050
2.865397,9051
2.911484,9052
2.8698494,9053
2.898191,9054
2.8880002,9055
2.8891292,9056
2.8806791,9057
2.8773682,9058
2.8618762,9059
2.9176042,9060
2.8634098,9061
2.8941164,9062
2.905813,9063
2.9348028,9064
2.9506223,9065
2.9448447,9066
2.9650517,9067
2.9578419,9068
2.9106376,9069
2.948371,9070
2.9340582,9071
2.8727438,9072
2.962395,9073
2.9599195,9074
2.9465857,9075
2.9197483,9076
2.924593,9077
2.9253213,9078
2.9065557,9079
2.8804107,9080
2.8482282,9081
2.8901854,9082
2.9135568,9083
2.7680297,9084
2.6987448,9085
2.920309,9086
2.9055662,9087
2.8626697,9088
2.8788702,9089
2.8673015,9090
2.8745425,9091
2.929714,9092
2.8713486,9093
2.8661695,9094
2.9207988,9095
2.941532,9096
2.910021,9097
2.757358,9098
2.8523028,9099
2.8966286,9100
2.9611511,9101
2.9521341,9102
2.936902,9103
2.904152,9104
2.9227304,9105
2.9000447,9106
2.908592,9107
2.9715445,9108
2.95257,9109
2.9462962,9110
2.8985295,9111
2.886443,9112
2.9394357,9113
2.950021,9114
2.9635084,9115
2.8819118,9116
2.9463654,9117
2.9081013,9118
2.9573975,9119
2.9388325,9120
2.9345179,9121
2.846332,9122
2.814754,9123
2.8500667,9124
2.8741786,9125
2.8804395,9126
2.9064584,9127
2.938095,9128
2.9724772,9129
2.9673088,9130
2.9838436,9131
3.0009499,9132
3.023691,9133
3.0072865,9134
3.0039916,9135
2.9794376,9136
2.9513848,9137
2.956273,9138
2.9771059,9139
2.9632518,9140
2.9881818,9141
2.9734917,9142
2.9571455,9143
2.9631233,9144
2.9572816,9145
2.935058,9146
2.9273753,9147
2.9387271,9148
2.8687608,9149
2.878183,9150
2.9105408,9151
2.8813083,9152
2.8805025,9153
2.8895183,9154
2.8986459,9155
2.8740027,9156
2.8923168,9157
2.8779845,9158
2.9179177,9159
2.8856077,9160
2.90685,9161
2.9185333,9162
2.8618991,9163
2.9337113,9164
2.8845968,9165
2.872,9166
2.921909,9167
2.9375906,9168
2.9261098,9169
2.8796053,9170
2.8968246,9171
2.8639932,9172
2.8676667,9173
2.8830414,9174
2.8669934,9175
2.7951682,9176
2.7911994,9177
2.873577,9178
2.9340286,9179
2.909866,9180
2.9391563,9181
2.9055102,9182
2.8773787,9183
2.8751893,9184
2.9001656,9185
2.9281201,9186
2.9336069,9187
2.964022,9188
2.9897714,9189
3.0249145,9190
3.0209122,9191
3.0254653,9192
3.021969,9193
2.9986424,9194
3.000921,9195
3.0151558,9196
2.9880726,9197
2.9283178,9198
2.9476292,9199
2.9306107,9200
2.9334767,9201
2.9535606,9202
2.8793242,9203
2.8575609,9204
2.9049234,9205
2.9233344,9206
2.918787,9207
2.9779296,9208
2.971066,9209
2.9641793,9210
2.9422214,9211
2.9422195,9212
2.894464,9213
2.9231727,9214
2.8733277,9215
2.8849065,9216
2.9153135,9217
2.8483007,9218
2.9147618,9219
2.9187834,9220
2.9187262,9221
2.9054554,9222
2.8694596,9223
2.9181862,9224
2.9014597,9225
2.8828619,9226
2.8960385,9227
2.9416828,9228
2.9094079,9229
2.8733482,9230
2.861555,9231
2.890445,9232
2.855022,9233
2.902592,9234
2.8986645,9235
2.8858392,9236
2.8625755,9237
2.861241,9238
2.9593048,9239
2.9286375,9240
2.9405391,9241
2.9578354,9242
2.890709,9243
2.9438698,9244
2.9210496,9245
2.952759,9246
2.931887,9247
2.9532077,9248
2.9677005,9249
3.027741,9250
3.007449,9251
3.0072572,9252
3.017507,9253
3.0266695,9254
3.0316408,9255
3.0287948,9256
3.0248692,9257
2.9690206,9258
2.962818,9259
2.8640034,9260
2.9217288,9261
2.9244046,9262
2.8828042,9263
2.9139023,9264
2.9366012,9265
2.9183984,9266
2.9412558,9267
2.9516366,9268
2.9737153,9269
2.9650207,9270
2.9696057,9271
2.962308,9272
2.9170423,9273
2.9473383,9274
2.9510229,9275
2.9360247,9276
2.9454627,9277
2.8987732,9278
2.9116008,9279
2.941872,9280
2.879906,9281
2.9083102,9282
2.896159,9283
2.88805,9284
2.9175737,9285
2.8777847,9286
2.8816915,9287
2.9371877,9288
2.9115946,9289
2.8961012,9290
2.8704224,9291
2.9008682,9292
2.880846,9293
2.891079,9294
2.8810344,9295
2.878021,9296
2.8808749,9297
2.8797247,9298
2.9516532,9299
2.9403234,9300
2.9529612,9301
2.9540768,9302
2.9449716,9303
2.9275022,9304
2.892299,9305
2.9328158,9306
2.9263864,9307
2.935231,9308
2.9520388,9309
2.9780226,9310
2.9653707,9311
3.0081964,9312
3.0065398,9313
3.0046263,9314
3.003321,9315
2.9983256,9316
2.9536116,9317
2.9856734,9318
2.9808297,9319
2.9192243,9320
2.9252427,9321
2.912039,9322
2.8932753,9323
2.9078412,9324
2.893838,9325
2.872364,9326
2.8954787,9327
2.9009275,9328
2.906266,9329
2.8855512,9330
2.924267,9331
2.911693,9332
2.8697774,9333
2.8333411,9334
2.7890127,9335
2.7253165,9336
2.851286,9337
2.774684,9338
2.9504502,9339
2.9142156,9340
2.9259353,9341
2.8826063,9342
2.8518734,9343
2.891685,9344
2.8270023,9345
2.8782535,9346
2.8600447,9347
2.8941343,9348
2.9059954,9349
2.8685784,9350
2.8743243,9351
2.873336,9352
2.865348,9353
2.8383873,9354
2.9332082,9355
2.9184873,9356
2.9096837,9357
2.8975658,9358
2.9243536,9359
2.9064562,9360
2.8826175,9361
2.8978133,9362
2.8346183,9363
2.8795164,9364
2.8487003,9365
2.8915946,9366
2.872102,9367
2.8773966,9368
2.9302719,9369
2.9454684,9370
2.980529,9371
2.9693356,9372
2.9771445,9373
2.96995,9374
2.995566,9375
2.985647,9376
2.9791496,9377
2.9651632,9378
2.938141,9379
2.97913,9380
2.9305937,9381
2.8555982,9382
2.8635383,9383
2.8432198,9384
2.776203,9385
2.8121357,9386
2.821198,9387
2.8340232,9388
2.8449545,9389
2.872297,9390
2.880662,9391
2.909196,9392
2.9221828,9393
2.878745,9394
2.859902,9395
2.8964403,9396
2.883313,9397
2.8901172,9398
2.9129298,9399
2.8905365,9400
2.872925,9401
2.9017282,9402
2.8627086,9403
2.8838067,9404
2.8238916,9405
2.85536,9406
2.8209777,9407
2.850234,9408
2.7694507,9409
2.7852786,9410
2.7677958,9411
2.700916,9412
2.7160497,9413
2.8123167,9414
2.8196967,9415
2.7916555,9416
2.8225183,9417
2.732389,9418
2.8981943,9419
2.935683,9420
2.9393845,9421
2.9400647,9422
2.9344633,9423
2.9414637,9424
2.936078,9425
2.93626,9426
2.9398928,9427
2.929515,9428
2.922096,9429
2.914781,9430
2.8546274,9431
2.8519511,9432
2.8675365,9433
2.83325,9434
2.8816676,9435
2.873186,9436
2.7986639,9437
2.8877928,9438
2.912787,9439
2.892833,9440
2.9006917,9441
2.8566494,9442
2.8831332,9443
2.8835888,9444
2.892393,9445
2.8531873,9446
2.8447871,9447
2.87372,9448
2.867414,9449
2.8508086,9450
2.8722217,9451
2.878532,9452
2.9464064,9453
2.9738665,9454
2.9830825,9455
3.0051596,9456
2.9896991,9457
2.9977622,9458
3.0017993,9459
2.973897,9460
2.9326775,9461
2.9346926,9462
2.9095285,9463
2.9108746,9464
2.9060812,9465
2.9175074,9466
2.8962154,9467
2.8704956,9468
2.8903444,9469
2.9142137,9470
2.9089367,9471
2.8341537,9472
2.7736516,9473
2.8782237,9474
2.8690772,9475
2.9477649,9476
2.9451656,9477
2.951969,9478
2.9526222,9479
2.9528255,9480
2.948088,9481
2.935487,9482
2.9292433,9483
2.9257295,9484
2.9219782,9485
2.94037,9486
2.9265301,9487
2.9271302,9488
2.9343112,9489
2.9391644,9490
2.9422042,9491
2.938154,9492
2.9415362,9493
2.9390688,9494
2.9371789,9495
2.9396746,9496
2.931394,9497
2.9229,9498
2.9137516,9499
2.899372,9500
2.8447669,9501
2.8632135,9502
2.8939176,9503
2.9114273,9504
2.9252675,9505
2.939122,9506
2.9359872,9507
2.9504023,9508
2.9161775,9509
2.926492,9510
2.913252,9511
2.904194,9512
2.9340956,9513
2.9299235,9514
2.8985713,9515
2.8907168,9516
2.8965828,9517
2.9105432,9518
2.7700891,9519
2.8429067,9520
2.874723,9521
2.82748,9522
2.866007,9523
2.8834307,9524
2.8842635,9525
2.9349167,9526
3.0143642,9527
3.0002105,9528
2.9905543,9529
2.9926457,9530
2.9758453,9531
3.0160997,9532
2.9975631,9533
2.9513328,9534
2.955877,9535
2.87115,9536
2.913075,9537
2.9166641,9538
2.8901012,9539
2.8979506,9540
2.787533,9541
2.8369498,9542
2.8907092,9543
2.8794992,9544
2.7702837,9545
2.9651241,9546
2.973041,9547
2.965205,9548
2.9649265,9549
2.9597373,9550
2.9516802,9551
2.955935,9552
2.9359653,9553
2.9706635,9554
2.9598804,9555
2.9556131,9556
2.945471,9557
2.9466271,9558
2.9579294,9559
2.9252248,9560
2.9218776,9561
2.898668,9562
2.864002,9563
2.8553076,9564
2.831598,9565
2.8382306,9566
2.8875375,9567
2.8629832,9568
2.8641334,9569
2.85664,9570
2.8805873,9571
2.9084592,9572
2.8833039,9573
2.8916917,9574
2.906669,9575
2.8915944,9576
2.912558,9577
2.9283192,9578
2.9143174,9579
2.9202654,9580
2.9304874,9581
2.9162467,9582
2.9138508,9583
2.903113,9584
2.9038496,9585
2.9027452,9586
2.8953412,9587
2.8918974,9588
2.8901186,9589
2.901188,9590
2.9009056,9591
2.8914218,9592
2.8991303,9593
2.916041,9594
2.8404288,9595
2.9013925,9596
2.8374655,9597
2.877953,9598
2.8822975,9599
2.918854,9600
2.9038887,9601
2.9090068,9602
2.9804726,9603
2.9570398,9604
2.9833558,9605
3.0013845,9606
2.9734771,9607
2.9881368,9608
2.9889388,9609
2.9561396,9610
2.9755292,9611
2.9012628,9612
2.9028506,9613
2.9031622,9614
2.9137251,9615
2.885196,9616
2.9100943,9617
2.8954608,9618
2.930403,9619
2.8700678,9620
2.8758128,9621
2.8754647,9622
2.879227,9623
2.8733075,9624
2.8581347,9625
2.860984,9626
2.8677428,9627
2.8996596,9628
2.866756,9629
2.9148958,9630
2.877742,9631
2.8408065,9632
2.885673,9633
2.8943572,9634
2.9048917,9635
2.9025574,9636
2.899776,9637
2.8912416,9638
2.920409,9639
2.9043195,9640
2.908748,9641
2.899665,9642
2.9007277,9643
2.9057698,9644
2.8769674,9645
2.8847287,9646
2.891934,9647
2.8752778,9648
2.8745892,9649
2.8783057,9650
2.8725188,9651
2.8892202,9652
2.8841822,9653
2.8675976,9654
2.8665051,9655
2.8888893,9656
2.8897207,9657
2.896679,9658
2.9208097,9659
2.9008973,9660
2.8980048,9661
2.904693,9662
2.9092453,9663
2.9229875,9664
2.9008877,9665
2.900573,9666
2.9010081,9667
2.8993902,9668
2.903888,9669
2.903593,9670
2.894944,9671
2.8960357,9672
2.8955283,9673
2.9017148,9674
2.9101093,9675
2.8589213,9676
2.8780954,9677
2.8198068,9678
2.8177402,9679
2.8628786,9680
2.8775973,9681
2.887988,9682
2.926144,9683
2.925891,9684
2.9258883,9685
2.9259806,9686
2.8775868,9687
2.8953838,9688
2.8973856,9689
2.8953543,9690
2.8825386,9691
2.8658772,9692
2.8820207,9693
2.8991504,9694
2.8778093,9695
2.8483982,9696
2.852378,9697
2.819652,9698
2.8496213,9699
2.9033282,9700
2.8810308,9701
2.8739798,9702
2.860456,9703
2.901955,9704
2.8854358,9705
2.7964132,9706
2.8020144,9707
2.8569999,9708
2.7982554,9709
2.8476007,9710
2.7664447,9711
2.7895577,9712
2.779819,9713
2.7372882,9714
2.7808268,9715
2.7753599,9716
2.7865038,9717
2.8144612,9718
2.786476,9719
2.7885318,9720
2.7479422,9721
2.7439728,9722
2.7800288,9723
2.8239737,9724
2.8308659,9725
2.7032518,9726
2.7841356,9727
2.7382631,9728
2.7672348,9729
2.7622552,9730
2.8079693,9731
2.7832665,9732
2.8484168,9733
2.8494163,9734
2.9316435,9735
2.9355562,9736
2.9377172,9737
2.9215155,9738
2.9339652,9739
2.939759,9740
2.932795,9741
2.931962,9742
2.9393864,9743
2.935019,9744
2.863386,9745
2.9060402,9746
2.9070623,9747
2.9214962,9748
2.9046984,9749
2.8828578,9750
2.846238,9751
2.877193,9752
2.928556,9753
2.9136176,9754
2.8930128,9755
2.8874857,9756
2.8410718,9757
2.8814821,9758
2.9184198,9759
2.8877552,9760
2.8178797,9761
2.8782086,9762
2.8581035,9763
2.9202826,9764
2.9418943,9765
3.0053208,9766
3.0073075,9767
3.0224938,9768
3.0291917,9769
3.0256388,9770
3.0050678,9771
3.0177002,9772
3.007166,9773
2.9896877,9774
3.003097,9775
2.954547,9776
2.9591117,9777
2.9390619,9778
2.8975418,9779
2.969359,9780
2.9220262,9781
2.9174833,9782
2.9403217,9783
2.8964524,9784
2.9228723,9785
2.893091,9786
2.9016514,9787
2.9053345,9788
2.872014,9789
2.868758,9790
2.8349876,9791
2.894455,9792
2.9064236,9793
2.892913,9794
2.9259899,9795
2.9556704,9796
2.9551446,9797
2.9594963,9798
2.9534829,9799
2.9489758,9800
2.9042761,9801
2.8753738,9802
2.8844147,9803
2.8950162,9804
2.9247046,9805
2.9380488,9806
2.9226973,9807
2.9392881,9808
2.931969,9809
2.9392166,9810
2.934418,9811
2.9408312,9812
2.9338849,9813
2.932895,9814
2.94074,9815
2.9363225,9816
2.935936,9817
2.9219344,9818
2.9047496,9819
2.8792567,9820
2.8917518,9821
2.88992,9822
2.8379855,9823
2.861216,9824
2.9193494,9825
2.9153485,9826
2.909835,9827
2.9157612,9828
2.9043276,9829
2.9183831,9830
2.890651,9831
2.9000566,9832
2.8796175,9833
2.8782175,9834
2.9082613,9835
2.9384928,9836
2.9244707,9837
2.9444902,9838
2.9474795,9839
2.9175496,9840
2.8992848,9841
2.8934069,9842
2.9181018,9843
2.8868592,9844
2.9064705,9845
2.901907,9846
2.9972088,9847
2.9800184,9848
3.0022922,9849
3.0167215,9850
3.0079777,9851
3.0160706,9852
3.0321805,9853
3.0115683,9854
2.9901395,9855
2.97595,9856
2.9755738,9857
2.932184,9858
2.9171076,9859
2.8830118,9860
2.9113674,9861
2.9344385,9862
2.9396555,9863
2.9298537,9864
2.9292526,9865
2.958126,9866
2.9637723,9867
2.9546945,9868
2.9387043,9869
2.9495194,9870
2.944808,9871
2.9429684,9872
2.9073029,9873
2.9527104,9874
2.9363804,9875
2.9303694,9876
2.905266,9877
2.9419677,9878
2.9654124,9879
2.9478877,9880
2.9418387,9881
2.9511557,9882
2.9623408,9883
2.93107,9884
2.9417334,9885
2.9270492,9886
2.917097,9887
2.9537072,9888
2.941658,9889
2.9468827,9890
2.9384654,9891
2.907884,9892
2.9614031,9893
2.9200401,9894
2.8932402,9895
2.900643,9896
2.902527,9897
2.8988338,9898
2.8997724,9899
2.903862,9900
2.9047232,9901
2.9012635,9902
2.9010787,9903
2.9012358,9904
2.9057443,9905
2.9062107,9906
2.9011476,9907
2.8990717,9908
2.8996015,9909
2.895925,9910
2.8930817,9911
2.8554642,9912
2.8722417,9913
2.8726258,9914
2.8761055,9915
2.8685408,9916
2.88375,9917
2.8706455,9918
2.874354,9919
2.8694582,9920
2.8711867,9921
2.8622246,9922
2.869255,9923
2.8643162,9924
2.86164,9925
2.882558,9926
2.8866978,9927
2.890978,9928
2.8956718,9929
2.8997774,9930
2.9061584,9931
2.9059944,9932
2.9022837,9933
2.9009101,9934
2.8889782,9935
2.8743455,9936
2.8687239,9937
2.884244,9938
2.8696723,9939
2.8738744,9940
2.869446,9941
2.8675377,9942
2.8882885,9943
2.850017,9944
2.879311,9945
2.8832512,9946
2.8857126,9947
2.9012465,9948
2.8885367,9949
2.8915758,9950
2.9057257,9951
2.8977294,9952
2.9001,9953
2.8905327,9954
2.8775442,9955
2.8854363,9956
2.857029,9957
2.8984137,9958
2.891502,9959
2.906736,9960
2.8936737,9961
2.8700178,9962
2.8658946,9963
2.8998718,9964
2.8857284,9965
2.868857,9966
2.8471913,9967
2.9011176,9968
2.9017456,9969
2.8976507,9970
2.9001312,9971
2.899593,9972
2.90439,9973
2.9062805,9974
2.9021056,9975
2.9010913,9976
2.9008977,9977
2.9013007,9978
2.901083,9979
2.900037,9980
2.9013522,9981
2.8953977,9982
2.8969564,9983
2.9050355,9984
2.8867316,9985
2.8854613,9986
2.901112,9987
2.8896806,9988
2.8857367,9989
2.8833919,9990
2.8775334,9991
2.8496673,9992
2.8524399,9993
2.883231,9994
2.9682574,9995
2.9753046,9996
2.9603598,9997
2.9588957,9998
2.9606004,9999
2.9569118,10000
2.942941,10001
2.9134433,10002
2.88554,10003
2.8994644,10004
2.8895655,10005
2.8860834,10006
2.8811893,10007
2.896334,10008
2.8963475,10009
2.9007998,10010
2.9037583,10011
2.8997555,10012
2.89941,10013
2.8993363,10014
2.8989668,10015
2.903963,10016
2.8985026,10017
2.9011595,10018
2.896012,10019
2.8983915,10020
2.8935897,10021
2.899278,10022
2.900234,10023
2.894383,10024
2.892699,10025
2.8843367,10026
2.8893409,10027
2.888953,10028
2.901105,10029
2.8690648,10030
2.89198,10031
2.8630779,10032
2.8929594,10033
2.8768215,10034
2.8993495,10035
2.851789,10036
2.8819938,10037
2.912357,10038
2.9058495,10039
2.9183211,10040
2.9326553,10041
2.9005094,10042
2.9206812,10043
2.8827488,10044
2.9164872,10045
2.8745477,10046
2.8785427,10047
2.7915306,10048
2.740238,10049
2.7418156,10050
2.750123,10051
2.757474,10052
2.7725618,10053
2.7824435,10054
2.7873833,10055
2.7584329,10056
2.7786357,10057
2.7958486,10058
2.769286,10059
2.7407756,10060
2.7877083,10061
2.80853,10062
2.8110301,10063
2.7718155,10064
2.7770004,10065
2.792553,10066
2.7551992,10067
2.7561233,10068
2.7566578,10069
2.7352798,10070
2.7398663,10071
2.746597,10072
2.735422,10073
2.7616725,10074
2.741519,10075
2.740586,10076
2.7405658,10077
2.7444196,10078
2.7401004,10079
2.738518,10080
2.7398732,10081
2.7405205,10082
2.7402036,10083
2.734864,10084
2.7479146,10085
2.755397,10086
2.8199,10087
2.9115357,10088
2.9375496,10089
2.9692054,10090
2.96421,10091
3.018619,10092
3.0050886,10093
2.9849331,10094
2.996673,10095
2.9350052,10096
2.9570541,10097
2.9064605,10098
2.833068,10099
2.8102612,10100
2.8196666,10101
2.8359396,10102
2.8826177,10103
2.8585494,10104
2.8697786,10105
2.8892193,10106
2.8970866,10107
2.900344,10108
2.9016318,10109
2.8986259,10110
2.9024463,10111
2.8552642,10112
2.8040154,10113
2.8143334,10114
2.8266265,10115
2.8304503,10116
2.8264494,10117
2.8198423,10118
2.8496847,10119
2.8683217,10120
2.8261528,10121
2.8681629,10122
2.8831806,10123
2.891824,10124
2.8826044,10125
2.8534262,10126
2.8919456,10127
2.8887956,10128
2.8989415,10129
2.8912518,10130
2.9057245,10131
2.9059649,10132
2.9047596,10133
2.8500047,10134
2.8512983,10135
2.8783937,10136
2.9109104,10137
2.9174335,10138
2.914483,10139
2.93052,10140
2.9396493,10141
2.9363415,10142
2.9316607,10143
2.9174795,10144
2.8828254,10145
2.8768034,10146
2.8978534,10147
2.851844,10148
2.8603525,10149
2.8251965,10150
2.8121376,10151
2.7949471,10152
2.7634103,10153
2.7720113,10154
2.7541296,10155
2.7664957,10156
2.7684393,10157
2.8054986,10158
2.9048676,10159
2.9817157,10160
2.9647815,10161
2.988204,10162
2.9851208,10163
3.0124464,10164
3.0140285,10165
2.9691455,10166
2.954651,10167
2.9650748,10168
2.935013,10169
2.8887591,10170
2.8757875,10171
2.8591633,10172
2.9143896,10173
2.929389,10174
2.9108472,10175
2.8698208,10176
2.8705614,10177
2.9146848,10178
2.9293714,10179
2.8897002,10180
2.8995311,10181
2.921459,10182
2.9497936,10183
2.9069605,10184
2.925844,10185
2.9053183,10186
2.890257,10187
2.9056656,10188
2.8642101,10189
2.899715,10190
2.9324114,10191
2.9323227,10192
2.9171243,10193
2.9196012,10194
2.9344518,10195
2.9118967,10196
2.8912067,10197
2.8824399,10198
2.8754823,10199
2.8737004,10200
2.8743076,10201
2.873946,10202
2.8901095,10203
2.865963,10204
2.8769603,10205
2.8655946,10206
2.870335,10207
2.874046,10208
2.868408,10209
2.8597255,10210
2.8408413,10211
2.8244667,10212
2.8187778,10213
2.8148134,10214
2.8674576,10215
2.8812175,10216
2.9095347,10217
2.8501542,10218
2.8647988,10219
2.8390172,10220
2.876281,10221
2.8552034,10222
2.854631,10223
2.8601484,10224
2.9003525,10225
2.949099,10226
2.9757836,10227
2.9980695,10228
3.013393,10229
3.0029285,10230
2.982945,10231
3.0136793,10232
3.0185394,10233
3.002932,10234
2.9736338,10235
2.9683938,10236
2.928066,10237
2.911764,10238
2.8740606,10239
2.8739007,10240
2.9048338,10241
2.8531864,10242
2.8777683,10243
2.9161015,10244
2.9411178,10245
2.9320471,10246
2.9466362,10247
2.9332905,10248
2.9233055,10249
2.8694928,10250
2.8605561,10251
2.8881717,10252
2.8628752,10253
2.862937,10254
2.8829265,10255
2.8155448,10256
2.8788056,10257
2.9101925,10258
2.9166453,10259
2.9143274,10260
2.912584,10261
2.9389224,10262
2.9267814,10263
2.919584,10264
2.91399,10265
2.919172,10266
2.9013994,10267
2.8819256,10268
2.893428,10269
2.8905702,10270
2.906325,10271
2.8997068,10272
2.8997197,10273
2.9046087,10274
2.9059253,10275
2.9017067,10276
2.9006834,10277
2.9014914,10278
2.906336,10279
2.9058158,10280
2.905369,10281
2.9023728,10282
2.9003744,10283
2.900075,10284
2.8963766,10285
2.8905573,10286
2.890022,10287
2.8861227,10288
2.8941627,10289
2.8770916,10290
2.8934565,10291
2.8159773,10292
2.8807716,10293
2.8533847,10294
2.8270838,10295
2.8604462,10296
2.870122,10297
2.958067,10298
3.0051155,10299
3.015658,10300
3.023016,10301
3.032516,10302
3.0313032,10303
3.0260804,10304
3.0225022,10305
2.9983788,10306
2.9770615,10307
2.99596,10308
2.9311156,10309
2.9174628,10310
2.912368,10311
2.9312901,10312
2.9181185,10313
2.9531114,10314
2.8920956,10315
2.9377406,10316
2.909674,10317
2.8756692,10318
2.9262898,10319
2.8698227,10320
2.9059932,10321
2.9364653,10322
2.8775623,10323
2.877619,10324
2.8734896,10325
2.882149,10326
2.8929536,10327
2.928545,10328
2.8539054,10329
2.8870764,10330
2.8712375,10331
2.8510363,10332
2.8482058,10333
2.854008,10334
2.8157117,10335
2.8316565,10336
2.8882992,10337
2.850956,10338
2.8800335,10339
2.828843,10340
2.8557472,10341
2.8813212,10342
2.8611553,10343
2.9033093,10344
2.8624542,10345
2.829917,10346
2.82313,10347
2.8705997,10348
2.871702,10349
2.8518517,10350
2.8743818,10351
2.882004,10352
2.8696835,10353
2.8612397,10354
2.8483312,10355
2.8523962,10356
2.865644,10357
2.8965647,10358
2.8427527,10359
2.868225,10360
2.832894,10361
2.8173673,10362
2.86914,10363
2.880155,10364
2.8655858,10365
2.676285,10366
2.750421,10367
2.8676693,10368
2.8777754,10369
2.8409588,10370
2.8459017,10371
2.9177115,10372
2.90796,10373
2.919532,10374
2.8911836,10375
2.7799368,10376
2.798763,10377
2.773743,10378
2.7975402,10379
2.7519653,10380
2.7441766,10381
2.7392168,10382
2.7538493,10383
2.7727401,10384
2.816145,10385
2.84759,10386
2.8867314,10387
2.8631485,10388
2.8840203,10389
2.8549404,10390
2.8638024,10391
2.8504636,10392
2.8387897,10393
2.8551078,10394
2.803648,10395
2.7889392,10396
2.728804,10397
2.749217,10398
2.7860408,10399
2.8114133,10400
2.6881003,10401
2.7914276,10402
2.8134387,10403
2.7840528,10404
2.8330398,10405
2.8810744,10406
2.8856177,10407
2.8911963,10408
2.935333,10409
2.9454498,10410
2.877569,10411
2.8066993,10412
2.8559408,10413
2.877232,10414
2.9131541,10415
2.9302585,10416
2.9065292,10417
2.922523,10418
2.8576314,10419
2.912242,10420
2.8725512,10421
2.8812945,10422
2.8535268,10423
2.9024396,10424
2.9233148,10425
2.9302182,10426
2.9108915,10427
2.9352448,10428
2.8772135,10429
2.8980763,10430
2.840874,10431
2.873878,10432
2.9020896,10433
2.9403355,10434
2.8152206,10435
2.8319695,10436
2.8662128,10437
2.920187,10438
2.850278,10439
2.8785472,10440
2.826806,10441
2.8283906,10442
2.8086627,10443
2.7821364,10444
2.8130167,10445
2.8937933,10446
2.8405843,10447
2.836199,10448
2.9060652,10449
2.8570685,10450
2.8538709,10451
2.8408718,10452
2.8816378,10453
2.8408284,10454
2.8991022,10455
2.8817382,10456
2.9253721,10457
2.9161658,10458
2.9352553,10459
2.946052,10460
2.9125233,10461
2.9115567,10462
2.948611,10463
2.9471612,10464
2.9153774,10465
2.9607718,10466
2.9192796,10467
2.9630637,10468
2.97992,10469
2.985997,10470
2.9989123,10471
3.0243702,10472
3.0063612,10473
2.9861422,10474
2.9930148,10475
2.9960086,10476
2.9715202,10477
2.9539585,10478
2.9701927,10479
2.9188478,10480
2.9221923,10481
2.9471328,10482
2.9341838,10483
2.9341996,10484
2.955831,10485
2.9267812,10486
2.9370105,10487
2.8677633,10488
2.9144669,10489
2.9582458,10490
2.9418375,10491
2.9364674,10492
2.9081187,10493
2.9103322,10494
2.9092796,10495
2.9523277,10496
2.9041195,10497
2.9353185,10498
2.911959,10499
2.8363512,10500
2.9078176,10501
2.7995398,10502
2.9165473,10503
2.8659296,10504
2.873288,10505
2.8673337,10506
2.831394,10507
2.8735735,10508
2.8638415,10509
2.8601182,10510
2.8897371,10511
2.8614175,10512
2.8308237,10513
2.9109428,10514
2.931335,10515
2.8914855,10516
2.9274275,10517
2.929705,10518
2.936073,10519
2.9149082,10520
2.955707,10521
2.932227,10522
2.9122994,10523
2.9054189,10524
2.9250057,10525
2.9449115,10526
2.8933618,10527
2.902448,10528
2.9087448,10529
2.9338558,10530
2.9291756,10531
2.9298406,10532
2.9359424,10533
2.9261394,10534
2.9939072,10535
3.010364,10536
3.0179474,10537
2.9657135,10538
2.9552002,10539
2.95679,10540
2.9766624,10541
2.993837,10542
2.9748137,10543
2.9245923,10544
2.9453492,10545
2.93475,10546
2.9267986,10547
2.9398437,10548
2.9576313,10549
2.9233475,10550
2.8800325,10551
2.9103408,10552
2.900756,10553
2.872543,10554
2.869706,10555
2.8425426,10556
2.8658996,10557
2.8798568,10558
2.86728,10559
2.8726354,10560
2.9096708,10561
2.823443,10562
2.8446379,10563
2.8407557,10564
2.8896728,10565
2.8456628,10566
2.8515682,10567
2.8045003,10568
2.8109715,10569
2.8361268,10570
2.7344415,10571
2.7833538,10572
2.7888043,10573
2.7725532,10574
2.7325819,10575
2.8091884,10576
2.8136244,10577
2.8778691,10578
2.819827,10579
2.8470256,10580
2.8874707,10581
2.9162438,10582
2.8988025,10583
2.9054108,10584
2.9035773,10585
2.8868043,10586
2.854537,10587
2.84835,10588
2.8866272,10589
2.8487248,10590
2.8822305,10591
2.823383,10592
2.8675902,10593
2.8543744,10594
2.8543725,10595
2.8744404,10596
2.8733428,10597
2.8250778,10598
2.8993127,10599
3.0198693,10600
3.0331595,10601
3.0284503,10602
3.0262823,10603
3.0249553,10604
3.019614,10605
3.0213761,10606
2.9847047,10607
2.972593,10608
2.9831696,10609
2.9781675,10610
2.8924305,10611
2.8776228,10612
2.8115537,10613
2.887849,10614
2.914217,10615
2.9406068,10616
2.932258,10617
2.9027455,10618
2.9528363,10619
2.930776,10620
2.937679,10621
2.913464,10622
2.9451191,10623
2.9076047,10624
2.9324431,10625
2.9083476,10626
2.9373667,10627
2.9590135,10628
2.9386833,10629
2.8633728,10630
2.8774207,10631
2.8431914,10632
2.8883955,10633
2.8397489,10634
2.8899934,10635
2.9340084,10636
2.8106132,10637
2.8878052,10638
2.8317614,10639
2.864422,10640
2.902644,10641
2.897517,10642
2.9013374,10643
2.919423,10644
2.8893185,10645
2.871381,10646
2.9214728,10647
2.9450295,10648
2.9433856,10649
2.9414213,10650
2.9055717,10651
2.8882537,10652
2.8859608,10653
2.85827,10654
2.917043,10655
2.8815334,10656
2.909721,10657
2.905875,10658
2.8711872,10659
2.8762362,10660
2.920881,10661
2.8984222,10662
2.8710423,10663
2.9099882,10664
2.922886,10665
2.9247274,10666
2.9120402,10667
2.8724408,10668
2.8888488,10669
2.9104168,10670
2.8290644,10671
2.8381085,10672
2.9482408,10673
2.9352403,10674
2.9644186,10675
2.9797785,10676
2.9499316,10677
2.901447,10678
2.911464,10679
2.9386199,10680
2.9493904,10681
2.9458272,10682
2.9559002,10683
2.944388,10684
2.955422,10685
2.9609773,10686
2.9338307,10687
2.9572833,10688
2.9262857,10689
2.932646,10690
2.9084156,10691
2.9451966,10692
2.888075,10693
2.953072,10694
2.9553146,10695
2.8611445,10696
2.9135358,10697
2.9131172,10698
2.8999267,10699
2.8517103,10700
2.841546,10701
2.860111,10702
2.8277197,10703
2.763877,10704
2.801345,10705
2.829848,10706
2.9018385,10707
2.9141798,10708
2.886971,10709
2.8722084,10710
2.9116182,10711
2.9348245,10712
2.9041483,10713
2.8847222,10714
2.8856907,10715
2.8476818,10716
2.8903008,10717
2.9027805,10718
2.9258204,10719
2.8998654,10720
2.9187465,10721
2.917773,10722
2.883894,10723
2.9193616,10724
2.905993,10725
2.8813903,10726
2.8974092,10727
2.9214647,10728
2.9066238,10729
2.8587139,10730
2.9827404,10731
2.9828136,10732
2.9389489,10733
2.9334252,10734
2.9635017,10735
2.992407,10736
2.9781268,10737
2.9560585,10738
2.9398868,10739
2.9199238,10740
2.9488761,10741
2.8790517,10742
2.8974802,10743
2.91368,10744
2.8884678,10745
2.9053497,10746
2.8938084,10747
2.8690653,10748
2.8585525,10749
2.9629898,10750
2.88074,10751
2.8632555,10752
2.9054601,10753
2.8851478,10754
2.9184637,10755
2.875198,10756
2.900314,10757
2.8621106,10758
2.897368,10759
2.8938684,10760
2.8860345,10761
2.9031684,10762
2.8642147,10763
2.9269273,10764
2.8741362,10765
2.8913126,10766
2.9013531,10767
2.8538306,10768
2.7873206,10769
2.830829,10770
2.8438997,10771
2.7884326,10772
2.7830462,10773
2.7793198,10774
2.7990131,10775
2.818051,10776
2.7424467,10777
2.8151934,10778
2.6798484,10779
2.7271678,10780
2.6453261,10781
2.7457812,10782
2.7397711,10783
2.923187,10784
2.8742502,10785
2.900236,10786
2.889117,10787
2.8509295,10788
2.9033418,10789
2.8826988,10790
2.8980157,10791
2.9163806,10792
2.8464541,10793
2.8664763,10794
2.8347435,10795
2.884887,10796
2.8220854,10797
2.901324,10798
2.864649,10799
2.8345153,10800
2.791494,10801
2.847207,10802
2.835351,10803
2.8437903,10804
2.8592825,10805
2.827802,10806
2.8936603,10807
2.8591514,10808
2.8216283,10809
2.8037138,10810
2.714485,10811
2.84195,10812
2.8852801,10813
2.9495962,10814
2.9304287,10815
2.9157877,10816
2.8724213,10817
2.9830797,10818
2.954239,10819
2.9297507,10820
2.8291233,10821
2.8739207,10822
2.859315,10823
2.836111,10824
2.8584452,10825
2.6951318,10826
2.7290602,10827
2.8263903,10828
2.8054671,10829
2.8702276,10830
2.8460824,10831
2.8559544,10832
2.8614595,10833
2.7401693,10834
2.8706992,10835
2.7989655,10836
2.8074882,10837
2.7233326,10838
2.8501828,10839
2.8421283,10840
2.782027,10841
2.7381897,10842
2.771473,10843
2.7092228,10844
2.5950644,10845
2.8024037,10846
2.7792892,10847
2.7125475,10848
2.6902628,10849
2.676168,10850
2.534201,10851
2.6900835,10852
2.7841077,10853
2.758337,10854
2.7384005,10855
2.7776768,10856
2.7691367,10857
2.842257,10858
2.844308,10859
2.7465475,10860
2.7089875,10861
2.7372267,10862
2.7352977,10863
2.7957888,10864
2.7006216,10865
2.7299726,10866
2.7119775,10867
2.7486348,10868
2.6805506,10869
2.8137932,10870
2.822076,10871
2.691935,10872
2.6418133,10873
2.6173592,10874
2.7061524,10875
2.58502,10876
2.6818151,10877
2.5869174,10878
2.5088422,10879
2.6381433,10880
2.565369,10881
2.5833204,10882
2.5998652,10883
2.6309435,10884
2.5621755,10885
2.7637043,10886
2.9086525,10887
2.9168181,10888
2.8415513,10889
2.8570683,10890
2.8366294,10891
2.7306588,10892
2.7953923,10893
2.8169184,10894
2.880386,10895
2.8009696,10896
2.8395777,10897
2.834452,10898
2.7754948,10899
2.761464,10900
2.7473812,10901
2.7570007,10902
2.8197117,10903
2.7883453,10904
2.7957833,10905
2.8210762,10906
2.807487,10907
2.7279644,10908
2.7627823,10909
2.7680688,10910
2.7442076,10911
2.7480674,10912
2.7855577,10913
2.8138034,10914
2.8219213,10915
2.7814574,10916
2.7977438,10917
2.7773516,10918
2.8185449,10919
2.860002,10920
2.86061,10921
2.8548458,10922
2.8407874,10923
2.829468,10924
2.7778563,10925
2.8028498,10926
2.7709575,10927
2.7560017,10928
2.684275,10929
2.6890256,10930
2.6107762,10931
2.6431515,10932
2.6523836,10933
2.6673348,10934
2.6331835,10935
2.701954,10936
2.6575603,10937
2.4663544,10938
2.7239163,10939
2.6698828,10940
2.6280603,10941
2.5029511,10942
2.8233302,10943
2.751572,10944
2.8171384,10945
2.7815664,10946
2.844076,10947
2.839445,10948
2.8395956,10949
2.8397593,10950
2.8397346,10951
2.840121,10952
2.8436449,10953
2.8322868,10954
2.7819598,10955
2.7271564,10956
2.7781045,10957
2.819611,10958
2.8189793,10959
2.7843883,10960
2.8140895,10961
2.8394961,10962
2.856608,10963
2.8652713,10964
2.8296108,10965
2.8292654,10966
2.8236454,10967
2.818925,10968
2.8406382,10969
2.82536,10970
2.8075583,10971
2.8355846,10972
2.7987607,10973
2.82619,10974
2.8309252,10975
2.8873558,10976
2.8872461,10977
2.8839917,10978
2.8777013,10979
2.8719974,10980
2.8708417,10981
2.8052444,10982
2.813921,10983
2.8257663,10984
2.8356254,10985
2.8398395,10986
2.8671107,10987
2.860262,10988
2.875109,10989
2.8750882,10990
2.8736885,10991
2.8686116,10992
2.872553,10993
2.8722208,10994
2.8567204,10995
2.8389518,10996
2.8516152,10997
2.8552082,10998
2.9130585,10999
2.9255228,11000
2.930337,11001
2.9193525,11002
2.9050834,11003
2.800388,11004
2.864745,11005
2.897644,11006
2.887968,11007
2.8560314,11008
2.900457,11009
2.8642159,11010
2.8501978,11011
2.8514793,11012
2.8905473,11013
2.8611567,11014
2.8574297,11015
2.8553815,11016
2.810574,11017
2.9264147,11018
2.9343352,11019
2.9322107,11020
2.9223309,11021
2.9384496,11022
2.9308705,11023
2.932157,11024
2.9313204,11025
2.9297583,11026
2.9262502,11027
2.922179,11028
2.8945572,11029
2.9119804,11030
2.8921525,11031
2.8899734,11032
2.8701391,11033
2.8099205,11034
2.777279,11035
2.7787635,11036
2.7362442,11037
2.7327228,11038
2.7202556,11039
2.7229924,11040
2.7692516,11041
2.7264369,11042
2.887032,11043
2.8635368,11044
2.7942305,11045
2.858763,11046
2.858058,11047
2.844268,11048
2.821354,11049
2.7648892,11050
2.7587924,11051
2.8739736,11052
2.8599813,11053
2.837764,11054
2.898777,11055
2.9403985,11056
2.9353662,11057
2.9344227,11058
2.9412744,11059
2.9413192,11060
2.940737,11061
2.9417992,11062
2.9368343,11063
2.930767,11064
2.9332836,11065
2.9221573,11066
2.8788717,11067
2.8831298,11068
2.8477464,11069
2.7855353,11070
2.7366827,11071
2.8237524,11072
2.8389385,11073
2.9216208,11074
2.8934138,11075
2.8922076,11076
2.8799896,11077
2.890162,11078
2.893193,11079
2.9278333,11080
2.929416,11081
2.9361684,11082
2.936628,11083
2.9365234,11084
2.940684,11085
2.9390743,11086
2.9333177,11087
2.9111528,11088
2.9058688,11089
2.8405747,11090
2.8318777,11091
2.7877755,11092
2.7474945,11093
2.7534268,11094
2.837077,11095
2.8671002,11096
2.9117053,11097
2.9224002,11098
2.9249797,11099
2.9172308,11100
2.911225,11101
2.8182027,11102
2.8626156,11103
2.9014714,11104
2.9191043,11105
2.9242105,11106
2.9351056,11107
2.9401968,11108
2.9360626,11109
2.942068,11110
2.9378006,11111
2.924445,11112
2.9166484,11113
2.9205148,11114
2.9301121,11115
2.9313257,11116
2.9052725,11117
2.8466306,11118
2.8306148,11119
2.858048,11120
2.8578627,11121
2.8486705,11122
2.8016028,11123
2.8039289,11124
2.8561487,11125
2.8404179,11126
2.7947857,11127
2.8025117,11128
2.8159225,11129
2.8176658,11130
2.8167694,11131
2.843216,11132
2.9198654,11133
2.9262717,11134
2.9228184,11135
2.921402,11136
2.9030411,11137
2.9071658,11138
2.9173183,11139
2.8996866,11140
2.9273756,11141
2.9197462,11142
2.914939,11143
2.9106815,11144
2.9173048,11145
2.9040554,11146
2.9077523,11147
2.9133856,11148
2.8632717,11149
2.895993,11150
2.9063687,11151
2.9290366,11152
2.9417493,11153
2.935599,11154
2.9410963,11155
2.9414673,11156
2.9338245,11157
2.9421005,11158
2.9369118,11159
2.9371524,11160
2.9212973,11161
2.8828044,11162
2.8701172,11163
2.883784,11164
2.9380336,11165
2.9210565,11166
2.9334931,11167
2.9325805,11168
2.9148219,11169
2.9118495,11170
2.903249,11171
2.9047565,11172
2.8744078,11173
2.9461267,11174
2.9674528,11175
2.9419239,11176
2.9766448,11177
2.974689,11178
2.984693,11179
2.9680026,11180
2.9540887,11181
2.9350333,11182
2.9392421,11183
2.9730334,11184
2.9296238,11185
2.9563663,11186
2.9379876,11187
2.9715607,11188
2.9528217,11189
2.8834956,11190
2.9474726,11191
2.902809,11192
2.9138238,11193
2.924814,11194
2.908625,11195
2.9436772,11196
2.931288,11197
2.9293277,11198
2.967343,11199
2.958382,11200
2.9581091,11201
2.9511514,11202
2.9749367,11203
2.9568727,11204
2.932012,11205
2.9390795,11206
2.944689,11207
2.94139,11208
2.920795,11209
2.862673,11210
2.854284,11211
2.899759,11212
2.82806,11213
2.8431282,11214
2.931686,11215
2.9493432,11216
2.9888275,11217
2.9982455,11218
3.0128155,11219
3.00429,11220
3.0236373,11221
3.0036361,11222
2.975556,11223
2.982184,11224
2.9672453,11225
2.9461539,11226
2.8980749,11227
2.9122546,11228
2.8973024,11229
2.892487,11230
2.9240534,11231
2.876934,11232
2.9273791,11233
2.9744172,11234
2.923815,11235
2.8996947,11236
2.91939,11237
2.8817751,11238
2.842218,11239
2.9242702,11240
2.9196603,11241
2.9751,11242
2.942323,11243
2.9538078,11244
2.9631183,11245
2.9424758,11246
2.9188628,11247
2.9498405,11248
2.9442296,11249
2.9336135,11250
2.943397,11251
2.9431732,11252
2.9325852,11253
2.9209507,11254
2.927393,11255
2.836439,11256
2.9206462,11257
2.9110293,11258
2.9228756,11259
2.946126,11260
2.8790019,11261
2.8822591,11262
2.8540173,11263
2.8296547,11264
2.8139684,11265
2.8682017,11266
2.8404865,11267
2.8429282,11268
2.8367038,11269
2.8731122,11270
2.8635314,11271
2.7754104,11272
2.748636,11273
2.78201,11274
2.8504128,11275
2.8712082,11276
2.9486773,11277
2.947324,11278
2.9470458,11279
2.902787,11280
2.941083,11281
2.8842928,11282
2.8692484,11283
2.8725564,11284
2.8707323,11285
2.8659976,11286
2.855917,11287
2.8610458,11288
2.8463776,11289
2.8777792,11290
2.845903,11291
2.8704627,11292
2.860763,11293
2.8463159,11294
2.8703358,11295
2.8697045,11296
2.8144643,11297
2.8324478,11298
2.821446,11299
2.8783085,11300
2.9148927,11301
2.869015,11302
2.8398535,11303
2.8415992,11304
2.8404548,11305
2.8396354,11306
2.8396606,11307
2.8395586,11308
2.8402143,11309
2.8085136,11310
2.8302152,11311
2.8599074,11312
2.8176851,11313
2.8371346,11314
2.8244507,11315
2.8104856,11316
2.812722,11317
2.8221133,11318
2.8258357,11319
2.8258462,11320
2.821576,11321
2.8258684,11322
2.8183248,11323
2.8660512,11324
2.8841941,11325
2.8717449,11326
2.8160996,11327
2.7874222,11328
2.7865806,11329
2.7698874,11330
2.752156,11331
2.784793,11332
2.8364208,11333
2.8241062,11334
2.8443072,11335
2.8441772,11336
2.8444812,11337
2.8427887,11338
2.843603,11339
2.843596,11340
2.8306828,11341
2.8182843,11342
2.86898,11343
2.866212,11344
2.8692868,11345
2.8566074,11346
2.8366435,11347
2.8504937,11348
2.856552,11349
2.8310778,11350
2.871008,11351
2.905439,11352
2.9009652,11353
2.8754716,11354
2.7990403,11355
2.7814887,11356
2.8226328,11357
2.7948763,11358
2.7868388,11359
2.834948,11360
2.8446918,11361
2.8400164,11362
2.817425,11363
2.869442,11364
2.916472,11365
2.9043355,11366
2.9160035,11367
2.9258997,11368
2.9198925,11369
2.9274688,11370
2.9252927,11371
2.908146,11372
2.883836,11373
2.9057152,11374
2.9073808,11375
2.8918715,11376
2.8462696,11377
2.778172,11378
2.8516192,11379
2.7761977,11380
2.6777136,11381
2.7155833,11382
2.698439,11383
2.6602306,11384
2.7468128,11385
2.75595,11386
2.7200208,11387
2.7602596,11388
2.7686613,11389
2.822927,11390
2.853678,11391
2.860286,11392
2.8530307,11393
2.838597,11394
2.8550167,11395
2.8922787,11396
2.9052665,11397
2.8771484,11398
2.8708932,11399
2.8428116,11400
2.831529,11401
2.847375,11402
2.7978845,11403
2.8112898,11404
2.3718054,11405
2.333571,11406
2.3370028,11407
2.3335254,11408
2.349963,11409
2.399103,11410
2.3747044,11411
2.331732,11412
2.35946,11413
2.3673303,11414
2.4092638,11415
2.434428,11416
2.4075663,11417
2.396684,11418
2.480899,11419
2.4120543,11420
2.33916,11421
2.358555,11422
2.4051552,11423
2.3461995,11424
2.3367558,11425
2.3889418,11426
2.3798053,11427
2.3774946,11428
2.4829078,11429
2.4332716,11430
2.4014487,11431
2.464133,11432
2.4964626,11433
2.4772298,11434
2.510366,11435
2.4225261,11436
2.4861877,11437
2.5027335,11438
2.501053,11439
2.5102692,11440
2.588188,11441
2.5166743,11442
2.5027196,11443
2.5208557,11444
2.5060399,11445
2.530256,11446
2.5422337,11447
2.543239,11448
2.5106354,11449
2.5839152,11450
2.6069667,11451
2.5863638,11452
2.604877,11453
2.5872052,11454
2.559878,11455
2.6015599,11456
2.5966873,11457
2.6211472,11458
2.6111343,11459
2.6319036,11460
2.6487765,11461
2.6031601,11462
2.577837,11463
2.5481422,11464
2.6291738,11465
2.664983,11466
2.6350758,11467
2.6251128,11468
2.6689947,11469
2.7469854,11470
2.7422261,11471
2.7506459,11472
2.7102156,11473
2.7416906,11474
2.7633302,11475
2.7757704,11476
2.814916,11477
2.8179545,11478
2.8393068,11479
2.838923,11480
2.8383555,11481
2.8391304,11482
2.8308213,11483
2.8323994,11484
2.8565125,11485
2.8708556,11486
2.8336542,11487
2.8780377,11488
2.8752935,11489
2.8827317,11490
2.884193,11491
2.8409767,11492
2.8676748,11493
2.898906,11494
2.8775787,11495
2.862217,11496
2.8969011,11497
2.9061475,11498
2.9134483,11499
2.9120972,11500
2.8775785,11501
2.8777003,11502
2.86675,11503
2.8832781,11504
2.8966057,11505
2.877006,11506
2.9053974,11507
2.8855407,11508
2.8826854,11509
2.8968883,11510
2.8850014,11511
2.8767302,11512
2.9246376,11513
2.9094176,11514
2.956832,11515
2.9845352,11516
2.9678168,11517
2.9525383,11518
2.9373457,11519
2.9528687,11520
2.9232285,11521
2.9353,11522
2.970445,11523
2.9157274,11524
2.9522393,11525
2.9704938,11526
2.9695523,11527
2.9266872,11528
2.9649096,11529
2.9608185,11530
2.9141943,11531
2.9297466,11532
2.907724,11533
2.9080884,11534
2.9297163,11535
2.9308596,11536
2.938004,11537
2.9207397,11538
2.9125764,11539
2.9502504,11540
2.897839,11541
2.9054773,11542
2.9273155,11543
2.9404097,11544
2.9503467,11545
2.922028,11546
2.9482079,11547
2.9664326,11548
2.8988957,11549
2.9105008,11550
2.931357,11551
2.8611584,11552
2.8604064,11553
2.8704357,11554
2.8254073,11555
2.9214687,11556
2.838849,11557
2.9217696,11558
2.8923447,11559
2.8600497,11560
2.8546367,11561
2.9111488,11562
2.9355388,11563
2.9266546,11564
2.8142908,11565
2.8208528,11566
2.9022684,11567
2.9305897,11568
2.8940074,11569
2.8480887,11570
2.8894215,11571
2.8685646,11572
2.8422642,11573
2.8149736,11574
2.8250308,11575
2.7856472,11576
2.8347363,11577
2.8414967,11578
2.988345,11579
2.9935672,11580
2.9936311,11581
3.0027626,11582
3.0338993,11583
3.0159252,11584
3.0295856,11585
3.033135,11586
2.9903917,11587
2.960433,11588
2.900657,11589
2.8922913,11590
2.9037113,11591
2.858707,11592
2.899109,11593
2.8036273,11594
2.901749,11595
2.89582,11596
2.8657002,11597
2.8729327,11598
2.8765097,11599
2.8896532,11600
2.8769102,11601
2.90471,11602
2.8709972,11603
2.963561,11604
2.8933382,11605
2.974692,11606
2.9281285,11607
2.933701,11608
2.9429119,11609
2.921774,11610
2.970726,11611
2.9575446,11612
2.9460843,11613
2.9609902,11614
2.9365938,11615
2.907431,11616
2.9220617,11617
2.8965113,11618
2.8781354,11619
2.8953733,11620
2.8789916,11621
2.9051342,11622
2.848186,11623
2.8531086,11624
2.9114225,11625
2.829507,11626
2.8253188,11627
2.8700423,11628
2.8689106,11629
2.8255353,11630
2.8832967,11631
2.7886853,11632
2.8602855,11633
2.8069882,11634
2.8009894,11635
2.768115,11636
2.8180892,11637
2.8041484,11638
2.8106163,11639
2.7636137,11640
2.772485,11641
2.7669902,11642
2.7553632,11643
2.8701375,11644
2.875469,11645
2.8726227,11646
2.875624,11647
2.8729599,11648
2.8687649,11649
2.8740032,11650
2.8655686,11651
2.8691912,11652
2.8629162,11653
2.8721364,11654
2.8806543,11655
2.8486736,11656
2.848201,11657
2.8227108,11658
2.8245945,11659
2.8426492,11660
2.7919962,11661
2.712888,11662
2.8060522,11663
2.673341,11664
2.6458833,11665
2.74656,11666
2.8027344,11667
2.8013816,11668
2.8819242,11669
2.8724883,11670
2.8999028,11671
2.8309085,11672
2.8378043,11673
2.840088,11674
2.812961,11675
2.7918782,11676
2.8352857,11677
2.7699692,11678
2.8092752,11679
2.8481123,11680
2.7727048,11681
2.8257766,11682
2.8079257,11683
2.92339,11684
2.9783776,11685
2.876847,11686
2.8718822,11687
2.8759308,11688
2.8752995,11689
2.8676047,11690
2.8707395,11691
2.872069,11692
2.8742702,11693
2.8747697,11694
2.8688426,11695
2.8715527,11696
2.868397,11697
2.8904154,11698
2.8768444,11699
2.8615735,11700
2.8649015,11701
2.8542418,11702
2.8270528,11703
2.8724575,11704
2.8438818,11705
2.8045146,11706
2.85351,11707
2.8648655,11708
2.8714838,11709
2.8724577,11710
2.866379,11711
2.854105,11712
2.8651822,11713
2.8630304,11714
2.8721237,11715
2.8632944,11716
2.8708696,11717
2.891572,11718
2.9073894,11719
2.930651,11720
2.8467894,11721
2.8496351,11722
2.832979,11723
2.850611,11724
2.8316987,11725
2.864773,11726
2.8712423,11727
2.8638718,11728
2.9009206,11729
2.8976462,11730
2.861658,11731
2.8661542,11732
2.8713346,11733
2.8731604,11734
2.8717928,11735
2.864541,11736
2.8583338,11737
2.8628764,11738
2.8564837,11739
2.8481755,11740
2.8735387,11741
2.8741078,11742
2.8704767,11743
2.8690794,11744
2.8282142,11745
2.8204026,11746
2.7561765,11747
2.7958531,11748
2.7269995,11749
2.782897,11750
2.7769043,11751
2.7873204,11752
2.7881136,11753
2.7952774,11754
2.8158581,11755
2.8449695,11756
2.8415802,11757
2.8633792,11758
2.861408,11759
2.880684,11760
2.8653314,11761
2.8664792,11762
2.8799837,11763
2.8424563,11764
2.8525367,11765
2.851375,11766
2.8490043,11767
2.8432825,11768
2.875806,11769
2.872607,11770
2.8809962,11771
2.8776503,11772
2.8889544,11773
2.859311,11774
2.8649943,11775
2.8099568,11776
2.8280125,11777
2.8232443,11778
2.8250723,11779
2.8618276,11780
2.8500562,11781
2.8643377,11782
2.8800588,11783
2.8585193,11784
2.8495197,11785
2.8901982,11786
2.8264694,11787
2.9191418,11788
2.957467,11789
2.9727135,11790
2.9662926,11791
2.9703531,11792
2.9658523,11793
2.967383,11794
2.9586995,11795
2.9381764,11796
2.9580042,11797
2.952794,11798
2.9402308,11799
2.8943064,11800
2.8933134,11801
2.898286,11802
2.8756275,11803
2.8586137,11804
2.8384416,11805
2.8330178,11806
2.8534226,11807
2.8528223,11808
2.8543763,11809
2.8775702,11810
2.9031105,11811
2.8826733,11812
2.8793645,11813
2.8942256,11814
2.9168882,11815
2.9318125,11816
2.9483914,11817
2.952714,11818
2.952015,11819
2.9545894,11820
2.9212153,11821
2.931352,11822
2.9407432,11823
2.9029217,11824
2.9041147,11825
2.9147391,11826
2.9197211,11827
2.8977368,11828
2.9303946,11829
2.883657,11830
2.846363,11831
2.8850439,11832
2.9100835,11833
2.9075737,11834
2.9249895,11835
2.8408632,11836
2.7860541,11837
2.8621612,11838
2.8813004,11839
2.8506413,11840
2.8577769,11841
2.8680406,11842
2.8920984,11843
2.8489509,11844
2.7554576,11845
2.8241587,11846
2.9038875,11847
2.901266,11848
2.8827598,11849
2.8863688,11850
2.8599536,11851
2.8464317,11852
2.860049,11853
2.8398066,11854
2.8207529,11855
2.8233001,11856
2.8845649,11857
2.8128383,11858
2.8600035,11859
2.8894403,11860
2.8957748,11861
2.886632,11862
2.7826385,11863
2.7619708,11864
2.781753,11865
2.7809477,11866
2.7998254,11867
2.7596414,11868
2.8132684,11869
2.8010929,11870
2.7963126,11871
2.8141005,11872
2.8496501,11873
2.8972414,11874
2.867402,11875
2.8655949,11876
2.8501027,11877
2.8271234,11878
2.8494139,11879
2.8718143,11880
2.6033916,11881
2.7012045,11882
2.812063,11883
2.8761694,11884
2.8483837,11885
2.8413641,11886
2.8970304,11887
2.8451812,11888
2.5281036,11889
2.5929363,11890
2.733959,11891
2.6981728,11892
2.7089813,11893
2.8064187,11894
2.7798846,11895
2.8393633,11896
2.8559577,11897
2.8006833,11898
2.7760205,11899
2.7113543,11900
2.7140508,11901
2.7099526,11902
2.7323768,11903
2.7649808,11904
2.8283103,11905
2.8069904,11906
2.8446362,11907
2.811732,11908
2.8189616,11909
2.8287601,11910
2.8182552,11911
2.8230498,11912
2.7867453,11913
2.7680008,11914
2.7777903,11915
2.7586193,11916
2.7720804,11917
2.710102,11918
2.7143846,11919
2.7512162,11920
2.7013423,11921
2.7168736,11922
2.7177026,11923
2.814305,11924
2.799555,11925
2.8086534,11926
2.7960327,11927
2.8239117,11928
2.8294454,11929
2.8332028,11930
2.874831,11931
2.8843708,11932
2.8448627,11933
2.6311798,11934
2.6146035,11935
2.591582,11936
2.6989036,11937
2.6599748,11938
2.7056704,11939
2.6967015,11940
2.7188601,11941
2.7134721,11942
2.7245338,11943
2.7039268,11944
2.7870214,11945
2.7681475,11946
2.8260632,11947
2.7644205,11948
2.781566,11949
2.7713282,11950
2.7230916,11951
2.7693298,11952
2.838779,11953
2.8438718,11954
2.8330061,11955
2.820148,11956
2.921483,11957
2.8466988,11958
2.618026,11959
2.6602123,11960
2.867053,11961
2.8336675,11962
2.8132915,11963
2.8875177,11964
2.893343,11965
2.8831666,11966
2.8838096,11967
2.8207116,11968
2.8231204,11969
2.7850938,11970
2.750483,11971
2.7566657,11972
2.7811816,11973
2.7490532,11974
2.743343,11975
2.5894961,11976
2.5116775,11977
2.5502293,11978
2.6476967,11979
2.595802,11980
2.6331522,11981
2.6141047,11982
2.6518297,11983
2.67215,11984
2.6281915,11985
2.6405907,11986
2.693722,11987
2.724432,11988
2.7552497,11989
2.700176,11990
2.5336418,11991
2.5629892,11992
2.7111812,11993
2.8117316,11994
2.7651806,11995
2.7443616,11996
2.8425672,11997
2.8577156,11998
2.8551364,11999
2.7131014,12000
2.8401487,12001
2.8761287,12002
2.8723457,12003
2.8924205,12004
2.8879285,12005
2.895208,12006
2.785494,12007
2.734906,12008
2.7659273,12009
2.7745774,12010
2.795644,12011
2.7783449,12012
2.822965,12013
2.7753098,12014
2.745745,12015
2.794794,12016
2.7399218,12017
2.8048177,12018
2.7599978,12019
2.7099824,12020
2.7810616,12021
2.7892804,12022
2.8377473,12023
2.8384192,12024
2.8378766,12025
2.8373678,12026
2.8338091,12027
2.7870846,12028
2.753466,12029
2.7468753,12030
2.7822113,12031
2.811299,12032
2.7663672,12033
2.7346604,12034
2.691771,12035
2.6637669,12036
2.625682,12037
2.71873,12038
2.7912745,12039
2.8001842,12040
2.775098,12041
2.760141,12042
2.749671,12043
2.7203028,12044
2.7533996,12045
2.7568247,12046
2.815059,12047
2.8177264,12048
2.7994082,12049
2.7927468,12050
2.778996,12051
2.8030357,12052
2.7479222,12053
2.7296238,12054
2.689319,12055
2.754046,12056
2.7530332,12057
2.7480214,12058
2.8052635,12059
2.7863107,12060
2.7947426,12061
2.8107057,12062
2.8541226,12063
2.87651,12064
2.9002762,12065
2.8634486,12066
2.8812559,12067
2.898644,12068
2.8038387,12069
2.80823,12070
2.8139873,12071
2.7867143,12072
2.7596927,12073
2.7847667,12074
2.7865214,12075
2.7776754,12076
2.7493043,12077
2.7938643,12078
2.7901464,12079
2.8217018,12080
2.8002944,12081
2.838496,12082
2.7957146,12083
2.803953,12084
2.7241836,12085
2.7341478,12086
2.8310342,12087
2.752783,12088
2.8074784,12089
2.8467267,12090
2.7058434,12091
2.8136444,12092
2.8378701,12093
2.862204,12094
2.7971187,12095
2.7048657,12096
2.6995285,12097
2.700919,12098
2.5989923,12099
2.607287,12100
2.7041194,12101
2.754146,12102
2.74141,12103
2.8459482,12104
2.83692,12105
2.8096633,12106
2.7690637,12107
2.778206,12108
2.7256498,12109
2.7632518,12110
2.6453505,12111
2.7325196,12112
2.679661,12113
2.745804,12114
2.6817703,12115
2.7334855,12116
2.7396348,12117
2.709632,12118
2.7189527,12119
2.7397332,12120
2.7864676,12121
2.8002508,12122
2.824478,12123
2.8090029,12124
2.7182393,12125
2.7204065,12126
2.7186484,12127
2.6764872,12128
2.670828,12129
2.6569211,12130
2.6080399,12131
2.6658525,12132
2.6027129,12133
2.7184572,12134
2.6846137,12135
2.7341063,12136
2.752975,12137
2.7360022,12138
2.775854,12139
2.8110046,12140
2.7891736,12141
2.8073869,12142
2.8621523,12143
2.8493872,12144
2.8348806,12145
2.8844416,12146
2.8841968,12147
2.887158,12148
2.9003766,12149
2.907799,12150
2.7675729,12151
2.9214745,12152
2.907698,12153
2.900378,12154
2.8820767,12155
2.9326897,12156
2.942109,12157
2.9189363,12158
2.9352968,12159
2.9172869,12160
2.899655,12161
2.8684742,12162
2.8895283,12163
2.9108953,12164
2.9350133,12165
2.896556,12166
2.8906088,12167
2.606797,12168
2.441419,12169
2.5448294,12170
2.570966,12171
2.5855727,12172
2.6822698,12173
2.767275,12174
2.74958,12175
2.743323,12176
2.7705798,12177
2.7903442,12178
2.804882,12179
2.7747483,12180
2.7710433,12181
2.6772156,12182
2.6190615,12183
2.4168472,12184
2.6650524,12185
2.6434042,12186
2.6154394,12187
2.537102,12188
2.5910985,12189
2.7101538,12190
2.6940947,12191
2.7091146,12192
2.7176547,12193
2.734694,12194
2.6647558,12195
2.6348727,12196
2.6367784,12197
2.6479867,12198
2.6747372,12199
2.6516511,12200
2.6273396,12201
2.6687083,12202
2.718314,12203
2.7058325,12204
2.7265906,12205
2.7628543,12206
2.7639558,12207
2.813435,12208
2.8149111,12209
2.837078,12210
2.8700032,12211
2.626226,12212
2.6512058,12213
2.6820781,12214
2.7765326,12215
2.796573,12216
2.7824304,12217
2.727669,12218
2.756469,12219
2.8020895,12220
2.761205,12221
2.8029132,12222
2.8162477,12223
2.818061,12224
2.8040872,12225
2.7655454,12226
2.8042655,12227
2.7805321,12228
2.8007863,12229
2.744447,12230
2.6979723,12231
2.7984977,12232
2.8186154,12233
2.777426,12234
2.7958205,12235
2.8559623,12236
2.7743504,12237
2.8020713,12238
2.760842,12239
2.7445023,12240
2.7343562,12241
2.5967948,12242
2.53066,12243
2.562046,12244
2.6296241,12245
2.6515682,12246
2.7420437,12247
2.8297412,12248
2.7254713,12249
2.736806,12250
2.783844,12251
2.7359076,12252
2.6174035,12253
2.6702328,12254
2.6689012,12255
2.702187,12256
2.5909162,12257
2.648639,12258
2.7657354,12259
2.6593125,12260
2.68282,12261
2.6752777,12262
2.7668238,12263
2.7712786,12264
2.7516677,12265
2.7326412,12266
2.7516704,12267
2.7011504,12268
2.6993434,12269
2.7138026,12270
2.7184062,12271
2.6349125,12272
2.6788633,12273
2.7607195,12274
2.6969624,12275
2.7444844,12276
2.781706,12277
2.771924,12278
2.747632,12279
2.7775233,12280
2.775038,12281
2.7679603,12282
2.8164582,12283
2.8306682,12284
2.8197322,12285
2.7930439,12286
2.823185,12287
2.8656576,12288
2.8482428,12289
2.868846,12290
2.7982368,12291
2.8384957,12292
2.862419,12293
2.8738964,12294
2.8490725,12295
2.857033,12296
2.9349601,12297
2.9231799,12298
2.8871112,12299
2.9229524,12300
2.8671033,12301
2.8559995,12302
2.8632083,12303
2.8542392,12304
2.8597698,12305
2.896948,12306
2.823205,12307
2.4694102,12308
2.4475312,12309
2.4986744,12310
2.588632,12311
2.7067602,12312
2.7762237,12313
2.7442229,12314
2.7610276,12315
2.737541,12316
2.7372274,12317
2.7783995,12318
2.853415,12319
2.7586446,12320
2.808429,12321
2.7540374,12322
2.6052816,12323
2.722765,12324
2.5656214,12325
2.503336,12326
2.501312,12327
2.505176,12328
2.4927437,12329
2.504615,12330
2.5044537,12331
2.5048816,12332
2.5041716,12333
2.5037956,12334
2.4997447,12335
2.5105906,12336
2.5018756,12337
2.5053275,12338
2.521711,12339
2.5012932,12340
2.5045743,12341
2.5036385,12342
2.504753,12343
2.502332,12344
2.5098999,12345
2.5089667,12346
2.6169949,12347
2.5144694,12348
2.531355,12349
2.5757341,12350
2.5793386,12351
2.5608985,12352
2.6221566,12353
2.573097,12354
2.550425,12355
2.52367,12356
2.513983,12357
2.6956542,12358
2.7557795,12359
2.717743,12360
2.6801667,12361
2.666039,12362
2.7556672,12363
2.7254071,12364
2.7508767,12365
2.7477746,12366
2.6318173,12367
2.600935,12368
2.6076612,12369
2.6043386,12370
2.6016138,12371
2.6050532,12372
2.604907,12373
2.600928,12374
2.5694115,12375
2.5688553,12376
2.6172357,12377
2.6076748,12378
2.6339445,12379
2.5160065,12380
2.5404968,12381
2.5178337,12382
2.614673,12383
2.596632,12384
2.645848,12385
2.6564784,12386
2.6795654,12387
2.7145345,12388
2.7099214,12389
2.715663,12390
2.6725764,12391
2.5964768,12392
2.6569254,12393
2.7377882,12394
2.7936826,12395
2.7698834,12396
2.7746112,12397
2.7426257,12398
2.7655084,12399
2.7810307,12400
2.7828145,12401
2.8206015,12402
2.8145695,12403
2.7957397,12404
2.804645,12405
2.807492,12406
2.762507,12407
2.8022966,12408
2.7068133,12409
2.7253144,12410
2.8164299,12411
2.7535365,12412
2.743155,12413
2.7759635,12414
2.7779694,12415
2.8119438,12416
2.7919197,12417
2.7874424,12418
2.781035,12419
2.7734327,12420
2.6999822,12421
2.6073813,12422
2.6636317,12423
2.599837,12424
2.7244606,12425
2.7675414,12426
2.8362572,12427
2.8208437,12428
2.8005035,12429
2.7775433,12430
2.8350942,12431
2.8390052,12432
2.8881454,12433
2.8994677,12434
2.8185537,12435
2.772976,12436
2.8267996,12437
2.8589528,12438
2.844151,12439
2.8536887,12440
2.790472,12441
2.833868,12442
2.8084407,12443
2.8777354,12444
2.8959851,12445
2.9189196,12446
2.917824,12447
2.960359,12448
2.962564,12449
2.9287217,12450
2.9589427,12451
2.8839257,12452
2.9380355,12453
2.9499354,12454
2.954007,12455
2.9046714,12456
2.94862,12457
2.865649,12458
2.8407218,12459
2.859597,12460
2.8422234,12461
2.7972374,12462
2.7777934,12463
2.673756,12464
2.7413292,12465
2.8385377,12466
2.8196826,12467
2.7900863,12468
2.811325,12469
2.8078375,12470
2.8203783,12471
2.7993696,12472
2.783333,12473
2.7797165,12474
2.7695324,12475
2.826957,12476
2.8164952,12477
2.786474,12478
2.8594184,12479
2.7945383,12480
2.8264284,12481
2.8745918,12482
2.8827257,12483
2.8893032,12484
2.8814461,12485
2.8967192,12486
2.8985014,12487
2.884997,12488
2.9134557,12489
2.9107606,12490
2.894287,12491
2.8962345,12492
2.8944638,12493
2.9526231,12494
2.9402626,12495
2.950417,12496
2.9600246,12497
2.922626,12498
2.9241219,12499
2.9253585,12500
2.928627,12501
2.9500792,12502
2.9454389,12503
2.963653,12504
2.920221,12505
2.8850842,12506
2.7010937,12507
2.6717803,12508
2.71941,12509
2.7155013,12510
2.6609545,12511
2.6576283,12512
2.7013733,12513
2.805408,12514
2.8685174,12515
2.86187,12516
2.9133098,12517
2.9164143,12518
2.9014788,12519
2.9043913,12520
2.9479015,12521
2.9328477,12522
2.926081,12523
2.9646542,12524
2.9559808,12525
2.9785607,12526
2.9533095,12527
2.9585116,12528
2.9374752,12529
2.9737978,12530
2.9579797,12531
2.9385228,12532
2.9640713,12533
2.9156497,12534
2.882695,12535
2.91188,12536
2.9396107,12537
2.9485211,12538
2.941722,12539
2.9366531,12540
2.8479462,12541
2.8352454,12542
2.7942033,12543
2.842318,12544
2.88618,12545
2.871601,12546
2.9261668,12547
2.931913,12548
2.9343574,12549
2.915084,12550
2.962819,12551
2.9802954,12552
2.9613588,12553
2.9704149,12554
2.892029,12555
2.858071,12556
2.900965,12557
2.9479918,12558
2.9398143,12559
2.9664295,12560
2.9463112,12561
2.9094858,12562
2.8651547,12563
2.8440335,12564
2.8302598,12565
2.867441,12566
2.890161,12567
2.841742,12568
2.8240814,12569
2.8732133,12570
2.8245332,12571
2.8725843,12572
2.8751068,12573
2.8565228,12574
2.7908578,12575
2.8987253,12576
2.9846704,12577
2.9688501,12578
3.00452,12579
2.9842377,12580
3.0073419,12581
3.0186357,12582
3.0280733,12583
3.003525,12584
2.997193,12585
2.9933357,12586
2.9614675,12587
2.958052,12588
2.9305248,12589
2.8862588,12590
2.924155,12591
2.8967059,12592
2.8514006,12593
2.9008813,12594
2.9092138,12595
2.9200728,12596
2.91311,12597
2.898865,12598
2.7691119,12599
2.8260055,12600
2.8574588,12601
2.8600087,12602
2.9079356,12603
2.8517492,12604
2.9350686,12605
2.9367278,12606
2.9513297,12607
2.9488134,12608
2.950468,12609
2.9384325,12610
2.9646292,12611
2.8893383,12612
2.9343781,12613
2.9273174,12614
2.9529264,12615
2.9387374,12616
2.9581392,12617
2.9355361,12618
2.9229918,12619
2.9029891,12620
2.8967662,12621
2.9004333,12622
2.9047356,12623
2.8502302,12624
2.862289,12625
2.8330379,12626
2.8465724,12627
2.848013,12628
2.8573997,12629
2.8484643,12630
2.9426591,12631
2.8372324,12632
2.7749903,12633
2.817583,12634
2.8012567,12635
2.8696256,12636
2.819668,12637
2.8178556,12638
2.7879894,12639
2.7916102,12640
2.7492547,12641
2.805289,12642
2.7984862,12643
2.8001077,12644
2.755287,12645
2.763649,12646
2.8337243,12647
2.6972535,12648
2.8417895,12649
2.7737107,12650
2.7268636,12651
2.7398963,12652
2.7452385,12653
2.6932852,12654
2.681756,12655
2.901211,12656
2.8796823,12657
2.949622,12658
2.9501672,12659
2.9548366,12660
2.9504936,12661
2.960634,12662
2.9728847,12663
2.9567413,12664
2.9657319,12665
2.9349685,12666
2.9758549,12667
2.977358,12668
2.9746234,12669
2.93943,12670
2.9142878,12671
2.891004,12672
2.8658736,12673
2.9178183,12674
2.9054875,12675
2.8308918,12676
2.8027053,12677
2.8036408,12678
2.7791164,12679
2.7825208,12680
2.801312,12681
2.7993586,12682
2.775569,12683
2.8312855,12684
2.8139923,12685
2.8290234,12686
2.7389815,12687
2.6822658,12688
2.8050952,12689
2.801387,12690
2.775338,12691
2.7805283,12692
2.7281914,12693
2.7300737,12694
2.7864223,12695
2.755815,12696
2.8070989,12697
2.7681456,12698
2.8191588,12699
2.8092344,12700
2.7925534,12701
2.788731,12702
2.8380256,12703
2.8110318,12704
2.8206737,12705
2.8647778,12706
2.9162834,12707
2.9003682,12708
2.9589622,12709
2.8715966,12710
2.9160533,12711
2.981805,12712
2.9041555,12713
2.9100552,12714
2.9425085,12715
2.949431,12716
2.902319,12717
2.9266775,12718
2.934639,12719
2.8992667,12720
2.9137354,12721
2.9285173,12722
2.9344988,12723
2.9149554,12724
2.9005105,12725
2.9226696,12726
2.9046717,12727
2.8981233,12728
2.932084,12729
2.9292939,12730
2.96136,12731
2.8812768,12732
2.9382982,12733
2.9303277,12734
2.9411294,12735
2.8958232,12736
2.9521337,12737
2.9889863,12738
2.9934454,12739
2.9699764,12740
2.9732535,12741
2.9826066,12742
2.979716,12743
2.9847643,12744
2.938521,12745
2.9619186,12746
2.929824,12747
2.9514985,12748
2.9796796,12749
2.9446023,12750
2.9621413,12751
2.9615808,12752
2.9017775,12753
2.952863,12754
2.8457768,12755
2.9515755,12756
2.9288256,12757
2.8511825,12758
2.8429816,12759
2.8673472,12760
2.8580909,12761
2.8771114,12762
2.8385012,12763
2.8990088,12764
2.9149578,12765
2.9394739,12766
2.8751469,12767
2.9731336,12768
2.9106078,12769
2.9487872,12770
2.980965,12771
2.888003,12772
2.9553053,12773
2.917662,12774
2.925541,12775
2.979516,12776
2.8865292,12777
2.9769754,12778
2.9562,12779
2.9260855,12780
2.9549704,12781
2.9243162,12782
2.9306195,12783
2.9174068,12784
2.9591758,12785
2.9538393,12786
2.9681082,12787
2.9754949,12788
2.950016,12789
2.9935064,12790
2.9863853,12791
2.9800963,12792
2.9750457,12793
2.9534345,12794
2.971122,12795
2.9544733,12796
2.9507012,12797
2.9452548,12798
2.8616369,12799
2.8861105,12800
2.7943437,12801
2.81314,12802
2.7947493,12803
2.828486,12804
2.7653449,12805
2.7779586,12806
2.8893745,12807
2.9193602,12808
2.8630402,12809
2.8454957,12810
2.8891041,12811
2.8501737,12812
2.8952,12813
2.8501012,12814
2.806698,12815
2.8540583,12816
2.837609,12817
2.8163877,12818
2.8541613,12819
2.8568952,12820
2.864177,12821
3.0084221,12822
2.9837914,12823
2.9610238,12824
3.001741,12825
2.980004,12826
3.003695,12827
2.9806318,12828
2.9794168,12829
2.941737,12830
2.9781988,12831
2.9254553,12832
2.8619025,12833
2.8560476,12834
2.903812,12835
2.9230235,12836
2.8660996,12837
2.8588946,12838
2.8786967,12839
2.8019238,12840
2.8986318,12841
2.82427,12842
2.8183918,12843
2.9159238,12844
2.8754418,12845
2.8102086,12846
2.8475394,12847
2.8566902,12848
2.867705,12849
2.798354,12850
2.9074361,12851
2.9534988,12852
2.9443607,12853
2.920384,12854
2.9477973,12855
2.959297,12856
2.986525,12857
2.9889147,12858
2.9660146,12859
2.9647145,12860
2.9720309,12861
2.984261,12862
2.9730375,12863
2.9151335,12864
2.9360523,12865
2.8914301,12866
2.8541877,12867
2.802135,12868
2.8634455,12869
2.837284,12870
2.8274364,12871
2.8999188,12872
2.7953606,12873
2.8696308,12874
2.7825377,12875
2.8784542,12876
2.8156273,12877
2.8512166,12878
2.7971323,12879
2.7158806,12880
2.797472,12881
2.7720284,12882
2.8156102,12883
2.8083675,12884
2.734638,12885
2.7575376,12886
2.7403018,12887
2.76965,12888
2.7276301,12889
2.73145,12890
2.7448065,12891
2.7290196,12892
2.7743592,12893
2.6762376,12894
2.7630546,12895
2.7391624,12896
2.7932851,12897
2.7114654,12898
2.7670982,12899
2.8841496,12900
2.8745472,12901
2.8647804,12902
2.878936,12903
2.9494174,12904
2.9848218,12905
2.9940662,12906
2.9887226,12907
2.989181,12908
2.9816248,12909
2.9839568,12910
2.9843132,12911
2.9757965,12912
2.9672236,12913
2.9805024,12914
2.9635546,12915
2.9537737,12916
2.975163,12917
2.925175,12918
2.928668,12919
2.9212143,12920
2.9458911,12921
2.9527981,12922
2.9569106,12923
2.9555817,12924
2.9516144,12925
2.9511862,12926
2.9315476,12927
2.911495,12928
2.9193106,12929
2.8977995,12930
2.9244096,12931
2.9282763,12932
2.921335,12933
2.9160752,12934
2.9205043,12935
2.9073164,12936
2.9199638,12937
2.8737948,12938
2.85773,12939
2.8529341,12940
2.7986624,12941
2.8059196,12942
2.7506409,12943
2.8477795,12944
2.8477495,12945
2.8182125,12946
2.851166,12947
2.8604488,12948
2.8565962,12949
2.8528228,12950
2.7829342,12951
2.7903006,12952
2.784369,12953
2.783369,12954
2.8166633,12955
2.8263493,12956
2.8538136,12957
2.8665493,12958
2.895995,12959
2.900584,12960
2.8332765,12961
2.8636065,12962
2.8225806,12963
2.8151646,12964
2.839178,12965
2.8165572,12966
2.8204265,12967
2.790806,12968
2.8584063,12969
2.9069936,12970
2.8579962,12971
2.8595958,12972
2.9104073,12973
2.8965259,12974
2.8258736,12975
2.8261957,12976
2.8299925,12977
2.8180106,12978
2.81656,12979
2.8344102,12980
2.8483436,12981
2.8377943,12982
2.8420596,12983
2.8395789,12984
2.8973212,12985
2.9806223,12986
2.95725,12987
2.973737,12988
2.9450927,12989
2.9753933,12990
2.9565444,12991
2.9742796,12992
2.940885,12993
2.9672437,12994
2.9343677,12995
2.9297876,12996
2.9653866,12997
2.9677963,12998
2.9659352,12999
2.9635696,13000
2.8363335,13001
2.9036715,13002
2.9120255,13003
2.8991904,13004
2.9124973,13005
2.863662,13006
2.8861,13007
2.8083205,13008
2.7941198,13009
2.8435845,13010
2.8736422,13011
2.899834,13012
2.8648348,13013
2.8699234,13014
2.9167871,13015
2.9644592,13016
2.9490147,13017
2.9666405,13018
2.94274,13019
2.9755359,13020
2.9799967,13021
2.9672818,13022
2.9520195,13023
2.972154,13024
2.963866,13025
2.9839537,13026
2.9780338,13027
2.9711049,13028
2.9372058,13029
2.9899123,13030
2.9188974,13031
2.9429882,13032
2.9560301,13033
2.9436865,13034
2.9711642,13035
2.9225233,13036
2.939464,13037
2.913745,13038
2.886377,13039
2.9326391,13040
2.952843,13041
2.8714323,13042
2.935657,13043
2.848321,13044
2.8832672,13045
2.9186049,13046
2.9302108,13047
2.9270606,13048
2.92948,13049
2.9218502,13050
2.9382937,13051
2.922918,13052
2.945292,13053
2.9258215,13054
2.8668087,13055
2.8947277,13056
2.8507545,13057
2.9008167,13058
2.922838,13059
2.9147036,13060
2.8799882,13061
2.8507307,13062
2.7895768,13063
2.789573,13064
2.757956,13065
2.6166587,13066
2.647862,13067
2.7757652,13068
2.8402705,13069
2.7850847,13070
2.7914999,13071
2.8259661,13072
2.7623065,13073
2.7061753,13074
2.7408872,13075
2.7021255,13076
2.769984,13077
2.8157248,13078
2.7643845,13079
2.7504299,13080
2.7491248,13081
2.7076888,13082
2.8226616,13083
2.915751,13084
2.9929535,13085
3.008797,13086
2.988217,13087
2.998666,13088
3.0089295,13089
3.0151613,13090
3.0146973,13091
3.0116305,13092
3.004628,13093
2.9886553,13094
2.9115524,13095
2.8784192,13096
2.796083,13097
2.77507,13098
2.8614657,13099
2.8645365,13100
2.922684,13101
2.8176281,13102
2.838815,13103
2.8810549,13104
2.8484972,13105
2.8472886,13106
2.8246417,13107
2.8166382,13108
2.8288536,13109
2.833325,13110
2.8450332,13111
2.8065913,13112
2.7866633,13113
2.7530792,13114
2.7858322,13115
2.7954538,13116
2.9532,13117
2.9705696,13118
2.9452155,13119
2.9343734,13120
2.9740717,13121
2.9484246,13122
2.9147792,13123
2.9335213,13124
2.8929722,13125
2.892544,13126
2.9188464,13127
2.8991904,13128
2.8935988,13129
2.8569355,13130
2.8099253,13131
2.805664,13132
2.7935445,13133
2.8272548,13134
2.787817,13135
2.7273893,13136
2.8078604,13137
2.8512044,13138
2.7948506,13139
2.830845,13140
2.6928954,13141
2.7624547,13142
2.7999766,13143
2.7210453,13144
2.7342205,13145
2.7205813,13146
2.5949893,13147
2.6934614,13148
2.6675403,13149
2.6192694,13150
2.6863358,13151
2.5784645,13152
2.7009025,13153
2.6713996,13154
2.5599284,13155
2.6813512,13156
2.5980003,13157
2.5956092,13158
2.5688262,13159
2.5801947,13160
2.5770838,13161
2.5727253,13162
2.5142174,13163
2.5623565,13164
2.5690622,13165
2.562685,13166
2.508563,13167
2.5621004,13168
2.5630302,13169
2.5008564,13170
2.5417764,13171
2.6065025,13172
2.5245366,13173
2.600045,13174
2.5304775,13175
2.4251158,13176
2.5414574,13177
2.430499,13178
2.3907664,13179
2.4590442,13180
2.4299176,13181
2.4551976,13182
2.3783166,13183
2.481765,13184
2.4209015,13185
2.329608,13186
2.3400714,13187
2.3127527,13188
2.2875416,13189
2.2089965,13190
2.4121616,13191
2.543496,13192
2.7010443,13193
2.7544882,13194
2.6960373,13195
2.6734602,13196
2.6075351,13197
2.6205537,13198
2.7090206,13199
2.7027051,13200
2.6876004,13201
2.6586096,13202
2.6746485,13203
2.6527648,13204
2.655326,13205
2.697011,13206
2.714315,13207
2.7124686,13208
2.712596,13209
2.7133996,13210
2.715112,13211
2.7166164,13212
2.7244818,13213
2.713637,13214
2.7249117,13215
2.715722,13216
2.7174923,13217
2.7418487,13218
2.715382,13219
2.7341945,13220
2.7472045,13221
2.7656546,13222
2.7122784,13223
2.7308152,13224
2.7380269,13225
2.7212024,13226
2.771291,13227
2.7357616,13228
2.7844915,13229
2.7376354,13230
2.799968,13231
2.768012,13232
2.7200747,13233
2.6381798,13234
2.6298203,13235
2.680532,13236
2.708825,13237
2.7065666,13238
2.6451318,13239
2.7130775,13240
2.6663132,13241
2.6884909,13242
2.6931741,13243
2.7267153,13244
2.7625923,13245
2.785848,13246
2.7687602,13247
2.7478807,13248
2.7881484,13249
2.7837245,13250
2.7493908,13251
2.8084219,13252
2.8094366,13253
2.8277812,13254
2.8442075,13255
2.8285084,13256
2.727274,13257
2.7311118,13258
2.7243376,13259
2.6860278,13260
2.7512496,13261
2.7830117,13262
2.8160875,13263
2.7979956,13264
2.8483276,13265
2.8413696,13266
2.8746848,13267
2.8964252,13268
2.834845,13269
2.8541298,13270
2.894498,13271
2.8790243,13272
2.7014709,13273
2.676823,13274
2.5753646,13275
2.6395035,13276
2.6661525,13277
2.6772194,13278
2.6951768,13279
2.6522007,13280
2.6997654,13281
2.687967,13282
2.7023258,13283
2.7121263,13284
2.6955798,13285
2.7228746,13286
2.7491484,13287
2.8044055,13288
2.737736,13289
2.8259497,13290
2.8213937,13291
2.84362,13292
2.7848914,13293
2.8047233,13294
2.7511632,13295
2.7628214,13296
2.8259072,13297
2.8268356,13298
2.783887,13299
2.6955237,13300
2.6408532,13301
2.7308989,13302
2.744407,13303
2.6911776,13304
2.7075152,13305
2.7126756,13306
2.749993,13307
2.7564433,13308
2.7546122,13309
2.7423904,13310
2.7724178,13311
2.8184042,13312
2.836071,13313
2.8768914,13314
2.883525,13315
2.8788376,13316
2.9099436,13317
2.8787265,13318
2.7227151,13319
2.4531312,13320
2.542687,13321
2.5489888,13322
2.6188838,13323
2.6397946,13324
2.5941665,13325
2.6378486,13326
2.6183863,13327
2.6803522,13328
2.7206225,13329
2.7086833,13330
2.7611706,13331
2.7693603,13332
2.7638185,13333
2.804423,13334
2.8232977,13335
2.818762,13336
2.83765,13337
2.7664223,13338
2.8348856,13339
2.8498175,13340
2.7074006,13341
2.6457806,13342
2.715506,13343
2.7147057,13344
2.7604492,13345
2.6860561,13346
2.6013768,13347
2.5182292,13348
2.6498966,13349
2.6288774,13350
2.5692906,13351
2.6726236,13352
2.7259755,13353
2.696192,13354
2.653476,13355
2.7620683,13356
2.7402606,13357
2.71464,13358
2.741056,13359
2.800845,13360
2.7904894,13361
2.7644215,13362
2.6478586,13363
2.634549,13364
2.6998806,13365
2.757368,13366
2.756127,13367
2.7551627,13368
2.7493281,13369
2.7190797,13370
2.6697407,13371
2.6496203,13372
2.6411319,13373
2.6785138,13374
2.5503073,13375
2.6203415,13376
2.6507113,13377
2.7355185,13378
2.7578614,13379
2.757487,13380
2.7710156,13381
2.7251294,13382
2.684107,13383
2.7095873,13384
2.803821,13385
2.8043714,13386
2.7274573,13387
2.6329763,13388
2.7632372,13389
2.7763994,13390
2.7505093,13391
2.7458491,13392
2.7082615,13393
2.6748867,13394
2.7025197,13395
2.6234367,13396
2.648671,13397
2.6871698,13398
2.6295066,13399
2.6514204,13400
2.6758149,13401
2.7318168,13402
2.6946533,13403
2.6145875,13404
2.6379664,13405
2.7625291,13406
2.759596,13407
2.7823043,13408
2.7723656,13409
2.7743986,13410
2.776647,13411
2.7369354,13412
2.6577523,13413
2.6621814,13414
2.672857,13415
2.5039887,13416
2.59012,13417
2.6992068,13418
2.82094,13419
2.822974,13420
2.7889454,13421
2.7756286,13422
2.76057,13423
2.7949045,13424
2.7566674,13425
2.7605593,13426
2.7614958,13427
2.6117983,13428
2.631017,13429
2.653809,13430
2.6698792,13431
2.6909196,13432
2.711829,13433
2.694445,13434
2.7424767,13435
2.7739356,13436
2.734187,13437
2.728448,13438
2.7735875,13439
2.6735327,13440
2.5511985,13441
2.6502278,13442
2.6618023,13443
2.697509,13444
2.743758,13445
2.738636,13446
2.7408226,13447
2.7412758,13448
2.7381907,13449
2.7627091,13450
2.795967,13451
2.8121428,13452
2.8119643,13453
2.8345423,13454
2.7839386,13455
2.8008385,13456
2.8192472,13457
2.81713,13458
2.8007946,13459
2.7844625,13460
2.8053086,13461
2.855939,13462
2.77072,13463
2.8408437,13464
2.830647,13465
2.7977684,13466
2.8291256,13467
2.9025247,13468
2.8365395,13469
2.8256524,13470
2.8592365,13471
2.8477533,13472
2.8845513,13473
2.8617966,13474
2.8479168,13475
2.832826,13476
2.7600162,13477
2.8224187,13478
2.791401,13479
2.8099093,13480
2.8071194,13481
2.8254712,13482
2.771098,13483
2.7532237,13484
2.8274043,13485
2.77234,13486
2.8384542,13487
2.8131864,13488
2.8510349,13489
2.8013003,13490
2.8623137,13491
2.85088,13492
2.829838,13493
2.8185008,13494
2.8455794,13495
2.8524551,13496
2.8509285,13497
2.8514948,13498
2.8382187,13499
2.8732944,13500
2.8240054,13501
2.8773258,13502
2.863515,13503
2.8935611,13504
2.8738904,13505
2.8611062,13506
2.8626316,13507
2.893936,13508
2.8997896,13509
2.902104,13510
2.897743,13511
2.924295,13512
2.9346309,13513
2.9216647,13514
2.9243765,13515
2.9062064,13516
2.9042492,13517
2.883103,13518
2.923748,13519
2.9757965,13520
2.9393885,13521
2.9149659,13522
2.9445207,13523
2.9365258,13524
2.9080112,13525
2.9477,13526
2.96617,13527
2.8898005,13528
2.9477575,13529
2.9016428,13530
2.9213262,13531
2.929694,13532
2.879744,13533
2.878828,13534
2.8784206,13535
2.884052,13536
2.8886135,13537
2.927353,13538
2.8908608,13539
2.8769412,13540
2.8911543,13541
2.902669,13542
2.9117994,13543
2.8815525,13544
2.9013886,13545
2.894535,13546
2.911839,13547
2.884354,13548
2.8466516,13549
2.821997,13550
2.8144088,13551
2.8422687,13552
2.8207803,13553
2.8454714,13554
2.8499107,13555
2.8615575,13556
2.85708,13557
2.82835,13558
2.8271265,13559
2.8037949,13560
2.8316302,13561
2.8943598,13562
2.8467255,13563
2.8567054,13564
2.8436582,13565
2.8535879,13566
2.8508706,13567
2.8800852,13568
2.8114078,13569
2.836151,13570
2.788207,13571
2.805569,13572
2.7296722,13573
2.8022885,13574
2.8381145,13575
2.8485708,13576
2.8806906,13577
2.9002333,13578
2.9115546,13579
2.9302015,13580
2.936082,13581
2.8941264,13582
2.9345906,13583
2.928685,13584
2.8883817,13585
2.8351822,13586
2.8953643,13587
2.896873,13588
2.8500798,13589
2.8407443,13590
2.8415122,13591
2.8820133,13592
2.7599542,13593
2.8686132,13594
2.8424127,13595
2.8310616,13596
2.923488,13597
2.8624938,13598
2.8358204,13599
2.8204043,13600
2.8246045,13601
2.8439875,13602
2.7875063,13603
2.7998943,13604
2.772544,13605
2.7098653,13606
2.7718155,13607
2.71848,13608
2.7752476,13609
2.7652638,13610
2.7933056,13611
2.6911633,13612
2.7163653,13613
2.7720482,13614
2.684727,13615
2.5909073,13616
2.735658,13617
2.7441032,13618
2.7728524,13619
2.7700236,13620
2.706316,13621
2.7403355,13622
2.763963,13623
2.7411718,13624
2.781204,13625
2.7407632,13626
2.6711807,13627
2.6639292,13628
2.6670613,13629
2.6117704,13630
2.5841925,13631
2.6022658,13632
2.6093166,13633
2.6331697,13634
2.6916034,13635
2.6813693,13636
2.6294842,13637
2.7378094,13638
2.7181041,13639
2.5909646,13640
2.6182206,13641
2.61903,13642
2.5894682,13643
2.6061373,13644
2.609542,13645
2.5554504,13646
2.6868546,13647
2.6436882,13648
2.6216128,13649
2.5284095,13650
2.5927515,13651
2.533049,13652
2.6021075,13653
2.4921112,13654
2.4636757,13655
2.5448613,13656
2.683133,13657
2.4777708,13658
2.5708654,13659
2.495589,13660
2.520159,13661
2.4244616,13662
2.6415737,13663
2.5536602,13664
2.5162795,13665
2.496737,13666
2.5029664,13667
2.4309926,13668
2.3955069,13669
2.498228,13670
2.4685335,13671
2.3636947,13672
2.4152782,13673
2.4235232,13674
2.443203,13675
2.5196624,13676
2.3937676,13677
2.3839865,13678
2.3678799,13679
2.3658159,13680
2.4374537,13681
2.4936585,13682
2.3638554,13683
2.383475,13684
2.3688102,13685
2.4074764,13686
2.3605764,13687
2.2798004,13688
2.2940483,13689
2.3160267,13690
2.28518,13691
2.2509735,13692
2.3148031,13693
2.2713852,13694
2.3151567,13695
2.254554,13696
2.363843,13697
2.6643357,13698
2.836407,13699
2.9139705,13700
2.8702202,13701
2.8309891,13702
2.930109,13703
2.9230387,13704
2.9092627,13705
2.8933108,13706
2.821823,13707
2.7864077,13708
2.8793008,13709
2.79552,13710
2.8950214,13711
2.9169478,13712
2.868238,13713
2.8422709,13714
2.8566527,13715
2.8605456,13716
2.9093552,13717
2.892374,13718
2.8902936,13719
2.9001896,13720
2.8731341,13721
2.8898482,13722
2.9087293,13723
2.9040232,13724
2.9032762,13725
2.8677182,13726
2.8332899,13727
2.8307478,13728
2.8239663,13729
2.8325422,13730
2.8822746,13731
2.8243723,13732
2.8253398,13733
2.8000255,13734
2.8441517,13735
2.8656793,13736
2.8149822,13737
2.8768992,13738
2.8448637,13739
2.8214035,13740
2.794687,13741
2.9139605,13742
2.9080591,13743
2.9143493,13744
2.9108515,13745
2.9053137,13746
2.8656805,13747
2.899284,13748
2.8889883,13749
2.900581,13750
2.8745866,13751
2.874742,13752
2.8547938,13753
2.8839138,13754
2.8681111,13755
2.8905838,13756
2.882444,13757
2.74183,13758
2.7826753,13759
2.9023526,13760
2.8827918,13761
2.8423831,13762
2.8790874,13763
2.8604715,13764
2.8556352,13765
2.868665,13766
2.8787408,13767
2.8742156,13768
2.868781,13769
2.908174,13770
2.8334744,13771
2.8815217,13772
2.8049173,13773
2.8732572,13774
2.800386,13775
2.8162496,13776
2.8513415,13777
2.8366964,13778
2.8607223,13779
2.8709633,13780
2.8459315,13781
2.846435,13782
2.8617396,13783
2.7814186,13784
2.8600328,13785
2.8619707,13786
2.8228524,13787
2.8307521,13788
2.8093529,13789
2.8424306,13790
2.820087,13791
2.8270628,13792
2.8237767,13793
2.8253286,13794
2.7948987,13795
2.8396668,13796
2.926996,13797
2.9223511,13798
2.8919024,13799
2.8894696,13800
2.913079,13801
2.8934996,13802
2.8951375,13803
2.9167776,13804
2.8857572,13805
2.9385798,13806
2.8508592,13807
2.904732,13808
2.8792727,13809
2.9307766,13810
2.9018247,13811
2.816851,13812
2.895769,13813
2.920067,13814
2.8287685,13815
2.876563,13816
2.920304,13817
2.7635858,13818
2.8380945,13819
2.8982525,13820
2.8379133,13821
2.8645823,13822
2.7897363,13823
2.8375995,13824
2.7974017,13825
2.8408601,13826
2.7328923,13827
2.8178573,13828
2.87083,13829
2.8461986,13830
2.8296638,13831
2.846615,13832
2.8571067,13833
2.7367232,13834
2.860528,13835
2.705114,13836
2.8290498,13837
2.8006694,13838
2.7802796,13839
2.7289674,13840
2.8148632,13841
2.6524699,13842
2.7308342,13843
2.8438017,13844
2.7506356,13845
2.7531633,13846
2.7489996,13847
2.763013,13848
2.7054138,13849
2.7749455,13850
2.6866453,13851
2.7322016,13852
2.6231587,13853
2.8001,13854
2.7490928,13855
2.5933008,13856
2.636902,13857
2.7416768,13858
2.9195626,13859
2.920534,13860
2.9122913,13861
2.9188013,13862
2.8606925,13863
2.830489,13864
2.8767717,13865
2.8558457,13866
2.9058897,13867
2.896596,13868
2.8718898,13869
2.850343,13870
2.8404596,13871
2.838666,13872
2.8588903,13873
2.8464832,13874
2.8249087,13875
2.8712275,13876
2.8321776,13877
2.8278768,13878
2.7796035,13879
2.8204167,13880
2.8058498,13881
2.8552508,13882
2.8634868,13883
2.7645185,13884
2.774071,13885
2.8106322,13886
2.780174,13887
2.7979267,13888
2.8187468,13889
2.8159437,13890
2.709964,13891
2.7950535,13892
2.7715576,13893
2.7575312,13894
2.7123246,13895
2.747555,13896
2.7852962,13897
2.7913785,13898
2.771576,13899
2.7876954,13900
2.7672324,13901
2.778915,13902
2.7699406,13903
2.8365035,13904
2.8157668,13905
2.7999532,13906
2.7562697,13907
2.728184,13908
2.7135978,13909
2.7193117,13910
2.699784,13911
2.7321332,13912
2.7913272,13913
2.684877,13914
2.6496565,13915
2.6346676,13916
2.6298904,13917
2.6387584,13918
2.699923,13919
2.738704,13920
2.6725063,13921
2.5177464,13922
2.504313,13923
2.6674595,13924
2.5398526,13925
2.6351922,13926
2.6644242,13927
2.6043215,13928
2.6628118,13929
2.6164546,13930
2.537643,13931
2.7044246,13932
2.6659536,13933
2.6785345,13934
2.6475325,13935
2.7245774,13936
2.6422493,13937
2.6952162,13938
2.727113,13939
2.6856089,13940
2.773242,13941
2.7086747,13942
2.731607,13943
2.6509845,13944
2.5954754,13945
2.6450348,13946
2.6846423,13947
2.707245,13948
2.6917827,13949
2.6191814,13950
2.7411487,13951
2.6859877,13952
2.7354758,13953
2.778968,13954
2.641657,13955
2.5622487,13956
2.6933756,13957
2.6398742,13958
2.5780685,13959
2.6914413,13960
2.6343782,13961
2.6536436,13962
2.6652713,13963
2.6586373,13964
2.6681633,13965
2.6549478,13966
2.6200447,13967
2.5801532,13968
2.5857472,13969
2.6349149,13970
2.5325658,13971
2.5224612,13972
2.5448146,13973
2.7122133,13974
2.422999,13975
2.5767288,13976
2.6439972,13977
2.764152,13978
2.8944151,13979
2.8499148,13980
2.856402,13981
2.8759117,13982
2.8934855,13983
2.839975,13984
2.873167,13985
2.8085568,13986
2.915148,13987
2.8786309,13988
2.8754625,13989
2.8799875,13990
2.8115363,13991
2.831463,13992
2.8367507,13993
2.778622,13994
2.8545227,13995
2.8628979,13996
2.856024,13997
2.7359335,13998
2.802221,13999
2.800401,14000
2.8405273,14001
2.8088267,14002
2.8218777,14003
2.8019352,14004
2.8867152,14005
2.811414,14006
2.7312295,14007
2.7751222,14008
2.8188567,14009
2.8137813,14010
2.790923,14011
2.861873,14012
2.80214,14013
2.8535151,14014
2.8587155,14015
2.7591357,14016
2.817636,14017
2.8734639,14018
2.8729224,14019
2.8098924,14020
2.7408729,14021
2.7749968,14022
2.7778764,14023
2.7898092,14024
2.7229114,14025
2.7473764,14026
2.758453,14027
2.737795,14028
2.6488957,14029
2.7324739,14030
2.8412611,14031
2.7843583,14032
2.8332307,14033
2.7974002,14034
2.9022624,14035
2.897126,14036
2.8040018,14037
2.797029,14038
2.7787137,14039
2.8226483,14040
2.7122371,14041
2.7492938,14042
2.7184613,14043
2.7113829,14044
2.8343823,14045
2.7685752,14046
2.8222365,14047
2.8070815,14048
2.786823,14049
2.7951398,14050
2.8039305,14051
2.8218822,14052
2.7781417,14053
2.7569816,14054
2.7598917,14055
2.571775,14056
2.6988208,14057
2.601027,14058
2.6543417,14059
2.729766,14060
2.6453552,14061
2.7017784,14062
2.6111863,14063
2.724667,14064
2.6816235,14065
2.703868,14066
2.7140203,14067
2.7853315,14068
2.7124186,14069
2.668428,14070
2.668078,14071
2.6759334,14072
2.677348,14073
2.5998416,14074
2.6996875,14075
2.6554658,14076
2.5558784,14077
2.5711088,14078
2.6246257,14079
2.5783358,14080
2.6646063,14081
2.64042,14082
2.553555,14083
2.5937545,14084
2.5344887,14085
2.6466854,14086
2.472051,14087
2.5422425,14088
2.5869133,14089
2.5460973,14090
2.6143723,14091
2.5794241,14092
2.5635753,14093
2.6093202,14094
2.4969683,14095
2.5476274,14096
2.6321087,14097
2.5554721,14098
2.5845644,14099
2.6482465,14100
2.54147,14101
2.4734514,14102
2.538083,14103
2.6116605,14104
2.6733701,14105
2.6441638,14106
2.5622065,14107
2.6566684,14108
2.6009188,14109
2.6611516,14110
2.627421,14111
2.5504355,14112
2.5798626,14113
2.7083957,14114
2.644638,14115
2.6790955,14116
2.7163768,14117
2.6679187,14118
2.7084227,14119
2.6380718,14120
2.5152092,14121
2.4560208,14122
2.5812314,14123
2.544272,14124
2.5864334,14125
2.5650275,14126
2.5215564,14127
2.4674127,14128
2.3257759,14129
2.3701487,14130
2.3936498,14131
2.4197142,14132
2.436869,14133
2.492847,14134
2.4654381,14135
2.4223874,14136
2.3917208,14137
2.4018,14138
2.353441,14139
2.4447536,14140
2.4461389,14141
2.3907962,14142
2.3896718,14143
2.4122849,14144
2.3690476,14145
2.4162443,14146
2.4547687,14147
2.4414382,14148
2.4606946,14149
2.4253445,14150
2.391102,14151
2.4067059,14152
2.3135867,14153
2.3518195,14154
2.4462175,14155
2.2684083,14156
2.3253021,14157
2.4243493,14158
2.4827187,14159
2.4533727,14160
2.5845265,14161
2.5484338,14162
2.487509,14163
2.5860124,14164
2.625756,14165
2.5919943,14166
2.4389532,14167
2.4981072,14168
2.5503683,14169
2.5595994,14170
2.4856026,14171
2.503717,14172
2.4776583,14173
2.3475235,14174
2.5595384,14175
2.5170894,14176
2.5133357,14177
2.4990003,14178
2.3926604,14179
2.5333402,14180
2.3985627,14181
2.4739423,14182
2.3998203,14183
2.4127638,14184
2.341244,14185
2.5745716,14186
2.5511713,14187
2.4558685,14188
2.5328686,14189
2.5402284,14190
2.4841917,14191
2.3714476,14192
2.4931154,14193
2.4519658,14194
2.3718522,14195
2.403834,14196
2.4998,14197
2.4599855,14198
2.4303591,14199
2.5153863,14200
2.4214535,14201
2.3792593,14202
2.3827124,14203
2.3924983,14204
2.5415092,14205
2.368823,14206
2.5340066,14207
2.5606475,14208
2.5481505,14209
2.439695,14210
2.4267702,14211
2.3268652,14212
2.341619,14213
2.465971,14214
2.4463556,14215
2.4717975,14216
2.476746,14217
2.3828645,14218
2.4367967,14219
2.4126167,14220
2.4479601,14221
2.401635,14222
2.4300122,14223
2.3379881,14224
2.4296043,14225
2.4290302,14226
2.3808594,14227
2.4138265,14228
2.301235,14229
2.3607955,14230
2.416912,14231
2.386271,14232
2.453274,14233
2.550168,14234
2.4460433,14235
2.4057584,14236
2.472963,14237
2.4458673,14238
2.5512264,14239
2.4735644,14240
2.332755,14241
2.5427513,14242
2.3592477,14243
2.3644967,14244
2.4875128,14245
2.4136791,14246
2.4968386,14247
2.575199,14248
2.296304,14249
2.5644898,14250
2.3923004,14251
2.4622662,14252
2.499832,14253
2.4671736,14254
2.375475,14255
2.529484,14256
2.4214675,14257
2.420443,14258
2.4719193,14259
2.3831546,14260
2.6256592,14261
2.5582209,14262
2.415006,14263
2.5961158,14264
2.4650881,14265
2.5226843,14266
2.431474,14267
2.545239,14268
2.5028377,14269
2.5451646,14270
2.3990269,14271
2.4575315,14272
2.627489,14273
2.4368265,14274
2.4645824,14275
2.3717072,14276
2.4568794,14277
2.4862847,14278
2.3014345,14279
2.4650462,14280
2.383867,14281
2.326802,14282
2.4324107,14283
2.4691446,14284
2.2885375,14285
2.4663694,14286
2.3755443,14287
2.330999,14288
2.424954,14289
2.316653,14290
2.437777,14291
2.4727166,14292
2.3385725,14293
2.4274163,14294
2.4175107,14295
2.3844242,14296
2.3966484,14297
2.4573164,14298
2.3190951,14299
2.3488512,14300
2.3810384,14301
2.3065464,14302
2.3930936,14303
2.3283887,14304
2.362059,14305
2.3795848,14306
2.2425084,14307
2.2819126,14308
2.19531,14309
2.2477844,14310
2.128039,14311
2.20035,14312
2.0709465,14313
2.1839597,14314
2.1419952,14315
2.1881905,14316
2.2098992,14317
2.291095,14318
2.324287,14319
2.33675,14320
2.1873577,14321
2.181061,14322
2.180439,14323
2.1707838,14324
2.242567,14325
2.1578531,14326
2.1239297,14327
2.13507,14328
2.0835662,14329
2.122572,14330
2.1793103,14331
2.1765785,14332
2.203689,14333
2.1647432,14334
2.22023,14335
2.1095173,14336
2.1510646,14337
2.1301572,14338
2.0478992,14339
2.0636027,14340
2.0406945,14341
2.1088865,14342
1.9591547,14343
2.0641599,14344
1.9316181,14345
1.8828183,14346
2.0109239,14347
1.9196743,14348
1.9829193,14349
1.9806367,14350
1.9316068,14351
1.9768851,14352
1.7926022,14353
1.7691683,14354
1.7551239,14355
1.7841164,14356
1.7082053,14357
1.7365524,14358
1.6746196,14359
1.5767353,14360
1.6512936,14361
1.4586217,14362
1.4781624,14363
1.5387511,14364
1.634246,14365
1.4930329,14366
1.5783051,14367
1.7770993,14368
1.6380265,14369
1.6198206,14370
1.7074524,14371
1.6501018,14372
1.6698104,14373
1.6277231,14374
1.5215374,14375
1.6043148,14376
1.5156293,14377
1.4219103,14378
1.4716836,14379
1.4870824,14380
1.4582205,14381
1.3796878,14382
1.5711683,14383
1.5067756,14384
1.5316774,14385
1.5115472,14386
1.665407,14387
1.5087011,14388
1.7568885,14389
1.7310963,14390
1.7003832,14391
1.7042077,14392
1.5982937,14393
1.7200875,14394
1.6604068,14395
1.6906558,14396
1.7808677,14397
1.729074,14398
1.7492476,14399
1.6976854,14400
1.7470247,14401
1.7393364,14402
1.7233434,14403
1.6994355,14404
1.7722628,14405
1.6622987,14406
1.7252855,14407
1.6648408,14408
1.6105378,14409
1.6189059,14410
1.7537289,14411
1.6728444,14412
1.6673746,14413
1.7003675,14414
1.611108,14415
1.6528476,14416
1.6428199,14417
1.5784739,14418
1.5607762,14419
1.58246,14420
1.7681056,14421
1.6892264,14422
1.6659043,14423
1.5684919,14424
1.7249092,14425
1.7002919,14426
1.4845703,14427
1.5602484,14428
1.6752018,14429
1.540215,14430
1.5567825,14431
1.5807847,14432
1.593154,14433
1.6043884,14434
1.5502418,14435
1.5717679,14436
1.7132436,14437
1.5543922,14438
1.6534121,14439
1.5932932,14440
1.6147465,14441
1.5399382,14442
1.591527,14443
1.5786295,14444
1.5194793,14445
1.4726045,14446
1.5157385,14447
1.5986404,14448
1.4988555,14449
1.5419785,14450
1.4842257,14451
1.4548204,14452
1.4963729,14453
1.4456956,14454
1.379139,14455
1.4351478,14456
1.4200304,14457
1.270195,14458
1.304102,14459
1.3406721,14460
1.285963,14461
1.2461941,14462
1.3071388,14463
1.2789443,14464
1.2078465,14465
1.2723626,14466
1.1982831,14467
1.1815747,14468
1.2230388,14469
1.1866813,14470
1.2195843,14471
1.1386082,14472
1.1043565,14473
1.1758578,14474
1.2643939,14475
1.1352682,14476
1.1337323,14477
1.1295348,14478
1.1964278,14479
1.0834907,14480
0.9880714,14481
1.0908592,14482
1.1375324,14483
1.0367247,14484
1.0997548,14485
1.0904396,14486
1.1276108,14487
1.105507,14488
1.1009314,14489
1.1879784,14490
1.1057286,14491
1.0683507,14492
1.0543748,14493
1.1453476,14494
1.0277771,14495
1.0089929,14496
1.0455244,14497
1.077596,14498
1.0161419,14499
0.97434986,14500
1.0834926,14501
1.0554798,14502
1.0612599,14503
1.043777,14504
0.9812729,14505
1.1241034,14506
1.0482866,14507
1.0442724,14508
1.0724773,14509
1.0428936,14510
1.076993,14511
0.9888436,14512
1.0175929,14513
1.0137291,14514
1.0701166,14515
1.0759661,14516
1.0538974,14517
1.0958978,14518
1.0099506,14519
1.0660588,14520
1.0788698,14521
1.1266003,14522
1.0935047,14523
1.1156318,14524
1.0771217,14525
1.0217537,14526
0.9950027,14527
1.0702579,14528
1.1100659,14529
1.0279069,14530
1.1252428,14531
1.0896356,14532
1.063541,14533
1.1568514,14534
1.1391269,14535
1.0322556,14536
1.0655625,14537
1.1842488,14538
1.1325895,14539
1.3430024,14540
1.0912765,14541
1.0806191,14542
1.1048853,14543
1.0581127,14544
1.1078986,14545
1.1343875,14546
1.1570572,14547
1.0461255,14548
1.0599494,14549
1.0595417,14550
1.0891557,14551
1.0279888,14552
1.084628,14553
1.0661162,14554
1.1262897,14555
1.162467,14556
1.0428923,14557
1.082849,14558
1.1423303,14559
1.0715785,14560
1.0377353,14561
1.0091946,14562
1.0636525,14563
1.0378406,14564
1.0308851,14565
0.9665972,14566
0.9801466,14567
1.0398796,14568
1.0211114,14569
1.0214477,14570
1.1054846,14571
1.0568633,14572
1.0299244,14573
1.0749385,14574
1.0433699,14575
0.9985474,14576
0.9648864,14577
1.1055241,14578
1.1284384,14579
1.0501689,14580
1.007315,14581
0.9799255,14582
1.032639,14583
1.070854,14584
1.0057938,14585
0.97308964,14586
0.97403884,14587
0.99951535,14588
0.9660671,14589
0.961007,14590
1.0867077,14591
1.0670037,14592
1.0762391,14593
1.0257771,14594
1.1051733,14595
1.0296103,14596
1.1160765,14597
1.0851315,14598
1.0176209,14599
0.97267216,14600
1.0762323,14601
0.9939738,14602
1.0137358,14603
1.0372008,14604
0.98427576,14605
1.067611,14606
1.0228022,14607
0.9949177,14608
1.2046669,14609
1.0052952,14610
1.0494586,14611
1.096569,14612
1.0907688,14613
1.1133531,14614
1.1241097,14615
1.0477471,14616
1.023715,14617
1.0079392,14618
1.0389079,14619
1.0792491,14620
1.0752454,14621
1.1014669,14622
1.0266502,14623
0.97047555,14624
1.0961044,14625
1.0318272,14626
1.0344708,14627
1.1423753,14628
1.087044,14629
1.0897343,14630
1.0334195,14631
0.95397687,14632
1.0055342,14633
1.0432284,14634
1.0130626,14635
1.0631351,14636
1.0725282,14637
1.0351652,14638
1.0971643,14639
1.0162635,14640
1.1418175,14641
1.0379895,14642
1.2508008,14643
1.1461918,14644
1.0558832,14645
1.0724182,14646
1.0711348,14647
1.055514,14648
1.0986874,14649
1.0586253,14650
0.9752665,14651
1.0664556,14652
0.9676468,14653
1.0826885,14654
1.0580803,14655
1.0492146,14656
1.0462646,14657
1.0458382,14658
1.028079,14659
1.0095036,14660
1.0359628,14661
1.0862366,14662
1.1430871,14663
1.0663583,14664
1.1469434,14665
1.0315417,14666
1.0685982,14667
1.047167,14668
1.1033952,14669
1.0642796,14670
1.0772616,14671
1.0633628,14672
1.0889828,14673
1.0720723,14674
1.0898865,14675
1.0211029,14676
1.0476435,14677
1.1164119,14678
1.0530674,14679
1.0687625,14680
1.0126424,14681
1.0108775,14682
1.0258499,14683
0.988104,14684
1.0257107,14685
1.0591158,14686
1.0912505,14687
1.03153,14688
1.0308458,14689
1.0656538,14690
1.0280975,14691
0.99440587,14692
1.0568651,14693
1.0297945,14694
1.0441045,14695
0.9526339,14696
1.1270314,14697
1.1082326,14698
1.0874151,14699
1.1485254,14700
1.1161348,14701
1.1114454,14702
0.9994889,14703
1.0627593,14704
1.0716825,14705
1.0631545,14706
1.0843128,14707
1.0801343,14708
1.1081158,14709
1.0993713,14710
1.0872465,14711
1.1218289,14712
1.0984643,14713
1.0497497,14714
1.062089,14715
1.1037738,14716
1.0297835,14717
1.1435101,14718
1.0567827,14719
1.0565227,14720
