@RELATION 'Music feature'
%rows=1
%columns=14720
%sample_rate=22050
%window_size=512
%step_size=512

@ATTRIBUTE 'Spectral centroid' NUMERIC
@ATTRIBUTE WindowNumber NUMERIC

@DATA
-1.0,1
4574.1055,2
1127.8739,3
1308.8885,4
2484.142,5
1111.1643,6
2839.4102,7
1557.1263,8
1665.3286,9
3186.2842,10
2581.6013,11
1579.7769,12
3256.9395,13
1849.4535,14
2007.544,15
1962.2086,16
2536.251,17
1883.3242,18
1297.1881,19
914.2013,20
940.7191,21
936.71454,22
979.30963,23
995.21405,24
1085.153,25
1050.307,26
996.8495,27
988.23267,28
964.2717,29
1072.4166,30
993.30615,31
1126.4337,32
1219.5999,33
1590.8159,34
1213.4324,35
1170.65,36
1193.5896,37
1480.5905,38
1031.6643,39
1018.26575,40
1044.4478,41
1064.7452,42
1005.31146,43
1003.33514,44
1054.2072,45
1079.0219,46
1263.0533,47
1299.0664,48
1070.7306,49
1183.1648,50
1167.4607,51
1056.4521,52
1049.6705,53
989.42004,54
1044.312,55
1128.031,56
1150.6017,57
1088.3861,58
1108.5984,59
1136.9788,60
1113.805,61
1049.8088,62
956.01044,63
938.1256,64
1002.96704,65
1026.7167,66
990.2613,67
1052.6173,68
1106.0648,69
1097.624,70
1007.1945,71
1129.8099,72
1051.5686,73
1017.8847,74
962.4002,75
956.7091,76
1018.8977,77
1049.267,78
1054.4648,79
1021.43024,80
1018.07074,81
1026.847,82
995.4664,83
1022.70734,84
980.9139,85
876.11334,86
804.0305,87
862.15204,88
933.61835,89
929.3944,90
1002.19543,91
951.39844,92
928.1786,93
892.9552,94
917.6622,95
963.601,96
903.9726,97
893.6019,98
828.21155,99
811.5752,100
705.1491,101
681.88824,102
698.2155,103
697.6061,104
708.8171,105
700.8715,106
726.5093,107
733.3125,108
727.61084,109
760.3907,110
746.29584,111
697.0683,112
728.6202,113
733.19574,114
640.50134,115
718.2016,116
643.0802,117
658.806,118
560.03644,119
551.7936,120
571.289,121
504.17725,122
559.3626,123
540.1585,124
481.82385,125
616.7554,126
762.4889,127
704.37946,128
664.10266,129
629.902,130
599.1654,131
550.11414,132
541.82245,133
553.10944,134
550.67944,135
558.10834,136
537.1064,137
565.3162,138
566.31476,139
555.254,140
553.66406,141
524.69037,142
569.8149,143
574.9303,144
585.122,145
573.6411,146
548.78217,147
570.55676,148
558.1157,149
902.69867,150
864.1709,151
736.34406,152
725.0473,153
711.86835,154
696.6017,155
690.2518,156
673.49036,157
655.8983,158
704.0642,159
704.37805,160
703.15295,161
716.47833,162
783.8766,163
707.7793,164
732.5287,165
732.91656,166
656.1808,167
663.5312,168
679.1038,169
644.2684,170
614.36395,171
598.779,172
617.80585,173
599.28705,174
761.9779,175
820.52203,176
768.9339,177
740.7999,178
723.14966,179
728.5289,180
692.4511,181
717.8998,182
652.0837,183
681.1972,184
706.0155,185
686.3868,186
722.23376,187
761.93915,188
771.9015,189
729.1484,190
743.2416,191
674.5006,192
640.4132,193
635.6569,194
592.8254,195
617.9459,196
600.46686,197
614.3053,198
584.1511,199
565.3078,200
625.22565,201
551.0013,202
574.2992,203
640.0197,204
670.92737,205
675.0638,206
623.42957,207
565.1259,208
564.6965,209
555.1614,210
550.8853,211
599.3577,212
523.3843,213
521.49963,214
564.0181,215
553.8041,216
565.2805,217
591.5499,218
798.79767,219
727.22754,220
715.54987,221
703.1196,222
694.3473,223
714.3992,224
696.85785,225
704.2119,226
692.6183,227
691.0092,228
727.70624,229
670.9314,230
833.26556,231
806.6037,232
718.13727,233
680.64105,234
708.5752,235
675.8645,236
700.0354,237
698.0501,238
688.762,239
664.1245,240
654.973,241
772.26825,242
695.74347,243
699.5935,244
693.42523,245
688.5125,246
687.4126,247
667.868,248
654.70764,249
658.78534,250
606.86786,251
642.5918,252
643.6137,253
654.53723,254
626.37897,255
669.20703,256
640.8575,257
667.8071,258
684.85364,259
632.03076,260
683.7166,261
667.4937,262
646.6042,263
653.2442,264
677.28723,265
666.08923,266
600.1969,267
647.56854,268
606.78046,269
593.08905,270
612.5017,271
641.5389,272
627.8581,273
608.188,274
618.7442,275
613.98114,276
612.00964,277
594.773,278
611.0082,279
580.03687,280
565.97986,281
624.7548,282
531.2084,283
498.3925,284
646.37006,285
519.33466,286
486.06238,287
456.9986,288
427.16953,289
406.34818,290
422.73468,291
402.22003,292
414.92633,293
424.87793,294
414.2313,295
445.0669,296
433.09854,297
440.47632,298
494.86093,299
441.01016,300
473.16177,301
514.79584,302
475.63162,303
509.4925,304
515.25275,305
490.20407,306
520.8425,307
524.0952,308
467.24496,309
533.453,310
505.94553,311
467.26062,312
540.055,313
491.55954,314
488.62094,315
483.49197,316
462.8438,317
501.62735,318
472.02792,319
458.92178,320
493.15833,321
488.07587,322
472.85022,323
497.41528,324
491.3753,325
482.31393,326
504.24307,327
518.74664,328
507.8169,329
530.49506,330
539.96094,331
509.0854,332
543.369,333
583.3208,334
568.4527,335
517.8663,336
528.8747,337
546.4474,338
515.04175,339
501.86636,340
516.54706,341
486.8896,342
498.1975,343
491.4274,344
508.5118,345
503.63306,346
494.69867,347
502.89417,348
503.76782,349
461.1857,350
495.3966,351
501.9079,352
490.49588,353
513.1395,354
488.08316,355
471.51755,356
600.5634,357
788.05023,358
665.82837,359
689.7957,360
699.12634,361
604.3072,362
626.171,363
618.5549,364
583.73517,365
580.75446,366
540.2126,367
542.74945,368
544.3432,369
504.13968,370
547.51337,371
551.4945,372
588.5122,373
816.6613,374
870.50385,375
782.936,376
796.0745,377
703.4905,378
681.7986,379
704.88367,380
544.2219,381
630.44916,382
831.949,383
774.303,384
801.7948,385
807.2228,386
648.74506,387
647.835,388
725.5443,389
716.758,390
783.29517,391
705.4403,392
666.4969,393
682.81287,394
755.06616,395
881.96124,396
819.7932,397
827.5648,398
864.20544,399
952.1103,400
900.33716,401
922.6348,402
948.5922,403
871.1364,404
887.8016,405
1148.1705,406
1014.7881,407
1002.0683,408
1027.5933,409
981.1247,410
1086.3774,411
1032.4856,412
975.79004,413
943.4025,414
928.48193,415
954.0134,416
907.5236,417
1105.2902,418
1061.1926,419
999.1977,420
1066.6395,421
1038.672,422
989.11926,423
1013.93085,424
1091.7141,425
1061.6282,426
1096.3076,427
1135.7241,428
1132.4534,429
1072.7676,430
1083.7866,431
1022.4977,432
1017.5668,433
1022.9818,434
971.37506,435
1069.9368,436
880.07996,437
888.9929,438
1016.31573,439
961.5377,440
883.2161,441
905.0977,442
876.7067,443
860.88885,444
862.0076,445
824.5494,446
983.66724,447
991.01044,448
932.42194,449
945.5112,450
907.33765,451
889.4322,452
1073.9581,453
1013.5737,454
1046.7175,455
1016.931,456
921.44073,457
982.20795,458
953.3303,459
910.3993,460
988.4683,461
957.4716,462
881.0018,463
898.9884,464
775.3766,465
740.8465,466
774.6591,467
714.2712,468
896.9272,469
911.0391,470
895.41095,471
867.12573,472
843.6177,473
815.91254,474
784.99524,475
786.9376,476
762.36896,477
869.20764,478
860.3858,479
843.68304,480
860.0407,481
774.15247,482
756.5802,483
835.831,484
777.9129,485
865.5917,486
956.4729,487
805.14667,488
823.35785,489
844.11505,490
758.0971,491
807.85614,492
847.10986,493
791.3982,494
816.39294,495
849.8447,496
832.97095,497
826.4384,498
819.49396,499
832.0313,500
833.8321,501
778.97955,502
799.38837,503
847.86975,504
832.37976,505
816.0969,506
827.11115,507
702.0813,508
737.2805,509
801.87036,510
770.9234,511
787.66974,512
774.0725,513
907.8314,514
979.06445,515
824.5502,516
852.005,517
889.7546,518
882.7463,519
865.6294,520
903.23975,521
878.57825,522
946.7983,523
925.0141,524
886.3337,525
888.1093,526
933.0241,527
803.80884,528
805.77075,529
804.6015,530
789.43884,531
735.92725,532
808.96344,533
828.6446,534
748.6006,535
754.5474,536
833.54,537
785.4886,538
730.2975,539
752.1907,540
972.54144,541
743.9792,542
734.025,543
794.1179,544
759.94354,545
842.4807,546
762.37317,547
794.7254,548
790.2259,549
731.36115,550
765.09216,551
810.08685,552
719.3651,553
734.2641,554
734.32806,555
783.8028,556
750.5767,557
757.4049,558
779.50684,559
754.0961,560
789.7711,561
779.276,562
861.10974,563
866.3217,564
815.0165,565
837.94684,566
801.6318,567
827.7641,568
770.3771,569
787.80945,570
711.32623,571
705.13007,572
772.024,573
818.70593,574
742.29816,575
746.1973,576
730.4539,577
722.43384,578
712.8859,579
748.20154,580
714.1975,581
722.2649,582
755.4649,583
709.9671,584
647.72614,585
655.0253,586
659.37933,587
651.72363,588
661.17706,589
654.4053,590
671.91974,591
610.27246,592
609.1707,593
622.3305,594
598.4746,595
581.9931,596
588.4199,597
597.2327,598
584.6305,599
601.88763,600
632.65485,601
606.0483,602
544.6476,603
603.7987,604
576.6952,605
507.0057,606
579.16223,607
558.74146,608
487.17157,609
540.8634,610
459.05783,611
471.19955,612
488.48468,613
471.00055,614
499.37854,615
442.2632,616
431.34738,617
448.29727,618
398.7348,619
433.3572,620
436.77457,621
426.4427,622
416.54474,623
442.62488,624
465.00595,625
422.68536,626
433.09598,627
440.5152,628
435.67465,629
438.7754,630
442.99915,631
452.825,632
433.3335,633
428.07248,634
444.5458,635
436.7011,636
443.52896,637
448.93298,638
448.0781,639
464.3269,640
464.37534,641
466.82004,642
459.21353,643
476.02243,644
477.7808,645
464.17444,646
446.31195,647
467.1268,648
456.8644,649
457.59433,650
470.22336,651
450.27203,652
454.38583,653
480.71515,654
448.1968,655
437.7121,656
457.1703,657
460.35294,658
486.67233,659
466.56067,660
456.4839,661
463.43927,662
453.03586,663
498.40445,664
498.4482,665
512.8452,666
458.9416,667
488.94992,668
453.9667,669
471.8372,670
485.10806,671
500.85516,672
474.82202,673
503.5798,674
498.46924,675
525.9172,676
541.6692,677
494.85934,678
493.81348,679
525.0073,680
469.96063,681
488.1362,682
490.23627,683
502.39536,684
504.54465,685
510.35168,686
528.74554,687
550.2034,688
673.9655,689
700.4072,690
697.19415,691
675.9269,692
651.19543,693
650.51953,694
611.9027,695
657.8703,696
587.3754,697
643.4845,698
660.577,699
606.3201,700
588.2635,701
600.23224,702
601.6975,703
616.98096,704
596.5357,705
550.4027,706
567.6557,707
500.26355,708
594.9048,709
532.7624,710
528.218,711
595.0313,712
466.0001,713
538.55005,714
582.54144,715
493.83884,716
548.02386,717
857.23737,718
917.97595,719
907.7058,720
888.0223,721
764.7403,722
679.0415,723
643.00464,724
652.1492,725
644.5251,726
601.1897,727
571.5505,728
534.71405,729
587.8732,730
603.0733,731
604.9707,732
657.48145,733
645.6106,734
717.6872,735
695.94714,736
642.6501,737
634.4224,738
610.10974,739
585.5854,740
1072.9723,741
1035.0126,742
995.21594,743
958.85004,744
903.2518,745
908.98016,746
866.695,747
853.2935,748
802.78326,749
834.31805,750
751.93884,751
812.2211,752
789.4181,753
792.9982,754
819.77136,755
819.88214,756
803.6976,757
798.3519,758
815.2753,759
802.9258,760
821.75024,761
754.30206,762
784.98285,763
768.82764,764
729.9951,765
759.8769,766
1056.874,767
984.92,768
916.86975,769
891.49554,770
861.32947,771
810.87164,772
788.221,773
770.8045,774
779.4394,775
810.3409,776
812.68506,777
820.10614,778
802.7001,779
749.0739,780
762.6322,781
754.4005,782
765.4182,783
756.4342,784
728.94543,785
821.869,786
745.478,787
701.7047,788
788.72125,789
782.12366,790
787.34216,791
673.9041,792
580.1776,793
647.066,794
609.7948,795
641.72064,796
621.96857,797
616.98584,798
599.5332,799
613.1907,800
612.1718,801
547.2857,802
525.3012,803
531.4038,804
542.8175,805
530.655,806
517.0114,807
525.487,808
517.11755,809
524.268,810
518.4468,811
547.679,812
537.44324,813
531.8553,814
527.52686,815
538.9318,816
568.3659,817
536.1947,818
489.15918,819
521.35925,820
556.2542,821
532.6589,822
507.6728,823
490.22278,824
507.45566,825
530.52026,826
501.67627,827
521.8478,828
538.65247,829
569.0619,830
514.9851,831
504.8911,832
546.8231,833
561.1936,834
557.96063,835
604.88806,836
583.7136,837
513.4458,838
571.54926,839
592.62726,840
589.66656,841
537.13885,842
547.7402,843
542.9469,844
588.01544,845
579.9195,846
547.90454,847
549.6106,848
505.94437,849
596.08606,850
601.5935,851
616.9128,852
585.1925,853
646.66235,854
661.0905,855
595.20386,856
612.54675,857
617.5518,858
627.3866,859
574.8497,860
586.10767,861
610.1264,862
581.9896,863
530.32635,864
535.5732,865
556.39404,866
538.0802,867
500.27417,868
464.1098,869
447.76135,870
438.8422,871
449.98578,872
474.07202,873
478.52438,874
506.39432,875
511.63397,876
503.55127,877
567.1605,878
572.1995,879
560.59656,880
529.24963,881
522.65125,882
558.5006,883
546.2731,884
551.5758,885
558.2406,886
533.8319,887
511.41232,888
520.9587,889
545.04156,890
555.0851,891
566.0387,892
566.2812,893
576.17944,894
555.6392,895
576.92474,896
567.12695,897
547.076,898
546.0742,899
548.6005,900
560.79675,901
563.6958,902
591.1192,903
577.8504,904
568.3859,905
522.733,906
517.4277,907
482.7386,908
464.37637,909
475.50323,910
492.9295,911
493.78662,912
507.24384,913
536.29034,914
652.3822,915
672.30585,916
670.3721,917
669.3728,918
654.77136,919
653.9143,920
651.3128,921
623.0764,922
589.2601,923
556.55884,924
619.9118,925
576.71295,926
578.58356,927
561.2647,928
575.98553,929
607.4144,930
555.8609,931
557.2516,932
532.49054,933
526.3988,934
517.45575,935
722.6034,936
739.45825,937
724.8239,938
654.40784,939
648.6501,940
665.9647,941
663.81824,942
647.0358,943
672.1879,944
651.5627,945
675.2324,946
675.60223,947
667.48267,948
754.3456,949
693.341,950
695.8855,951
720.39136,952
566.33075,953
559.06866,954
598.1029,955
557.3137,956
560.2169,957
520.2052,958
506.91226,959
525.6202,960
538.3234,961
553.08594,962
503.2607,963
565.2934,964
508.8386,965
571.41254,966
572.16693,967
502.94897,968
484.55353,969
489.29874,970
476.63492,971
518.29926,972
526.239,973
501.68564,974
481.85187,975
489.8601,976
493.2345,977
515.41205,978
485.53833,979
481.81024,980
514.1548,981
444.2104,982
453.2032,983
487.52658,984
502.25568,985
477.7765,986
474.79492,987
434.60928,988
445.53705,989
476.98074,990
392.46542,991
400.74066,992
405.01205,993
398.96454,994
399.39307,995
374.55792,996
395.27963,997
418.09836,998
417.4468,999
415.41565,1000
424.7477,1001
453.43637,1002
457.48697,1003
492.18677,1004
484.43066,1005
484.2363,1006
459.6129,1007
442.56778,1008
438.8917,1009
433.49567,1010
442.59613,1011
443.39856,1012
425.05276,1013
491.16766,1014
491.45258,1015
472.80426,1016
462.54184,1017
444.7279,1018
466.80127,1019
519.4761,1020
489.05917,1021
520.10626,1022
550.1254,1023
571.3265,1024
522.46545,1025
727.97156,1026
936.4224,1027
828.5577,1028
791.8394,1029
786.02484,1030
794.9157,1031
788.7213,1032
801.463,1033
750.9915,1034
829.1752,1035
763.1263,1036
764.8661,1037
688.3872,1038
673.3046,1039
667.5117,1040
672.5288,1041
649.7213,1042
635.5794,1043
606.514,1044
619.4592,1045
622.9754,1046
626.03455,1047
612.8416,1048
625.2897,1049
590.29944,1050
634.6706,1051
593.5268,1052
574.537,1053
565.32324,1054
567.31195,1055
1049.27,1056
890.7842,1057
891.86945,1058
833.90094,1059
784.0277,1060
771.574,1061
756.0911,1062
768.6414,1063
774.2365,1064
807.18335,1065
814.0692,1066
852.6576,1067
816.6831,1068
849.54724,1069
755.4237,1070
740.3425,1071
996.72345,1072
937.7663,1073
898.28516,1074
872.065,1075
824.04956,1076
817.6239,1077
858.1409,1078
840.97424,1079
915.3931,1080
913.07367,1081
1029.6682,1082
1003.4154,1083
848.751,1084
884.81537,1085
829.1742,1086
845.0061,1087
839.849,1088
788.0732,1089
831.54486,1090
863.8145,1091
881.4998,1092
1095.6697,1093
955.5231,1094
956.023,1095
840.2631,1096
853.5634,1097
822.4817,1098
876.694,1099
883.79004,1100
786.6693,1101
852.8945,1102
835.87604,1103
800.69116,1104
817.2392,1105
783.65796,1106
739.2339,1107
710.9993,1108
754.2645,1109
769.2072,1110
906.24866,1111
750.46985,1112
829.5374,1113
735.88226,1114
711.3681,1115
724.32855,1116
666.9544,1117
758.3523,1118
697.88715,1119
693.02277,1120
744.9792,1121
658.701,1122
710.17255,1123
692.08246,1124
663.0229,1125
647.35645,1126
678.3166,1127
608.7921,1128
646.3226,1129
616.52136,1130
639.8111,1131
660.74756,1132
603.1454,1133
641.8063,1134
632.1979,1135
612.2183,1136
713.7644,1137
639.1249,1138
635.16254,1139
573.89014,1140
524.1875,1141
544.6833,1142
526.20795,1143
537.19916,1144
551.80316,1145
555.2545,1146
583.6642,1147
614.34314,1148
614.7357,1149
699.7095,1150
766.0191,1151
635.42737,1152
671.0967,1153
701.6381,1154
708.4136,1155
694.46423,1156
656.55994,1157
662.37103,1158
649.3725,1159
989.3453,1160
1101.0145,1161
942.0513,1162
887.2159,1163
828.18384,1164
830.92804,1165
812.51715,1166
780.6319,1167
814.31104,1168
829.35486,1169
747.6162,1170
767.2873,1171
735.9297,1172
700.2379,1173
693.6053,1174
740.47,1175
762.84174,1176
720.2215,1177
674.70636,1178
643.32117,1179
663.07404,1180
713.85815,1181
681.071,1182
705.1133,1183
652.9983,1184
656.2267,1185
657.2683,1186
645.53375,1187
662.1491,1188
735.2288,1189
951.82837,1190
911.89484,1191
860.6126,1192
854.79694,1193
863.82306,1194
818.4869,1195
827.9961,1196
909.0578,1197
873.9873,1198
843.9285,1199
836.3718,1200
817.72,1201
804.9963,1202
771.10223,1203
773.441,1204
774.4127,1205
700.8201,1206
687.74884,1207
690.979,1208
700.8309,1209
654.1665,1210
597.82,1211
556.50543,1212
575.90173,1213
601.9694,1214
587.7208,1215
618.618,1216
601.5927,1217
601.3478,1218
826.75977,1219
818.1215,1220
794.5937,1221
716.0125,1222
709.5645,1223
699.018,1224
704.4312,1225
704.6451,1226
751.1536,1227
795.9259,1228
761.68146,1229
763.9075,1230
738.9907,1231
809.33936,1232
787.58234,1233
781.215,1234
780.54193,1235
734.0323,1236
732.9115,1237
769.2009,1238
771.7532,1239
776.4447,1240
753.4389,1241
720.57245,1242
759.80566,1243
767.33484,1244
686.8845,1245
671.5928,1246
631.5357,1247
666.78485,1248
733.8122,1249
690.9236,1250
675.234,1251
673.9038,1252
644.48236,1253
704.1578,1254
691.3498,1255
655.6883,1256
698.82025,1257
696.649,1258
702.63354,1259
728.07983,1260
646.3595,1261
649.08527,1262
624.5554,1263
701.91724,1264
669.3549,1265
674.2578,1266
602.1839,1267
653.9727,1268
625.3014,1269
591.94385,1270
584.59,1271
598.85583,1272
552.48175,1273
587.1078,1274
636.4202,1275
675.6303,1276
632.1216,1277
617.7382,1278
596.82776,1279
575.1217,1280
567.5939,1281
540.7778,1282
574.5086,1283
557.24316,1284
557.23566,1285
527.8849,1286
549.65326,1287
564.0614,1288
585.4484,1289
574.5232,1290
512.8522,1291
498.19675,1292
478.24078,1293
496.24808,1294
483.39102,1295
478.26807,1296
450.91257,1297
458.3165,1298
427.5387,1299
440.90897,1300
446.7613,1301
424.46417,1302
419.82507,1303
433.0119,1304
425.55365,1305
428.4993,1306
431.74472,1307
425.1211,1308
412.9616,1309
398.07132,1310
409.7765,1311
409.6148,1312
408.66238,1313
432.5999,1314
433.2765,1315
429.9343,1316
419.531,1317
442.23206,1318
451.1353,1319
441.55682,1320
458.29266,1321
436.41367,1322
445.01263,1323
436.0387,1324
415.38834,1325
421.7335,1326
432.82648,1327
444.95267,1328
433.76004,1329
431.58017,1330
444.95898,1331
424.27283,1332
422.0615,1333
406.8945,1334
457.83017,1335
429.8062,1336
406.5688,1337
387.1645,1338
374.71564,1339
385.9111,1340
396.3524,1341
400.79633,1342
388.83456,1343
393.24863,1344
397.32758,1345
397.79565,1346
429.43042,1347
412.29062,1348
423.63553,1349
458.37515,1350
425.73587,1351
451.77972,1352
455.48306,1353
461.94662,1354
457.22437,1355
506.20862,1356
514.094,1357
508.5894,1358
498.67242,1359
467.5401,1360
538.1333,1361
494.46567,1362
522.5269,1363
522.65704,1364
474.13828,1365
518.46985,1366
499.85333,1367
505.10776,1368
522.4156,1369
493.2455,1370
508.5607,1371
522.75116,1372
549.9244,1373
581.97394,1374
503.15582,1375
543.243,1376
530.5043,1377
530.06604,1378
537.9914,1379
505.51797,1380
520.4565,1381
533.79755,1382
490.06305,1383
496.8223,1384
510.9973,1385
477.5828,1386
515.5662,1387
531.0557,1388
521.6111,1389
532.48926,1390
551.874,1391
545.77673,1392
578.443,1393
512.6635,1394
516.8802,1395
543.0641,1396
540.19385,1397
562.2129,1398
598.9849,1399
652.3589,1400
632.915,1401
578.353,1402
671.2691,1403
621.9038,1404
495.85928,1405
596.4463,1406
662.8771,1407
664.3702,1408
628.6665,1409
612.92896,1410
594.01447,1411
587.2981,1412
559.61194,1413
577.6522,1414
539.0017,1415
563.85376,1416
571.779,1417
552.218,1418
568.7869,1419
609.50385,1420
573.42584,1421
566.20355,1422
603.9337,1423
531.45087,1424
590.22876,1425
539.45667,1426
533.8048,1427
505.0174,1428
506.15884,1429
555.02844,1430
549.79694,1431
556.727,1432
522.8314,1433
519.81494,1434
508.78976,1435
908.12823,1436
970.09644,1437
945.6812,1438
976.1827,1439
857.33984,1440
848.2832,1441
903.83856,1442
747.5412,1443
668.75336,1444
704.1634,1445
658.65436,1446
706.95056,1447
738.25446,1448
1038.5074,1449
910.7601,1450
814.99255,1451
830.0185,1452
797.8463,1453
785.8845,1454
749.6471,1455
716.4321,1456
675.8305,1457
691.0472,1458
773.4738,1459
1003.09174,1460
977.62915,1461
987.95966,1462
991.6476,1463
968.65875,1464
933.6766,1465
874.6099,1466
907.6806,1467
827.48956,1468
805.0896,1469
1046.5642,1470
1010.65015,1471
1008.82733,1472
936.0957,1473
945.58344,1474
967.1667,1475
1000.66876,1476
958.33453,1477
946.74854,1478
909.32086,1479
890.0117,1480
913.1581,1481
930.0388,1482
869.0133,1483
882.093,1484
1050.9797,1485
937.1432,1486
906.58215,1487
891.0207,1488
843.4488,1489
881.55084,1490
929.0292,1491
842.1395,1492
788.58673,1493
803.9788,1494
756.1253,1495
720.86597,1496
782.0758,1497
760.70074,1498
986.43066,1499
985.2202,1500
899.5845,1501
843.63745,1502
810.26465,1503
805.9485,1504
795.9829,1505
776.2768,1506
782.51764,1507
809.863,1508
784.7817,1509
757.24475,1510
810.1626,1511
790.60175,1512
829.83014,1513
820.77655,1514
824.5685,1515
855.3985,1516
811.3706,1517
872.83044,1518
814.723,1519
732.3151,1520
719.88586,1521
663.3624,1522
718.32697,1523
659.09247,1524
639.16785,1525
689.86487,1526
627.6517,1527
641.5693,1528
619.7037,1529
614.2252,1530
647.55927,1531
834.18286,1532
798.7159,1533
694.2212,1534
671.52637,1535
640.009,1536
627.62134,1537
631.00854,1538
609.4505,1539
613.6276,1540
618.035,1541
623.57965,1542
607.8227,1543
638.1936,1544
615.6727,1545
602.0607,1546
663.5431,1547
607.01294,1548
597.64636,1549
611.57385,1550
575.09186,1551
645.86475,1552
622.5475,1553
939.301,1554
986.98126,1555
842.0058,1556
749.66315,1557
749.7582,1558
759.35547,1559
709.13617,1560
694.48663,1561
678.8599,1562
719.808,1563
703.85187,1564
718.01917,1565
714.6567,1566
700.0748,1567
666.4423,1568
711.89166,1569
651.0936,1570
674.33014,1571
730.34564,1572
657.19354,1573
669.5892,1574
659.0691,1575
644.7171,1576
654.301,1577
848.19434,1578
780.09674,1579
764.5584,1580
714.1976,1581
723.8736,1582
745.7141,1583
731.2474,1584
759.14606,1585
703.74817,1586
735.84186,1587
744.7199,1588
746.6502,1589
764.79224,1590
795.5771,1591
789.77234,1592
811.8716,1593
774.1372,1594
819.9096,1595
766.97784,1596
795.37115,1597
802.4221,1598
774.2457,1599
806.825,1600
695.90155,1601
703.3948,1602
685.4515,1603
658.23004,1604
923.2292,1605
790.51514,1606
692.35254,1607
694.69745,1608
653.4927,1609
615.6263,1610
668.5042,1611
676.8244,1612
593.6763,1613
645.69183,1614
596.39465,1615
586.2078,1616
637.6717,1617
631.35834,1618
668.55615,1619
684.5598,1620
626.6083,1621
624.0431,1622
636.5569,1623
572.4551,1624
804.80707,1625
807.8459,1626
725.9749,1627
770.73474,1628
708.7452,1629
703.19196,1630
732.5258,1631
679.82886,1632
674.7618,1633
708.68463,1634
692.704,1635
700.5272,1636
783.94775,1637
802.20154,1638
778.36774,1639
738.97253,1640
721.52264,1641
713.4611,1642
694.6267,1643
692.16394,1644
722.93097,1645
716.9071,1646
736.5567,1647
772.5705,1648
726.0256,1649
697.44214,1650
698.23773,1651
686.58466,1652
678.05493,1653
674.7185,1654
666.80664,1655
637.73676,1656
619.94165,1657
627.89453,1658
650.69977,1659
634.6522,1660
652.35443,1661
681.46075,1662
680.0223,1663
692.23096,1664
710.3196,1665
658.4688,1666
683.469,1667
749.689,1668
727.7419,1669
719.95306,1670
727.1597,1671
707.8627,1672
713.9425,1673
655.80444,1674
685.62317,1675
657.7669,1676
638.897,1677
665.59607,1678
689.721,1679
675.2857,1680
648.96783,1681
664.84467,1682
677.8872,1683
651.11127,1684
693.6303,1685
687.735,1686
651.86707,1687
683.19556,1688
651.318,1689
645.35925,1690
643.766,1691
541.65265,1692
469.01038,1693
480.67532,1694
462.49265,1695
445.5716,1696
447.39273,1697
441.36948,1698
453.96494,1699
468.39697,1700
479.03696,1701
453.87173,1702
480.06796,1703
494.21085,1704
472.11462,1705
511.29123,1706
487.91168,1707
479.36984,1708
526.74005,1709
510.2056,1710
504.8578,1711
538.648,1712
492.35522,1713
496.60156,1714
553.24414,1715
529.2825,1716
618.1299,1717
561.7443,1718
508.5632,1719
543.3003,1720
544.7662,1721
499.093,1722
511.8275,1723
516.14246,1724
493.92688,1725
522.8895,1726
475.35614,1727
496.94434,1728
490.4546,1729
495.85223,1730
537.6603,1731
527.4145,1732
510.91122,1733
555.03375,1734
514.29346,1735
473.4459,1736
494.71204,1737
495.55432,1738
477.18185,1739
502.19443,1740
485.80792,1741
451.99786,1742
492.07495,1743
449.44028,1744
477.06296,1745
512.1503,1746
438.50012,1747
471.19693,1748
479.65378,1749
452.49606,1750
495.3764,1751
479.96628,1752
485.52893,1753
520.30695,1754
455.04913,1755
516.5596,1756
489.88562,1757
488.0603,1758
714.7961,1759
693.771,1760
636.90564,1761
635.8415,1762
611.6833,1763
602.56824,1764
633.06616,1765
578.8722,1766
530.81714,1767
614.00854,1768
536.83685,1769
544.3183,1770
545.13336,1771
520.6204,1772
543.9176,1773
535.3694,1774
525.81036,1775
520.75024,1776
513.3024,1777
510.6663,1778
529.2346,1779
481.3206,1780
533.5598,1781
562.2576,1782
548.48956,1783
683.94495,1784
848.8203,1785
868.5496,1786
865.0077,1787
820.96515,1788
784.5332,1789
731.442,1790
698.894,1791
592.17194,1792
514.1043,1793
573.8296,1794
594.3604,1795
577.7177,1796
1034.6686,1797
910.3577,1798
764.64545,1799
797.2346,1800
682.9074,1801
698.6469,1802
686.2541,1803
650.33936,1804
671.2733,1805
678.5996,1806
831.41974,1807
912.7822,1808
853.3795,1809
919.65735,1810
875.4939,1811
854.75604,1812
820.6068,1813
812.998,1814
768.14294,1815
733.78955,1816
1028.2036,1817
998.3946,1818
954.2902,1819
938.80304,1820
880.0694,1821
865.7009,1822
861.20404,1823
833.685,1824
752.4424,1825
948.6817,1826
1011.18555,1827
947.8087,1828
940.84094,1829
952.5007,1830
892.7405,1831
870.10516,1832
873.84454,1833
1050.4875,1834
935.7042,1835
877.5262,1836
846.83356,1837
852.22296,1838
838.07227,1839
860.6224,1840
858.4951,1841
770.29675,1842
702.1171,1843
853.3776,1844
895.4161,1845
850.93195,1846
834.4343,1847
807.0191,1848
778.5178,1849
775.01733,1850
758.1072,1851
782.569,1852
768.31525,1853
785.1577,1854
733.3938,1855
754.30524,1856
785.26556,1857
756.06396,1858
788.1084,1859
778.8938,1860
770.25934,1861
733.7284,1862
735.5305,1863
737.20605,1864
2009.5089,1865
1747.4055,1866
1530.4556,1867
1367.9437,1868
1207.6931,1869
1206.2325,1870
1213.0304,1871
1188.0828,1872
1232.9137,1873
1258.9921,1874
1138.0621,1875
832.85004,1876
916.0303,1877
832.5715,1878
799.8408,1879
702.32587,1880
757.3187,1881
717.9654,1882
751.5345,1883
666.17084,1884
1588.7848,1885
1242.86,1886
934.866,1887
1032.8956,1888
935.1929,1889
990.5096,1890
1109.4344,1891
1080.2703,1892
1006.17163,1893
941.33154,1894
964.48584,1895
802.4852,1896
989.42035,1897
1468.3253,1898
1034.4011,1899
889.395,1900
928.16425,1901
888.3733,1902
933.42126,1903
1005.3971,1904
986.95197,1905
1515.7349,1906
1817.8608,1907
1612.5919,1908
1434.55,1909
1248.5986,1910
1483.4384,1911
1396.1752,1912
1447.6263,1913
1669.0107,1914
1711.4651,1915
1496.8635,1916
1362.234,1917
1187.3862,1918
909.5755,1919
979.5463,1920
1125.4321,1921
1462.1339,1922
1412.1411,1923
1338.6436,1924
1271.9971,1925
1215.1938,1926
1157.1742,1927
1014.17004,1928
1225.5706,1929
1135.2871,1930
981.96594,1931
1121.2454,1932
1153.2042,1933
1084.5819,1934
1389.012,1935
1231.92,1936
1203.4482,1937
1260.9994,1938
1081.1986,1939
995.9033,1940
1049.4086,1941
1224.7303,1942
1158.8861,1943
1099.4523,1944
1074.43,1945
1036.7616,1946
994.6092,1947
954.8142,1948
921.8581,1949
1189.5808,1950
1081.7483,1951
912.12317,1952
1003.9347,1953
967.5214,1954
816.5801,1955
1128.4319,1956
1063.0164,1957
994.09985,1958
1081.8907,1959
945.1979,1960
974.66144,1961
999.667,1962
905.10443,1963
956.83704,1964
975.4237,1965
963.2059,1966
966.784,1967
928.1451,1968
912.35803,1969
939.51355,1970
922.6799,1971
882.11395,1972
954.6629,1973
878.6742,1974
858.6256,1975
862.02203,1976
926.37036,1977
961.1854,1978
948.3239,1979
925.0206,1980
891.2675,1981
865.661,1982
855.55835,1983
877.60535,1984
816.79724,1985
776.8159,1986
749.02295,1987
786.7164,1988
738.05646,1989
768.39136,1990
800.3916,1991
805.3479,1992
794.163,1993
857.3981,1994
831.904,1995
771.75354,1996
726.4229,1997
732.0794,1998
765.838,1999
747.3172,2000
724.9164,2001
728.7185,2002
799.7789,2003
689.6862,2004
711.8431,2005
696.39734,2006
686.9039,2007
702.329,2008
676.744,2009
650.9101,2010
651.64166,2011
690.8402,2012
681.0742,2013
714.10974,2014
694.6778,2015
624.95306,2016
704.2074,2017
674.6838,2018
682.7605,2019
669.42035,2020
698.9256,2021
676.3727,2022
710.482,2023
648.0253,2024
681.2955,2025
657.1256,2026
641.52924,2027
636.89014,2028
670.36334,2029
617.9824,2030
613.3493,2031
616.00104,2032
630.91943,2033
597.22516,2034
595.44464,2035
606.5929,2036
574.5275,2037
565.1962,2038
562.81616,2039
548.2157,2040
519.1826,2041
632.3589,2042
508.14484,2043
556.3713,2044
565.6211,2045
416.7159,2046
450.3261,2047
446.83353,2048
405.08868,2049
431.3404,2050
424.8002,2051
415.55978,2052
450.70013,2053
430.7925,2054
455.91965,2055
469.59076,2056
446.4497,2057
492.78336,2058
520.3432,2059
496.43863,2060
488.91745,2061
519.0309,2062
484.66135,2063
463.23056,2064
489.12054,2065
460.56805,2066
476.88882,2067
478.42487,2068
450.34775,2069
483.82007,2070
447.98264,2071
454.04016,2072
547.8181,2073
539.9901,2074
514.0188,2075
512.503,2076
504.58246,2077
518.1743,2078
503.8641,2079
486.02747,2080
509.57138,2081
484.6097,2082
484.9059,2083
514.683,2084
486.53976,2085
494.17642,2086
513.4043,2087
488.45996,2088
520.44794,2089
512.29517,2090
481.3997,2091
500.13538,2092
474.0713,2093
490.00836,2094
487.95825,2095
464.47794,2096
456.82852,2097
473.89337,2098
470.9657,2099
483.67377,2100
471.6166,2101
488.9926,2102
471.32538,2103
435.02533,2104
482.5118,2105
445.15384,2106
606.967,2107
668.322,2108
601.61273,2109
634.9685,2110
602.16296,2111
526.65485,2112
564.3465,2113
561.60895,2114
510.52914,2115
552.6257,2116
485.70828,2117
504.2323,2118
543.69257,2119
487.1895,2120
543.5429,2121
529.8608,2122
528.0015,2123
541.71185,2124
521.9916,2125
475.56357,2126
554.1641,2127
476.072,2128
484.0101,2129
564.40063,2130
524.09454,2131
545.3231,2132
592.02856,2133
550.03156,2134
538.89343,2135
536.8917,2136
498.1709,2137
543.9182,2138
488.329,2139
451.83014,2140
521.5416,2141
454.94482,2142
428.0262,2143
484.1254,2144
459.58926,2145
463.269,2146
487.8527,2147
440.99207,2148
484.11078,2149
459.4368,2150
422.21106,2151
419.07465,2152
411.4986,2153
585.07184,2154
599.712,2155
579.88635,2156
576.55365,2157
565.61053,2158
534.6396,2159
545.3558,2160
575.8652,2161
557.2499,2162
572.0866,2163
608.3245,2164
568.46014,2165
586.6182,2166
575.5225,2167
603.0686,2168
535.1558,2169
558.0477,2170
580.95166,2171
501.35962,2172
483.0931,2173
507.8926,2174
546.4145,2175
928.2056,2176
851.17615,2177
790.22375,2178
843.6865,2179
777.4463,2180
712.87335,2181
762.97534,2182
704.9469,2183
686.75916,2184
669.3008,2185
632.7589,2186
609.9119,2187
696.86694,2188
778.99884,2189
725.80566,2190
689.6414,2191
683.8665,2192
671.5124,2193
681.5472,2194
636.1883,2195
585.2627,2196
613.1014,2197
607.9027,2198
650.1761,2199
748.5607,2200
945.12335,2201
861.523,2202
844.3865,2203
855.87933,2204
849.3507,2205
888.3139,2206
806.6302,2207
796.2834,2208
817.00464,2209
762.25055,2210
719.7609,2211
734.0169,2212
693.38354,2213
784.8309,2214
715.28046,2215
672.98486,2216
679.7602,2217
611.8795,2218
626.79626,2219
654.926,2220
544.58185,2221
589.72375,2222
632.0983,2223
535.21173,2224
614.50964,2225
591.9327,2226
597.40686,2227
671.6929,2228
607.6199,2229
573.98334,2230
696.0403,2231
600.5734,2232
542.09644,2233
657.59595,2234
562.3173,2235
625.4932,2236
623.2467,2237
599.8275,2238
672.35986,2239
613.179,2240
616.9969,2241
659.0909,2242
614.20795,2243
566.01575,2244
622.54517,2245
571.3313,2246
562.7974,2247
627.3812,2248
680.7364,2249
879.1127,2250
754.2225,2251
698.14264,2252
733.65045,2253
695.6481,2254
683.5226,2255
739.9531,2256
689.1716,2257
691.4946,2258
680.2545,2259
654.21515,2260
643.93115,2261
640.0698,2262
650.17535,2263
650.4972,2264
618.23016,2265
631.36896,2266
662.20013,2267
633.067,2268
645.0338,2269
666.29047,2270
632.12634,2271
649.3879,2272
639.34424,2273
646.0452,2274
664.6472,2275
652.7218,2276
657.7373,2277
608.7445,2278
637.4035,2279
647.78,2280
730.3164,2281
774.4603,2282
684.59235,2283
700.6762,2284
741.4214,2285
775.7646,2286
765.8524,2287
720.03687,2288
727.91956,2289
726.7902,2290
729.06195,2291
695.2688,2292
742.52185,2293
773.6145,2294
790.34766,2295
742.68054,2296
836.609,2297
744.95306,2298
749.15753,2299
771.98334,2300
741.244,2301
724.98395,2302
1032.3099,2303
909.41614,2304
835.3125,2305
859.3178,2306
794.1528,2307
781.551,2308
849.29224,2309
805.6093,2310
770.68823,2311
953.85565,2312
1037.5795,2313
812.4865,2314
827.20197,2315
804.5296,2316
797.65576,2317
858.19006,2318
833.77344,2319
802.17816,2320
871.06195,2321
876.24176,2322
956.7355,2323
947.6593,2324
855.81604,2325
808.5088,2326
778.61786,2327
860.67566,2328
854.5535,2329
837.0662,2330
861.8074,2331
885.67645,2332
823.53937,2333
879.97925,2334
812.43243,2335
772.92725,2336
799.1858,2337
716.16406,2338
675.7021,2339
615.439,2340
673.9278,2341
638.58105,2342
647.1966,2343
758.7181,2344
629.9245,2345
604.7887,2346
888.33685,2347
939.5011,2348
917.13727,2349
864.8075,2350
854.74866,2351
863.4398,2352
804.6152,2353
827.3355,2354
848.11914,2355
736.9338,2356
1085.8547,2357
1135.7622,2358
1024.0245,2359
945.11017,2360
900.53925,2361
833.62256,2362
779.34247,2363
796.393,2364
803.7712,2365
795.40607,2366
809.2318,2367
796.07916,2368
741.5602,2369
705.70935,2370
695.37244,2371
695.9668,2372
693.00507,2373
658.34814,2374
609.7148,2375
656.08966,2376
661.97754,2377
685.0299,2378
637.91583,2379
693.59204,2380
632.698,2381
706.3034,2382
614.1987,2383
663.7684,2384
594.47797,2385
730.65204,2386
674.5306,2387
625.8446,2388
671.7087,2389
669.03534,2390
703.5657,2391
707.8021,2392
717.9961,2393
680.5261,2394
857.98486,2395
604.05066,2396
774.3857,2397
745.035,2398
713.50684,2399
697.5708,2400
663.1489,2401
708.24207,2402
653.7197,2403
705.2423,2404
716.92346,2405
704.9376,2406
1115.1636,2407
1052.069,2408
1036.6022,2409
937.09827,2410
1012.2015,2411
921.9494,2412
937.57385,2413
850.1319,2414
904.5709,2415
875.0745,2416
844.74146,2417
826.4507,2418
788.18335,2419
725.0913,2420
774.9436,2421
788.19763,2422
772.34283,2423
783.10254,2424
757.8175,2425
743.40845,2426
818.81024,2427
864.1531,2428
858.3996,2429
926.38245,2430
813.738,2431
742.89935,2432
931.5634,2433
998.03937,2434
945.5115,2435
897.96564,2436
886.1052,2437
873.81665,2438
826.3597,2439
835.2324,2440
803.6232,2441
809.57513,2442
791.7719,2443
818.68304,2444
821.6005,2445
814.11993,2446
783.68134,2447
808.9711,2448
679.63763,2449
705.1176,2450
709.1397,2451
678.5682,2452
1205.9286,2453
1190.1814,2454
1119.8901,2455
1032.7338,2456
1033.7579,2457
1045.3328,2458
1039.8463,2459
1048.0825,2460
1004.39026,2461
976.9557,2462
912.3034,2463
891.4301,2464
899.2584,2465
885.27313,2466
887.3281,2467
1188.9595,2468
1072.5508,2469
1069.5334,2470
1047.34,2471
950.4997,2472
919.234,2473
892.136,2474
870.5315,2475
834.44543,2476
890.4307,2477
1112.9542,2478
967.33923,2479
947.75226,2480
928.8228,2481
921.78033,2482
906.8918,2483
903.31836,2484
1143.3624,2485
1143.7074,2486
1071.2776,2487
1045.2444,2488
1009.97144,2489
1001.47766,2490
933.9079,2491
955.78864,2492
1148.406,2493
1113.4598,2494
1113.6786,2495
1112.3009,2496
1089.6328,2497
1144.5903,2498
1022.2437,2499
1056.0175,2500
1248.6941,2501
1152.2166,2502
1102.9185,2503
1103.7598,2504
1075.6176,2505
1090.5135,2506
1098.4099,2507
1110.5703,2508
1040.8297,2509
990.6016,2510
998.90894,2511
1026.8906,2512
1036.2388,2513
951.3927,2514
865.67194,2515
855.45544,2516
857.67224,2517
1141.6432,2518
1216.2957,2519
1204.3625,2520
1158.345,2521
1063.8925,2522
1063.1008,2523
1028.2451,2524
1002.72833,2525
996.9757,2526
968.7376,2527
916.903,2528
892.5259,2529
981.89984,2530
925.2776,2531
944.51056,2532
911.2929,2533
868.7156,2534
835.3169,2535
846.0366,2536
819.4773,2537
788.24146,2538
837.1543,2539
828.8374,2540
780.92786,2541
849.28204,2542
746.80096,2543
808.3195,2544
708.9067,2545
663.05194,2546
679.562,2547
620.9506,2548
636.8054,2549
646.17664,2550
640.28546,2551
648.159,2552
713.87134,2553
775.0594,2554
727.46814,2555
703.1741,2556
806.21234,2557
797.5603,2558
822.5814,2559
776.2685,2560
787.9388,2561
875.9162,2562
1089.2095,2563
953.26483,2564
1052.9103,2565
971.34326,2566
998.2545,2567
960.49445,2568
873.67255,2569
859.04504,2570
887.2444,2571
834.0663,2572
958.48065,2573
911.6478,2574
825.40955,2575
783.2276,2576
815.0658,2577
812.90314,2578
777.6155,2579
741.7981,2580
1036.7887,2581
950.22485,2582
951.4161,2583
874.57745,2584
811.01263,2585
787.6103,2586
751.8036,2587
769.2031,2588
773.95026,2589
726.3009,2590
766.75006,2591
773.7851,2592
900.8669,2593
984.2241,2594
856.0735,2595
837.2539,2596
789.8219,2597
795.4161,2598
787.5984,2599
784.6785,2600
817.09625,2601
831.7253,2602
764.9666,2603
773.5428,2604
829.9017,2605
754.6381,2606
752.86334,2607
776.4763,2608
804.40247,2609
783.97455,2610
762.4279,2611
811.3669,2612
804.3824,2613
755.03876,2614
754.4356,2615
843.0665,2616
761.3583,2617
776.144,2618
801.22076,2619
731.5726,2620
844.5166,2621
748.72797,2622
694.4929,2623
721.78705,2624
723.43024,2625
668.53815,2626
699.60876,2627
698.5651,2628
680.51807,2629
709.41156,2630
678.15594,2631
910.2381,2632
747.6427,2633
742.7078,2634
761.1302,2635
714.6571,2636
729.6456,2637
780.9959,2638
722.2886,2639
655.8194,2640
703.1064,2641
690.8868,2642
706.02673,2643
765.26715,2644
724.35004,2645
712.65875,2646
711.5574,2647
964.1541,2648
1022.7928,2649
863.4002,2650
826.8266,2651
846.8362,2652
776.9531,2653
794.64307,2654
807.5055,2655
748.7463,2656
787.2097,2657
858.9655,2658
810.6028,2659
833.23846,2660
827.9121,2661
879.7013,2662
943.7587,2663
1236.554,2664
1229.3252,2665
1085.4717,2666
988.368,2667
846.38434,2668
907.2847,2669
964.6759,2670
946.0587,2671
1025.0674,2672
988.97595,2673
951.3329,2674
917.4895,2675
985.5699,2676
942.6134,2677
899.38525,2678
915.29834,2679
901.93536,2680
860.3205,2681
856.3748,2682
826.4558,2683
742.401,2684
834.4688,2685
676.3691,2686
616.6071,2687
722.93896,2688
680.3362,2689
669.8902,2690
714.6494,2691
964.8867,2692
986.6854,2693
999.38434,2694
965.12823,2695
950.1289,2696
1008.38477,2697
970.62006,2698
1016.5028,2699
1009.62463,2700
896.80347,2701
893.26184,2702
912.38257,2703
967.66956,2704
902.4323,2705
943.0949,2706
1088.2966,2707
1073.9313,2708
1090.8066,2709
994.4384,2710
1087.5581,2711
1063.6421,2712
960.7751,2713
930.9547,2714
879.9438,2715
994.9852,2716
1003.6761,2717
852.38153,2718
807.6517,2719
826.1107,2720
855.5499,2721
801.5432,2722
853.51697,2723
990.4804,2724
966.69824,2725
865.8038,2726
861.3865,2727
822.05444,2728
770.28687,2729
722.1547,2730
835.2857,2731
828.0577,2732
784.1924,2733
847.7077,2734
867.24854,2735
942.0484,2736
808.36383,2737
816.6448,2738
784.74774,2739
742.6158,2740
770.7179,2741
741.5081,2742
808.05035,2743
772.6876,2744
706.84894,2745
807.08057,2746
821.691,2747
734.3322,2748
772.0973,2749
868.5021,2750
822.7367,2751
785.7156,2752
760.65173,2753
804.4545,2754
721.6626,2755
755.2298,2756
735.3865,2757
847.08417,2758
784.37415,2759
746.14233,2760
820.4489,2761
820.04315,2762
810.78595,2763
802.78296,2764
722.58093,2765
720.6107,2766
751.2034,2767
676.1041,2768
707.237,2769
711.08685,2770
673.0272,2771
690.8832,2772
880.1784,2773
787.7283,2774
740.04974,2775
699.9397,2776
742.6054,2777
716.5792,2778
689.46826,2779
722.41547,2780
747.41266,2781
698.6037,2782
734.4104,2783
728.2773,2784
711.05054,2785
810.5104,2786
1012.56976,2787
1213.5493,2788
1141.8826,2789
972.7936,2790
887.5795,2791
893.01544,2792
803.58673,2793
897.86914,2794
868.2946,2795
810.7204,2796
893.59125,2797
833.6511,2798
823.0529,2799
1068.3622,2800
979.00995,2801
806.21576,2802
921.15625,2803
828.33997,2804
869.34576,2805
1874.9343,2806
1467.8926,2807
1360.4276,2808
1070.4475,2809
1176.7004,2810
1248.0293,2811
1424.1863,2812
1229.5172,2813
1165.0972,2814
956.18695,2815
866.0773,2816
1045.3025,2817
970.28796,2818
861.4672,2819
900.9304,2820
940.96277,2821
931.6502,2822
875.25366,2823
878.10846,2824
783.3783,2825
740.3186,2826
682.16504,2827
712.24634,2828
781.78235,2829
796.3301,2830
796.33936,2831
838.6984,2832
752.4264,2833
791.3715,2834
841.92755,2835
764.5668,2836
821.74634,2837
760.2727,2838
989.9503,2839
1810.2499,2840
1600.7098,2841
1453.7487,2842
1390.4231,2843
1216.0933,2844
1226.3698,2845
1205.0742,2846
1166.6431,2847
1156.7378,2848
1019.6264,2849
1010.1463,2850
1017.8224,2851
911.90765,2852
1006.5747,2853
1262.1488,2854
1123.8265,2855
994.1565,2856
998.35376,2857
1008.00854,2858
931.9934,2859
942.945,2860
916.9953,2861
938.26245,2862
891.9464,2863
824.29736,2864
771.24426,2865
929.0354,2866
1102.6401,2867
1078.9425,2868
1042.1946,2869
996.4094,2870
1002.7523,2871
1009.9255,2872
960.5743,2873
1011.0346,2874
984.6913,2875
928.9459,2876
906.86005,2877
913.619,2878
859.9157,2879
829.6627,2880
965.1603,2881
956.52264,2882
971.9968,2883
977.4852,2884
974.1393,2885
926.54456,2886
911.61566,2887
891.508,2888
934.65625,2889
919.20917,2890
861.07324,2891
877.04395,2892
967.0843,2893
1010.8981,2894
1097.4028,2895
996.9188,2896
999.1679,2897
899.1584,2898
858.8312,2899
795.1531,2900
809.98346,2901
809.703,2902
766.6379,2903
812.18396,2904
765.0564,2905
789.8986,2906
770.16486,2907
754.78,2908
699.9879,2909
690.9728,2910
649.86163,2911
828.9168,2912
798.3825,2913
800.09125,2914
717.5374,2915
722.97107,2916
724.2314,2917
779.978,2918
718.40106,2919
708.7756,2920
726.2138,2921
723.73663,2922
693.138,2923
713.6272,2924
690.58325,2925
683.6003,2926
675.7009,2927
683.09656,2928
708.12933,2929
675.06287,2930
710.67755,2931
678.34064,2932
683.62915,2933
699.6621,2934
681.41003,2935
691.89386,2936
714.98346,2937
727.9809,2938
725.373,2939
672.44604,2940
648.8495,2941
784.51385,2942
646.4835,2943
645.3767,2944
705.8392,2945
654.78754,2946
643.18414,2947
608.2558,2948
666.6713,2949
628.6035,2950
633.31696,2951
649.7881,2952
541.9832,2953
567.89685,2954
581.12024,2955
549.7854,2956
542.4431,2957
560.9732,2958
505.80222,2959
541.47003,2960
539.62396,2961
513.25793,2962
513.70825,2963
553.7203,2964
533.436,2965
469.96652,2966
513.33624,2967
509.72888,2968
472.88358,2969
524.8987,2970
485.5397,2971
474.72556,2972
476.58148,2973
489.3404,2974
469.6487,2975
501.1181,2976
450.53592,2977
475.3908,2978
497.7443,2979
505.50665,2980
510.10864,2981
837.74536,2982
867.10187,2983
807.33905,2984
744.81854,2985
707.27576,2986
707.9935,2987
776.6572,2988
677.46326,2989
627.6185,2990
666.6423,2991
578.75934,2992
617.30536,2993
606.4673,2994
586.6261,2995
593.44965,2996
587.39136,2997
582.44116,2998
582.55096,2999
519.68036,3000
493.34048,3001
491.3635,3002
493.3905,3003
497.82584,3004
519.6912,3005
488.99432,3006
486.2471,3007
488.43137,3008
494.9571,3009
513.92804,3010
514.91974,3011
505.01065,3012
502.26743,3013
509.00366,3014
513.6096,3015
516.15466,3016
541.1047,3017
618.5607,3018
755.72363,3019
688.87335,3020
632.7677,3021
629.5053,3022
651.5218,3023
617.8478,3024
621.4247,3025
635.6528,3026
622.72974,3027
631.31256,3028
599.0406,3029
593.0889,3030
580.91046,3031
587.65027,3032
578.9563,3033
591.2955,3034
600.4025,3035
589.3164,3036
635.46136,3037
645.9277,3038
661.0063,3039
610.0588,3040
650.4693,3041
606.60425,3042
597.5838,3043
615.1024,3044
590.5707,3045
586.24255,3046
628.15497,3047
561.4453,3048
511.87396,3049
599.9944,3050
525.2474,3051
551.39105,3052
573.2783,3053
433.90393,3054
442.92365,3055
426.04205,3056
402.07205,3057
432.8144,3058
424.8089,3059
412.52603,3060
432.9788,3061
445.5613,3062
458.22076,3063
469.34097,3064
468.52396,3065
491.42603,3066
484.73022,3067
504.46735,3068
535.2959,3069
516.8262,3070
537.5261,3071
538.8073,3072
530.81226,3073
513.65063,3074
545.573,3075
530.78595,3076
508.58206,3077
532.84174,3078
516.24884,3079
555.7172,3080
520.95715,3081
520.71857,3082
553.55945,3083
525.5516,3084
506.6766,3085
522.59534,3086
513.3487,3087
500.12943,3088
513.0691,3089
518.41595,3090
483.6761,3091
482.52203,3092
499.69962,3093
488.1184,3094
497.60233,3095
526.8086,3096
507.20462,3097
521.77216,3098
521.0872,3099
473.5437,3100
452.7262,3101
434.28506,3102
426.50122,3103
472.12173,3104
423.81732,3105
443.32376,3106
444.86627,3107
427.56293,3108
475.97363,3109
457.32373,3110
461.4652,3111
547.7919,3112
587.6572,3113
530.0524,3114
561.0024,3115
566.36993,3116
571.45856,3117
528.4151,3118
540.71216,3119
528.23865,3120
506.66177,3121
505.4021,3122
502.06384,3123
527.9077,3124
593.26355,3125
572.654,3126
536.2211,3127
559.351,3128
529.9746,3129
541.55444,3130
573.39966,3131
540.12366,3132
509.97464,3133
526.1885,3134
528.0319,3135
505.75006,3136
519.7464,3137
509.9822,3138
500.62515,3139
497.59476,3140
523.51855,3141
534.61694,3142
452.81003,3143
492.0832,3144
416.0536,3145
402.11154,3146
390.19925,3147
406.29062,3148
464.81677,3149
493.57104,3150
485.1627,3151
512.352,3152
490.48373,3153
501.79236,3154
520.2492,3155
514.0144,3156
567.51416,3157
947.9131,3158
516.827,3159
591.4253,3160
545.98364,3161
510.47067,3162
507.88467,3163
535.0568,3164
473.26892,3165
528.80493,3166
442.5476,3167
418.69,3168
460.01944,3169
406.75293,3170
434.16385,3171
418.20737,3172
368.37323,3173
397.65588,3174
396.9008,3175
353.2784,3176
395.0758,3177
399.08542,3178
369.82748,3179
453.99652,3180
408.8415,3181
373.5839,3182
435.40915,3183
401.03485,3184
395.40015,3185
415.721,3186
414.4156,3187
311.36798,3188
408.44873,3189
347.781,3190
367.69513,3191
406.5492,3192
357.6771,3193
380.7495,3194
362.31195,3195
404.886,3196
401.68774,3197
455.32095,3198
386.26495,3199
420.2767,3200
432.54858,3201
416.32782,3202
398.33588,3203
368.7563,3204
417.83875,3205
381.4851,3206
422.83908,3207
412.56522,3208
431.17844,3209
460.14423,3210
467.3609,3211
393.97528,3212
471.249,3213
408.75296,3214
526.583,3215
687.56866,3216
593.7386,3217
576.3153,3218
600.45447,3219
551.47284,3220
528.8594,3221
531.76855,3222
498.32043,3223
492.6579,3224
529.5566,3225
560.6622,3226
545.8702,3227
457.9889,3228
538.0503,3229
523.7002,3230
543.0008,3231
545.5133,3232
494.7191,3233
501.7141,3234
498.50064,3235
499.47586,3236
558.4797,3237
500.80902,3238
513.7736,3239
578.24994,3240
522.8935,3241
518.3229,3242
471.58682,3243
429.70663,3244
449.40396,3245
424.60608,3246
496.16727,3247
472.26736,3248
434.8094,3249
437.15805,3250
435.85294,3251
453.5208,3252
445.87482,3253
421.5473,3254
427.3952,3255
491.95663,3256
458.82755,3257
445.9976,3258
455.8574,3259
412.4011,3260
452.51025,3261
444.49283,3262
399.69955,3263
414.25452,3264
421.89014,3265
423.5169,3266
460.19153,3267
444.24515,3268
492.70895,3269
488.7988,3270
439.51758,3271
454.681,3272
439.9309,3273
449.5798,3274
449.2117,3275
476.39563,3276
470.87677,3277
443.7867,3278
431.74344,3279
451.55606,3280
500.44083,3281
473.45404,3282
472.29285,3283
453.68182,3284
486.98367,3285
453.98636,3286
461.61353,3287
450.83655,3288
458.07825,3289
489.3996,3290
409.60608,3291
439.4556,3292
387.34146,3293
433.54987,3294
450.78125,3295
417.21097,3296
427.37567,3297
383.23203,3298
395.89252,3299
399.019,3300
638.72595,3301
636.2786,3302
580.4633,3303
592.574,3304
608.9427,3305
577.99274,3306
564.9044,3307
569.03845,3308
519.37836,3309
552.9607,3310
543.97217,3311
588.143,3312
569.4316,3313
555.9833,3314
584.63184,3315
514.8487,3316
479.85223,3317
491.17606,3318
480.41376,3319
585.0157,3320
488.77036,3321
473.3901,3322
482.1841,3323
518.15314,3324
536.3831,3325
459.2773,3326
533.20026,3327
487.5278,3328
618.0212,3329
612.898,3330
492.52783,3331
470.69806,3332
439.34323,3333
519.0692,3334
535.1946,3335
463.58307,3336
454.86185,3337
499.97504,3338
518.5475,3339
532.8318,3340
434.972,3341
460.59485,3342
509.43573,3343
461.2401,3344
457.69324,3345
492.40152,3346
458.64517,3347
483.21808,3348
489.15204,3349
488.11697,3350
466.8733,3351
432.08234,3352
454.96283,3353
458.2613,3354
488.7184,3355
465.7793,3356
513.0734,3357
443.54282,3358
472.935,3359
443.22232,3360
460.60648,3361
532.7104,3362
485.24033,3363
471.2548,3364
463.48184,3365
519.5429,3366
489.75864,3367
497.3284,3368
432.34705,3369
420.88776,3370
439.13934,3371
496.44583,3372
523.2952,3373
439.0762,3374
495.81522,3375
556.5155,3376
695.50134,3377
610.82623,3378
564.0439,3379
568.8025,3380
611.18713,3381
592.1492,3382
569.0083,3383
530.1631,3384
555.02966,3385
546.975,3386
529.7308,3387
510.0139,3388
550.72797,3389
541.54614,3390
525.9849,3391
540.4801,3392
544.26953,3393
578.38525,3394
587.8994,3395
653.31226,3396
600.89343,3397
572.2722,3398
558.2028,3399
569.0591,3400
553.9809,3401
584.2391,3402
563.80664,3403
531.6239,3404
516.68494,3405
506.4969,3406
505.1134,3407
504.09753,3408
513.033,3409
703.1999,3410
724.19617,3411
635.1678,3412
621.62177,3413
637.7494,3414
611.1748,3415
651.3497,3416
622.5008,3417
566.504,3418
593.0767,3419
641.8334,3420
558.82874,3421
577.5578,3422
595.12854,3423
594.6049,3424
590.5047,3425
563.75104,3426
592.692,3427
594.271,3428
540.2925,3429
534.62134,3430
647.07837,3431
602.856,3432
633.9363,3433
630.07587,3434
629.8134,3435
608.82056,3436
593.1169,3437
625.0802,3438
623.77136,3439
588.36285,3440
587.87775,3441
597.79193,3442
614.0064,3443
624.8152,3444
629.1359,3445
607.87476,3446
598.0006,3447
574.36456,3448
591.99725,3449
577.60175,3450
545.3654,3451
548.1113,3452
498.83572,3453
532.9883,3454
671.704,3455
684.5873,3456
605.3065,3457
619.8046,3458
661.0023,3459
642.9105,3460
671.3326,3461
638.31476,3462
669.4109,3463
620.0134,3464
558.0779,3465
580.78143,3466
563.78174,3467
616.0963,3468
622.3955,3469
560.0029,3470
559.0988,3471
517.4507,3472
543.7579,3473
548.3181,3474
578.7009,3475
529.78046,3476
483.63562,3477
521.33386,3478
491.67386,3479
504.4991,3480
540.6935,3481
632.60236,3482
568.18,3483
599.85065,3484
520.877,3485
584.0582,3486
575.9654,3487
539.4092,3488
504.2967,3489
526.98987,3490
559.02234,3491
515.3227,3492
498.0648,3493
474.10922,3494
567.5787,3495
507.7142,3496
495.832,3497
487.8494,3498
567.05273,3499
546.43677,3500
499.53714,3501
566.555,3502
526.4584,3503
554.9687,3504
473.52472,3505
525.516,3506
535.40314,3507
521.0733,3508
528.2477,3509
504.49396,3510
483.4796,3511
478.5157,3512
512.32855,3513
477.83862,3514
526.8219,3515
450.64667,3516
472.58936,3517
427.4966,3518
444.93668,3519
447.90558,3520
470.26096,3521
454.73004,3522
427.86014,3523
458.6876,3524
402.75595,3525
429.54578,3526
462.55136,3527
434.18826,3528
413.434,3529
435.14536,3530
390.31937,3531
426.44333,3532
398.90714,3533
419.88843,3534
515.75726,3535
462.79196,3536
401.02197,3537
601.27014,3538
651.1776,3539
640.331,3540
692.8238,3541
670.58453,3542
664.7021,3543
654.02704,3544
620.6601,3545
642.0365,3546
686.04297,3547
625.7915,3548
724.5829,3549
607.5589,3550
637.2139,3551
662.2214,3552
617.56177,3553
699.43365,3554
643.1853,3555
618.14386,3556
601.6529,3557
544.05273,3558
590.3289,3559
537.2233,3560
528.52466,3561
559.9035,3562
543.2418,3563
603.2216,3564
841.6891,3565
787.35547,3566
681.6058,3567
689.4854,3568
688.2947,3569
657.9713,3570
598.503,3571
602.3958,3572
597.46356,3573
565.30566,3574
587.24097,3575
631.48444,3576
602.5578,3577
594.8879,3578
556.78925,3579
594.76154,3580
605.3109,3581
590.1292,3582
565.15027,3583
615.2962,3584
543.08746,3585
555.0004,3586
588.5801,3587
591.4118,3588
579.65765,3589
556.47406,3590
540.60803,3591
566.93756,3592
530.5611,3593
584.11633,3594
567.5659,3595
492.70407,3596
513.0674,3597
584.0301,3598
575.87946,3599
528.8162,3600
553.2808,3601
577.4667,3602
584.8299,3603
511.99432,3604
519.45496,3605
563.7091,3606
576.05457,3607
482.14316,3608
809.351,3609
926.0526,3610
750.5148,3611
696.6871,3612
623.0895,3613
683.80115,3614
758.91327,3615
678.5116,3616
691.4652,3617
652.05853,3618
686.44824,3619
661.3606,3620
659.11743,3621
666.673,3622
638.4883,3623
709.68256,3624
617.19806,3625
660.28784,3626
700.0512,3627
648.017,3628
619.9604,3629
679.53,3630
765.6535,3631
1033.1458,3632
836.4341,3633
827.2681,3634
835.17114,3635
807.11383,3636
709.25226,3637
701.3878,3638
747.5044,3639
746.67804,3640
738.9466,3641
703.96967,3642
697.1469,3643
664.68463,3644
670.3111,3645
752.0223,3646
674.95734,3647
745.403,3648
654.89374,3649
619.9441,3650
728.99725,3651
744.7413,3652
725.8933,3653
687.4116,3654
611.6475,3655
678.438,3656
584.7416,3657
657.9406,3658
560.9298,3659
550.78516,3660
529.4744,3661
557.8062,3662
537.1658,3663
642.5206,3664
649.9734,3665
667.47906,3666
572.11566,3667
603.043,3668
521.16315,3669
594.87256,3670
560.9272,3671
552.58496,3672
538.2482,3673
826.05347,3674
760.8816,3675
817.3106,3676
809.729,3677
705.35925,3678
712.744,3679
684.02264,3680
721.06067,3681
766.9263,3682
694.4557,3683
730.93353,3684
802.6108,3685
814.2003,3686
717.74725,3687
774.5922,3688
721.4551,3689
740.69,3690
742.4943,3691
763.3217,3692
769.05035,3693
682.76807,3694
674.44586,3695
683.95483,3696
719.00146,3697
698.207,3698
747.7177,3699
701.22235,3700
796.2277,3701
791.1323,3702
823.27637,3703
758.5001,3704
659.4006,3705
782.82166,3706
755.4587,3707
711.2749,3708
655.89844,3709
615.88,3710
635.75586,3711
632.1814,3712
611.1495,3713
597.8239,3714
557.98804,3715
613.21497,3716
630.72034,3717
563.57355,3718
558.63776,3719
523.94586,3720
603.8297,3721
571.5951,3722
721.755,3723
683.3686,3724
693.2523,3725
661.4044,3726
702.6844,3727
699.3425,3728
641.12256,3729
618.9869,3730
683.56744,3731
627.4471,3732
669.7927,3733
559.24866,3734
674.1535,3735
532.72595,3736
580.75867,3737
539.2222,3738
552.61304,3739
599.7543,3740
470.55893,3741
549.25806,3742
519.3144,3743
507.0355,3744
537.6966,3745
498.04465,3746
519.7778,3747
578.2956,3748
635.2428,3749
599.6043,3750
547.00385,3751
562.5503,3752
527.3193,3753
516.3375,3754
547.2869,3755
588.69763,3756
577.30426,3757
515.7794,3758
540.67554,3759
591.53394,3760
615.75073,3761
573.76385,3762
536.23944,3763
588.8115,3764
571.9149,3765
474.06705,3766
460.9543,3767
461.08728,3768
516.8061,3769
514.4784,3770
492.17828,3771
468.69608,3772
426.65775,3773
419.637,3774
442.64813,3775
456.03564,3776
453.6191,3777
463.82196,3778
456.94415,3779
549.7264,3780
447.89984,3781
387.73294,3782
429.65982,3783
409.73453,3784
483.51547,3785
458.59625,3786
409.32895,3787
474.95667,3788
453.4673,3789
439.22412,3790
439.0204,3791
412.2059,3792
432.70743,3793
447.91745,3794
450.56656,3795
488.90466,3796
448.85458,3797
451.74515,3798
479.43628,3799
451.44748,3800
443.7378,3801
508.97894,3802
454.85278,3803
445.5747,3804
464.64844,3805
506.78525,3806
448.60522,3807
449.30963,3808
464.64682,3809
463.41742,3810
484.45746,3811
510.9652,3812
488.49237,3813
475.25717,3814
485.07285,3815
482.03256,3816
441.0762,3817
403.5701,3818
431.7081,3819
519.8865,3820
455.4159,3821
406.25378,3822
396.81888,3823
391.99033,3824
431.8403,3825
435.0267,3826
454.17346,3827
481.46692,3828
482.05338,3829
470.1707,3830
454.55896,3831
411.23108,3832
416.56924,3833
457.75467,3834
410.17056,3835
436.1411,3836
635.91986,3837
588.5514,3838
574.9122,3839
587.32983,3840
569.9692,3841
510.03522,3842
492.7193,3843
506.22803,3844
502.7981,3845
475.08218,3846
444.6531,3847
535.20496,3848
482.23547,3849
493.9679,3850
527.74133,3851
497.32364,3852
521.91974,3853
491.0416,3854
483.31665,3855
543.9906,3856
505.4086,3857
454.80737,3858
423.46414,3859
422.7587,3860
425.914,3861
405.50818,3862
462.6217,3863
416.15906,3864
406.00717,3865
421.92682,3866
389.68204,3867
426.823,3868
472.58203,3869
459.79443,3870
457.22897,3871
495.83603,3872
448.74048,3873
402.6618,3874
385.5525,3875
358.35196,3876
435.73886,3877
443.6114,3878
439.5502,3879
461.30792,3880
422.90335,3881
445.21826,3882
464.66983,3883
410.8757,3884
426.14124,3885
443.08136,3886
455.83087,3887
679.1086,3888
472.91492,3889
505.51523,3890
529.5998,3891
503.79935,3892
518.2169,3893
511.16437,3894
490.0702,3895
505.69186,3896
451.99106,3897
471.36328,3898
459.4212,3899
493.91367,3900
490.86588,3901
487.01236,3902
462.9533,3903
406.65924,3904
450.2844,3905
437.624,3906
472.37604,3907
433.6007,3908
393.34958,3909
424.3312,3910
443.49762,3911
430.81064,3912
470.07532,3913
560.43744,3914
632.04266,3915
667.3947,3916
542.9986,3917
496.101,3918
440.2345,3919
467.6513,3920
580.383,3921
566.2991,3922
478.8232,3923
462.50555,3924
543.03845,3925
510.26947,3926
473.28998,3927
520.5287,3928
495.8954,3929
524.8487,3930
492.43036,3931
453.16068,3932
465.00836,3933
478.4655,3934
491.5457,3935
500.4449,3936
537.6645,3937
534.5168,3938
529.06116,3939
516.93304,3940
536.40405,3941
502.43777,3942
485.8556,3943
503.0371,3944
579.53973,3945
443.9707,3946
441.0459,3947
452.80002,3948
414.6164,3949
450.39932,3950
444.32285,3951
457.67816,3952
460.18793,3953
421.4133,3954
441.49344,3955
495.59488,3956
430.50955,3957
473.09576,3958
484.70535,3959
445.671,3960
431.1501,3961
490.2232,3962
510.7758,3963
482.99667,3964
516.9937,3965
506.59564,3966
474.70343,3967
472.62338,3968
464.88693,3969
444.97015,3970
508.01605,3971
479.61725,3972
462.5477,3973
536.74646,3974
486.77582,3975
480.9289,3976
487.50565,3977
475.7385,3978
494.1015,3979
474.09915,3980
461.06503,3981
476.69458,3982
473.8508,3983
465.2066,3984
525.5382,3985
484.27997,3986
464.80136,3987
732.3399,3988
546.3244,3989
492.54456,3990
567.0417,3991
455.7316,3992
472.6785,3993
484.0522,3994
430.43802,3995
476.95523,3996
490.298,3997
437.3477,3998
430.35852,3999
488.85196,4000
467.2206,4001
465.71716,4002
475.96085,4003
436.87784,4004
440.65393,4005
416.3719,4006
429.7519,4007
555.15106,4008
425.84497,4009
435.12943,4010
494.9232,4011
455.43738,4012
424.61917,4013
417.40726,4014
455.9783,4015
467.89923,4016
450.62152,4017
459.48807,4018
542.4212,4019
531.2081,4020
562.1895,4021
513.2852,4022
486.86432,4023
461.92496,4024
448.96082,4025
416.05176,4026
466.30466,4027
470.9393,4028
512.6378,4029
500.54224,4030
496.2889,4031
492.4825,4032
486.9604,4033
494.59106,4034
481.88522,4035
444.0286,4036
467.93262,4037
468.52335,4038
442.74738,4039
477.77573,4040
530.0381,4041
481.18515,4042
459.0562,4043
492.3091,4044
484.71292,4045
461.6186,4046
483.99054,4047
532.8221,4048
503.09506,4049
641.5217,4050
542.6602,4051
488.7757,4052
454.72012,4053
471.61017,4054
528.57355,4055
546.62524,4056
531.67163,4057
515.24335,4058
532.5322,4059
560.89386,4060
535.665,4061
508.2388,4062
521.9433,4063
514.59753,4064
486.33142,4065
534.87714,4066
531.36316,4067
589.41034,4068
572.2859,4069
551.7375,4070
539.0524,4071
551.3667,4072
577.4623,4073
533.7987,4074
505.18304,4075
486.81888,4076
513.4286,4077
543.0823,4078
521.6822,4079
508.98196,4080
515.89154,4081
509.43762,4082
511.10233,4083
572.73425,4084
589.3661,4085
569.3458,4086
565.6607,4087
586.81384,4088
645.8066,4089
599.9877,4090
579.5595,4091
790.0245,4092
665.91595,4093
667.20776,4094
649.9462,4095
650.3492,4096
582.62537,4097
549.3503,4098
549.5862,4099
560.2737,4100
569.62573,4101
516.16016,4102
493.98032,4103
527.19775,4104
543.03015,4105
529.24365,4106
546.5876,4107
518.0409,4108
501.4088,4109
533.8974,4110
482.07086,4111
479.0531,4112
573.1796,4113
682.28705,4114
688.8929,4115
655.84503,4116
551.2551,4117
589.11066,4118
565.0032,4119
567.51654,4120
534.15283,4121
530.29846,4122
528.91504,4123
537.97864,4124
502.18872,4125
535.3949,4126
481.26978,4127
438.0029,4128
525.5443,4129
498.0561,4130
531.2788,4131
541.09784,4132
517.3722,4133
424.53326,4134
451.89883,4135
497.31146,4136
495.68906,4137
566.24506,4138
496.95126,4139
543.57184,4140
529.5046,4141
487.50394,4142
478.68082,4143
466.08698,4144
458.741,4145
495.94745,4146
481.46774,4147
487.8865,4148
489.21603,4149
515.31433,4150
481.09366,4151
499.03326,4152
435.87982,4153
463.73465,4154
451.49417,4155
532.8378,4156
509.5751,4157
424.89273,4158
447.14264,4159
411.44113,4160
435.62292,4161
453.56116,4162
487.41824,4163
505.0717,4164
460.63705,4165
446.35916,4166
450.99326,4167
451.52838,4168
470.66406,4169
487.653,4170
449.9914,4171
436.2236,4172
424.88547,4173
457.56494,4174
468.06595,4175
498.6324,4176
453.23578,4177
424.76288,4178
449.3816,4179
439.4021,4180
479.46582,4181
453.49573,4182
426.2476,4183
394.8843,4184
409.12448,4185
454.9869,4186
441.29492,4187
452.777,4188
400.07513,4189
375.74146,4190
383.78073,4191
379.92853,4192
406.88327,4193
467.52408,4194
601.509,4195
583.65015,4196
566.32605,4197
584.3321,4198
579.39575,4199
581.07434,4200
554.9689,4201
546.61066,4202
581.26495,4203
558.8582,4204
536.3875,4205
568.0389,4206
534.4337,4207
522.93536,4208
562.45856,4209
562.61237,4210
547.6535,4211
534.1603,4212
568.17365,4213
529.11365,4214
535.3497,4215
1011.14075,4216
811.9976,4217
899.1137,4218
745.5223,4219
775.45874,4220
861.2287,4221
801.87,4222
827.8649,4223
807.70526,4224
844.4838,4225
873.4609,4226
786.09485,4227
742.3277,4228
916.284,4229
830.3281,4230
757.5368,4231
785.4735,4232
769.188,4233
769.644,4234
767.37885,4235
811.507,4236
812.4906,4237
827.3869,4238
839.732,4239
779.343,4240
771.5644,4241
710.3731,4242
729.9652,4243
808.0585,4244
803.95123,4245
771.40515,4246
760.6448,4247
706.9072,4248
981.0313,4249
863.50055,4250
845.61145,4251
838.916,4252
801.14734,4253
750.12976,4254
736.6569,4255
692.3002,4256
659.2141,4257
631.03906,4258
603.55,4259
649.46063,4260
643.29987,4261
621.533,4262
582.96014,4263
588.1537,4264
605.7411,4265
638.95197,4266
618.1825,4267
557.9184,4268
561.57324,4269
592.7737,4270
590.5528,4271
639.91956,4272
650.09015,4273
811.50037,4274
767.75867,4275
704.1028,4276
682.7045,4277
787.1698,4278
713.1177,4279
755.414,4280
724.0924,4281
660.7697,4282
742.8698,4283
685.3547,4284
640.6448,4285
666.6668,4286
647.9182,4287
689.8505,4288
639.62213,4289
644.62537,4290
702.7478,4291
625.53314,4292
647.521,4293
632.844,4294
584.82385,4295
562.2047,4296
585.94226,4297
622.92865,4298
587.36475,4299
636.8163,4300
602.2401,4301
599.0044,4302
658.25616,4303
597.1943,4304
556.4612,4305
534.5735,4306
574.4528,4307
588.1819,4308
501.98532,4309
579.16223,4310
600.8603,4311
563.63666,4312
628.14813,4313
582.01666,4314
619.8797,4315
632.5224,4316
551.2308,4317
626.9331,4318
617.4629,4319
567.8189,4320
739.9223,4321
792.4451,4322
765.21265,4323
696.84644,4324
698.87335,4325
671.4979,4326
764.64746,4327
731.06525,4328
710.5693,4329
785.1802,4330
697.8653,4331
706.9932,4332
695.1423,4333
741.37665,4334
651.6591,4335
590.0866,4336
665.62604,4337
636.19104,4338
684.7737,4339
880.36896,4340
792.81213,4341
761.3786,4342
732.07385,4343
810.826,4344
749.4282,4345
704.1141,4346
735.5682,4347
729.7707,4348
688.4837,4349
713.56836,4350
716.0234,4351
678.97797,4352
690.4347,4353
681.56,4354
720.89166,4355
762.283,4356
739.03516,4357
751.7901,4358
740.55853,4359
676.12225,4360
731.2654,4361
795.12634,4362
743.081,4363
685.6199,4364
722.7478,4365
721.0805,4366
775.4761,4367
737.1173,4368
695.8289,4369
775.58374,4370
732.81885,4371
742.2765,4372
692.958,4373
745.0012,4374
723.1361,4375
724.07855,4376
784.3346,4377
644.5918,4378
666.1707,4379
712.5322,4380
622.4248,4381
671.6647,4382
707.0854,4383
589.7421,4384
639.4154,4385
716.6592,4386
627.32367,4387
653.86633,4388
644.26306,4389
645.748,4390
621.1742,4391
603.53625,4392
624.9354,4393
566.5039,4394
571.9787,4395
576.264,4396
611.814,4397
614.8481,4398
586.20746,4399
548.23975,4400
611.22577,4401
565.73706,4402
713.4881,4403
600.41644,4404
543.7632,4405
524.4599,4406
586.41394,4407
556.5286,4408
559.93304,4409
695.52875,4410
720.6653,4411
758.2006,4412
666.47034,4413
652.67474,4414
629.12946,4415
647.1812,4416
698.2124,4417
641.16724,4418
588.9397,4419
648.73804,4420
615.8152,4421
622.57477,4422
642.6398,4423
605.25165,4424
678.585,4425
681.1529,4426
646.57477,4427
675.32367,4428
597.6634,4429
590.8467,4430
636.347,4431
665.215,4432
666.0274,4433
540.193,4434
537.80975,4435
607.5056,4436
693.34344,4437
663.6432,4438
600.70447,4439
627.7618,4440
650.8392,4441
634.88666,4442
563.3983,4443
584.0122,4444
597.51117,4445
648.6738,4446
628.2038,4447
678.2721,4448
623.79175,4449
634.1217,4450
623.1764,4451
695.75635,4452
615.1579,4453
633.946,4454
699.7207,4455
678.34906,4456
630.08026,4457
626.3228,4458
709.6856,4459
762.39636,4460
691.5873,4461
663.2792,4462
685.2021,4463
674.3193,4464
717.6129,4465
685.1732,4466
649.4848,4467
665.2319,4468
643.5961,4469
712.32446,4470
648.3281,4471
652.28577,4472
576.9507,4473
607.18945,4474
584.6489,4475
575.2429,4476
597.06775,4477
605.45575,4478
601.56836,4479
627.29785,4480
596.08026,4481
615.35016,4482
653.1199,4483
657.87537,4484
644.3616,4485
633.45844,4486
661.3907,4487
654.01886,4488
746.61224,4489
678.71564,4490
664.23016,4491
637.25037,4492
609.0311,4493
679.65454,4494
619.8029,4495
596.3235,4496
574.7656,4497
606.8954,4498
560.4819,4499
599.5711,4500
529.45355,4501
550.93396,4502
603.05695,4503
566.0927,4504
600.9973,4505
587.1836,4506
572.98157,4507
623.7092,4508
571.1539,4509
568.55994,4510
543.65753,4511
467.7451,4512
508.20944,4513
556.89343,4514
589.9229,4515
528.3011,4516
531.92566,4517
483.625,4518
581.13153,4519
531.62506,4520
551.1791,4521
631.0265,4522
536.41394,4523
610.81464,4524
619.17035,4525
542.22656,4526
531.019,4527
536.7637,4528
481.79025,4529
535.8272,4530
534.0057,4531
575.6344,4532
568.16974,4533
577.3481,4534
542.82166,4535
524.6251,4536
541.456,4537
527.97046,4538
555.8032,4539
538.7264,4540
534.24506,4541
577.4601,4542
577.8022,4543
616.19257,4544
584.8737,4545
533.17676,4546
533.46277,4547
541.46533,4548
553.7624,4549
674.12604,4550
553.0591,4551
544.2111,4552
539.1207,4553
579.28345,4554
663.71704,4555
576.2085,4556
513.1593,4557
505.044,4558
475.3726,4559
493.3187,4560
481.36917,4561
506.55118,4562
517.3049,4563
502.50323,4564
524.1911,4565
689.54956,4566
510.81442,4567
512.0672,4568
521.5898,4569
519.4021,4570
523.6321,4571
608.80273,4572
581.4496,4573
524.3397,4574
468.53894,4575
562.8949,4576
548.985,4577
553.22424,4578
526.72064,4579
454.31592,4580
473.0597,4581
446.003,4582
463.86584,4583
453.55377,4584
468.1727,4585
483.906,4586
488.28024,4587
490.81644,4588
466.58786,4589
447.52228,4590
505.60446,4591
520.175,4592
488.916,4593
520.1007,4594
552.21405,4595
472.8026,4596
443.26114,4597
422.7785,4598
510.72162,4599
510.35825,4600
489.28772,4601
499.3215,4602
483.43668,4603
540.31323,4604
519.9041,4605
485.60355,4606
482.88562,4607
469.53168,4608
507.11044,4609
514.5332,4610
492.63428,4611
524.7352,4612
514.89374,4613
497.83234,4614
492.53906,4615
513.52637,4616
477.2084,4617
530.21954,4618
478.77603,4619
485.4063,4620
521.5389,4621
427.22516,4622
495.56775,4623
534.84845,4624
610.64026,4625
477.46765,4626
411.9085,4627
390.7756,4628
456.7673,4629
499.05624,4630
418.87024,4631
429.6814,4632
389.8881,4633
422.4283,4634
416.39572,4635
425.93527,4636
597.2166,4637
572.6514,4638
515.19946,4639
468.68658,4640
512.32477,4641
501.17227,4642
508.318,4643
491.5595,4644
514.41815,4645
498.9986,4646
456.1286,4647
487.3776,4648
441.0709,4649
456.01498,4650
458.03192,4651
438.48764,4652
486.12692,4653
438.84283,4654
474.4086,4655
511.8964,4656
649.5975,4657
590.5601,4658
567.22534,4659
528.87225,4660
550.82324,4661
560.79895,4662
568.14734,4663
542.0939,4664
510.9234,4665
488.99774,4666
513.90247,4667
487.09665,4668
460.40286,4669
461.42175,4670
458.83023,4671
659.0819,4672
614.9192,4673
549.3779,4674
554.1197,4675
558.97833,4676
552.0927,4677
540.83844,4678
563.6475,4679
574.50116,4680
535.0937,4681
582.62354,4682
603.0588,4683
508.0358,4684
518.5589,4685
501.18304,4686
534.673,4687
577.4468,4688
512.7232,4689
488.75674,4690
600.88605,4691
522.03925,4692
630.36395,4693
570.5438,4694
571.5902,4695
586.9616,4696
572.8175,4697
562.73804,4698
576.6867,4699
534.67236,4700
532.7629,4701
551.18,4702
569.44495,4703
529.9033,4704
570.07,4705
555.03296,4706
535.42334,4707
540.52716,4708
555.91376,4709
509.08224,4710
520.4704,4711
526.0843,4712
510.0087,4713
500.98352,4714
575.77405,4715
604.80646,4716
636.1387,4717
545.9506,4718
496.99774,4719
572.04266,4720
538.1954,4721
565.5378,4722
521.5241,4723
462.90628,4724
553.9546,4725
623.05774,4726
542.0983,4727
518.36786,4728
476.09366,4729
510.57898,4730
558.8261,4731
503.60086,4732
466.32297,4733
472.13498,4734
439.31683,4735
503.3611,4736
475.9383,4737
455.77512,4738
503.9217,4739
494.34442,4740
479.21646,4741
483.32324,4742
562.0454,4743
600.8051,4744
565.5132,4745
500.5967,4746
525.892,4747
531.56665,4748
520.5165,4749
447.50665,4750
475.56824,4751
478.81012,4752
484.65515,4753
477.49002,4754
467.8904,4755
438.94104,4756
483.37283,4757
442.26566,4758
403.3393,4759
518.2432,4760
483.48828,4761
454.9833,4762
464.9255,4763
499.03726,4764
467.76123,4765
482.46027,4766
497.69217,4767
497.95203,4768
461.92517,4769
510.0811,4770
459.0201,4771
484.922,4772
427.0894,4773
472.5527,4774
428.76996,4775
424.67163,4776
427.57568,4777
429.0948,4778
446.60025,4779
482.9833,4780
428.3684,4781
465.47244,4782
449.91162,4783
447.30762,4784
448.43417,4785
395.4545,4786
411.32486,4787
480.21588,4788
411.81302,4789
390.01422,4790
443.25967,4791
445.088,4792
404.1597,4793
401.23764,4794
447.4904,4795
659.39594,4796
632.14734,4797
596.17883,4798
668.9812,4799
632.19336,4800
679.3242,4801
638.5542,4802
599.7962,4803
590.4496,4804
643.7267,4805
643.77484,4806
607.2946,4807
570.1322,4808
548.22736,4809
630.4184,4810
584.6375,4811
588.5555,4812
581.55194,4813
552.91815,4814
531.7635,4815
531.7892,4816
545.4964,4817
533.21,4818
500.2206,4819
794.5994,4820
720.9044,4821
676.4782,4822
683.6256,4823
633.52075,4824
639.8832,4825
645.7358,4826
645.0012,4827
599.23376,4828
572.0623,4829
613.2506,4830
623.2638,4831
566.50354,4832
576.4983,4833
648.06055,4834
607.45325,4835
567.4204,4836
595.892,4837
598.629,4838
607.0056,4839
574.463,4840
614.0006,4841
588.63,4842
586.26746,4843
565.0476,4844
572.5723,4845
550.47235,4846
563.3477,4847
637.81537,4848
562.5644,4849
554.63763,4850
496.78088,4851
529.72614,4852
588.3073,4853
650.5792,4854
660.5317,4855
668.8896,4856
580.6424,4857
554.2024,4858
596.77435,4859
559.2898,4860
565.20166,4861
566.6725,4862
500.92026,4863
468.4138,4864
543.6748,4865
765.6586,4866
896.43414,4867
767.60876,4868
715.2127,4869
734.6276,4870
745.14386,4871
691.92053,4872
673.79333,4873
698.6146,4874
715.89984,4875
717.90045,4876
667.98193,4877
664.89276,4878
643.6106,4879
657.6726,4880
666.6888,4881
645.92926,4882
679.3318,4883
727.9019,4884
670.5012,4885
644.9362,4886
701.3748,4887
643.90326,4888
627.49084,4889
616.0972,4890
592.1902,4891
976.4843,4892
1025.5049,4893
855.3811,4894
813.65155,4895
773.02655,4896
697.9929,4897
729.96344,4898
793.40094,4899
701.513,4900
784.71735,4901
757.3636,4902
712.13165,4903
620.27814,4904
656.7564,4905
737.0503,4906
663.58984,4907
598.64935,4908
682.74896,4909
679.1536,4910
711.0454,4911
695.6439,4912
709.00397,4913
629.9585,4914
602.9119,4915
622.9148,4916
672.3375,4917
585.77435,4918
689.11005,4919
614.6504,4920
621.38306,4921
627.6447,4922
647.68555,4923
642.7802,4924
604.67444,4925
755.0873,4926
685.46387,4927
591.2412,4928
622.7342,4929
672.78265,4930
568.36694,4931
603.9439,4932
676.3379,4933
1037.6022,4934
886.94696,4935
849.802,4936
799.6419,4937
772.98376,4938
731.1319,4939
792.8458,4940
707.14026,4941
704.23505,4942
754.9444,4943
747.13684,4944
816.0689,4945
838.6486,4946
773.5639,4947
845.2286,4948
875.0023,4949
862.52,4950
835.38336,4951
815.31964,4952
754.39374,4953
821.8402,4954
726.01715,4955
817.83057,4956
742.2363,4957
730.6673,4958
791.1234,4959
819.4221,4960
873.9553,4961
849.5942,4962
807.29254,4963
815.76465,4964
813.4359,4965
820.3704,4966
805.12683,4967
739.2486,4968
809.2818,4969
711.4173,4970
654.8172,4971
631.3279,4972
679.1871,4973
686.0537,4974
669.94824,4975
643.0926,4976
624.04724,4977
663.158,4978
676.20013,4979
577.7029,4980
591.0971,4981
611.98364,4982
713.9373,4983
725.5095,4984
723.3014,4985
679.01,4986
664.58374,4987
681.3351,4988
651.63354,4989
625.3615,4990
596.5929,4991
647.5495,4992
643.5384,4993
707.8773,4994
604.2587,4995
547.47284,4996
503.02747,4997
551.1365,4998
732.5579,4999
651.7489,5000
635.35944,5001
648.68915,5002
636.08746,5003
670.8385,5004
683.4832,5005
663.54376,5006
617.0562,5007
596.2937,5008
599.0937,5009
629.8664,5010
570.17993,5011
525.398,5012
525.017,5013
581.6702,5014
586.2537,5015
569.28046,5016
512.5777,5017
570.2267,5018
606.9531,5019
579.5724,5020
577.85895,5021
556.0591,5022
530.8113,5023
600.4998,5024
572.56866,5025
570.5089,5026
589.3007,5027
559.72815,5028
600.2524,5029
536.0986,5030
548.8304,5031
510.81705,5032
445.11642,5033
508.94476,5034
503.22598,5035
542.6417,5036
528.81506,5037
471.9644,5038
519.15076,5039
467.66693,5040
512.11523,5041
506.0895,5042
515.9841,5043
525.73895,5044
500.28387,5045
474.5276,5046
421.82675,5047
489.99185,5048
499.92395,5049
464.02716,5050
481.31757,5051
521.52966,5052
537.4182,5053
534.9447,5054
535.48926,5055
513.7261,5056
524.08905,5057
569.2592,5058
560.6757,5059
560.1291,5060
557.9811,5061
527.0704,5062
570.93353,5063
524.11584,5064
520.6006,5065
560.37665,5066
580.3427,5067
589.43964,5068
548.7834,5069
524.41846,5070
548.0274,5071
581.3043,5072
559.12463,5073
504.3748,5074
525.73224,5075
518.8596,5076
516.7781,5077
533.3124,5078
501.87775,5079
479.31476,5080
472.37686,5081
533.98663,5082
525.2664,5083
522.4985,5084
503.8842,5085
514.59766,5086
572.6109,5087
548.2877,5088
525.9199,5089
545.1617,5090
683.31537,5091
621.9557,5092
618.41046,5093
568.63434,5094
563.0481,5095
573.65344,5096
540.3005,5097
522.5176,5098
517.4545,5099
603.3761,5100
556.94366,5101
541.0165,5102
546.16644,5103
553.5799,5104
574.49084,5105
591.67804,5106
537.30475,5107
477.277,5108
452.61765,5109
490.12836,5110
456.4834,5111
489.554,5112
434.9711,5113
453.27432,5114
474.17566,5115
454.26715,5116
460.85275,5117
456.85837,5118
474.253,5119
509.7243,5120
506.19427,5121
468.32214,5122
571.4983,5123
465.81628,5124
417.2966,5125
459.05112,5126
455.60306,5127
500.81522,5128
480.14517,5129
449.56973,5130
460.8624,5131
444.24966,5132
478.4409,5133
475.63425,5134
430.71765,5135
429.15344,5136
446.65546,5137
496.25833,5138
504.6079,5139
497.69406,5140
535.90564,5141
465.1926,5142
695.4387,5143
551.60596,5144
514.2508,5145
531.0492,5146
471.77518,5147
493.57034,5148
561.5615,5149
505.12576,5150
520.65344,5151
489.58484,5152
461.94693,5153
440.49734,5154
415.67148,5155
453.71484,5156
450.45157,5157
420.6343,5158
398.17706,5159
431.33768,5160
562.995,5161
678.97925,5162
650.80133,5163
627.31885,5164
556.0808,5165
637.78674,5166
591.74036,5167
536.4852,5168
575.45636,5169
611.8148,5170
586.5757,5171
606.7584,5172
570.46704,5173
618.02563,5174
617.7565,5175
595.1911,5176
575.20703,5177
537.4167,5178
481.69183,5179
509.67374,5180
524.3624,5181
534.02026,5182
528.0546,5183
512.2184,5184
633.7552,5185
574.20245,5186
541.75696,5187
605.8075,5188
460.30197,5189
514.2954,5190
618.98425,5191
560.6344,5192
482.06195,5193
505.31387,5194
510.5996,5195
488.90643,5196
547.7062,5197
502.7037,5198
527.48645,5199
552.5384,5200
507.6104,5201
493.50787,5202
544.89124,5203
529.2806,5204
439.36456,5205
463.8293,5206
509.42624,5207
502.45993,5208
516.42303,5209
487.66644,5210
526.7662,5211
531.5216,5212
524.29675,5213
507.82324,5214
559.8271,5215
488.2497,5216
447.85352,5217
521.6767,5218
615.19495,5219
552.2039,5220
527.3435,5221
555.8979,5222
555.7963,5223
556.4053,5224
502.2971,5225
470.6995,5226
543.46497,5227
487.02014,5228
479.0715,5229
529.27966,5230
484.3487,5231
491.87927,5232
549.35205,5233
477.20093,5234
470.6313,5235
542.31055,5236
525.88684,5237
491.45746,5238
577.1936,5239
504.26294,5240
503.55078,5241
542.65204,5242
461.2185,5243
474.34055,5244
542.8255,5245
509.37122,5246
478.6016,5247
501.41635,5248
569.3395,5249
465.76407,5250
500.89627,5251
475.66052,5252
489.10764,5253
496.44928,5254
476.4999,5255
423.4439,5256
486.62772,5257
448.6968,5258
430.55154,5259
482.45798,5260
412.76163,5261
472.10736,5262
519.82196,5263
456.63632,5264
458.88116,5265
458.33734,5266
448.71036,5267
460.69214,5268
499.6405,5269
451.56668,5270
535.8142,5271
519.7636,5272
501.40857,5273
448.1988,5274
479.8573,5275
497.1834,5276
470.6707,5277
464.6595,5278
514.51404,5279
477.078,5280
439.2443,5281
486.8639,5282
485.59134,5283
436.413,5284
436.6502,5285
449.86642,5286
427.5338,5287
456.82236,5288
470.68393,5289
477.4306,5290
445.12772,5291
452.9517,5292
500.1491,5293
530.3501,5294
663.11084,5295
611.0157,5296
607.2612,5297
541.10333,5298
581.176,5299
563.2252,5300
574.87897,5301
634.8879,5302
632.04663,5303
608.8007,5304
645.23236,5305
664.59717,5306
629.8575,5307
619.3433,5308
627.8262,5309
615.2627,5310
605.37537,5311
597.1269,5312
595.53925,5313
602.5897,5314
582.3056,5315
592.08936,5316
634.62506,5317
604.8514,5318
597.53656,5319
587.987,5320
574.59644,5321
595.60443,5322
559.4535,5323
621.0038,5324
639.0174,5325
609.2494,5326
591.8264,5327
547.8863,5328
535.15247,5329
568.0127,5330
581.9452,5331
685.0638,5332
627.31586,5333
616.94135,5334
571.48975,5335
570.05457,5336
619.44116,5337
585.9242,5338
535.2177,5339
556.9223,5340
550.1659,5341
583.55334,5342
582.41205,5343
505.61304,5344
519.1903,5345
499.59094,5346
486.68207,5347
535.6647,5348
550.7225,5349
491.2933,5350
442.76434,5351
491.51697,5352
505.97778,5353
625.03973,5354
552.9755,5355
606.28906,5356
555.25916,5357
536.32025,5358
546.60126,5359
568.6912,5360
534.231,5361
506.51855,5362
547.3807,5363
546.64264,5364
470.00415,5365
485.3431,5366
547.1927,5367
477.93594,5368
512.0757,5369
520.0866,5370
547.92316,5371
430.90897,5372
456.54266,5373
444.25827,5374
468.4195,5375
616.12213,5376
469.0827,5377
491.40732,5378
450.33093,5379
492.12708,5380
478.2967,5381
473.00922,5382
477.20206,5383
463.57364,5384
498.32993,5385
512.46735,5386
483.45718,5387
444.53714,5388
442.2323,5389
457.48886,5390
445.1653,5391
507.58026,5392
457.98444,5393
462.3066,5394
467.57336,5395
480.41733,5396
480.76917,5397
474.46866,5398
464.99078,5399
491.17487,5400
475.45132,5401
452.93332,5402
521.13965,5403
454.38638,5404
493.97424,5405
473.62393,5406
506.4476,5407
464.75928,5408
473.62714,5409
504.22452,5410
489.40485,5411
523.83765,5412
481.25995,5413
468.9526,5414
520.8908,5415
459.66138,5416
447.96243,5417
454.61118,5418
452.7717,5419
448.41647,5420
480.285,5421
457.794,5422
466.10193,5423
444.31403,5424
446.4108,5425
445.99194,5426
437.50735,5427
406.77386,5428
420.9091,5429
428.43622,5430
416.19812,5431
376.02066,5432
443.39035,5433
384.0188,5434
439.382,5435
505.876,5436
534.5801,5437
497.64642,5438
482.2491,5439
519.42847,5440
498.8486,5441
485.82986,5442
492.07825,5443
510.532,5444
484.78854,5445
460.4859,5446
467.3535,5447
459.0034,5448
455.3302,5449
467.76648,5450
474.40802,5451
451.11603,5452
489.5647,5453
527.5381,5454
480.18167,5455
442.2798,5456
527.60443,5457
481.11224,5458
587.9664,5459
674.22064,5460
607.03876,5461
709.70825,5462
546.0272,5463
645.9623,5464
650.3737,5465
666.6862,5466
632.41187,5467
632.52594,5468
651.9555,5469
647.29443,5470
629.587,5471
652.51807,5472
630.84033,5473
605.3118,5474
746.0497,5475
687.75806,5476
621.9085,5477
633.85516,5478
635.4765,5479
601.8103,5480
614.10754,5481
630.13306,5482
650.3593,5483
612.3272,5484
628.96375,5485
615.776,5486
582.8468,5487
588.9565,5488
633.3009,5489
616.5033,5490
577.046,5491
584.31635,5492
578.6591,5493
656.5811,5494
663.2144,5495
669.52124,5496
874.2058,5497
792.8619,5498
802.07166,5499
785.2871,5500
755.29724,5501
727.1305,5502
710.8578,5503
696.55615,5504
671.7883,5505
712.06946,5506
634.2614,5507
647.44604,5508
669.73724,5509
637.43713,5510
609.2852,5511
587.87897,5512
622.53394,5513
619.73395,5514
619.073,5515
614.60724,5516
602.42535,5517
573.8215,5518
560.8989,5519
558.22455,5520
581.00244,5521
578.41736,5522
574.257,5523
658.9391,5524
789.9066,5525
1128.3185,5526
984.8235,5527
947.02875,5528
990.368,5529
859.54913,5530
781.516,5531
817.0354,5532
801.1003,5533
806.90015,5534
758.6847,5535
782.8051,5536
762.1633,5537
736.7881,5538
694.123,5539
679.2887,5540
706.4406,5541
699.69446,5542
678.846,5543
688.55994,5544
674.81555,5545
698.35645,5546
686.03253,5547
677.7777,5548
728.7708,5549
684.4487,5550
608.0983,5551
661.9553,5552
655.99817,5553
593.77435,5554
645.2272,5555
682.6425,5556
745.7858,5557
687.1679,5558
672.1246,5559
600.47107,5560
605.2037,5561
667.23956,5562
579.26385,5563
583.3077,5564
594.4196,5565
592.683,5566
690.687,5567
682.1567,5568
633.3294,5569
636.77747,5570
665.22925,5571
691.0227,5572
705.8558,5573
708.1121,5574
667.19403,5575
669.5686,5576
650.9244,5577
608.77734,5578
609.8434,5579
610.3431,5580
564.0865,5581
592.28064,5582
524.6241,5583
549.5729,5584
581.73004,5585
527.91187,5586
615.5254,5587
616.02924,5588
593.4223,5589
577.4148,5590
645.24744,5591
551.2202,5592
551.30176,5593
618.0626,5594
584.97125,5595
841.39667,5596
800.35785,5597
811.8129,5598
845.909,5599
741.67236,5600
790.25275,5601
770.3661,5602
771.8713,5603
719.25275,5604
725.1078,5605
753.42255,5606
707.3751,5607
698.0902,5608
762.50757,5609
716.53204,5610
751.4133,5611
842.1033,5612
836.9763,5613
757.9134,5614
706.82465,5615
763.8902,5616
763.64716,5617
760.40875,5618
765.5874,5619
721.65515,5620
696.74664,5621
737.17395,5622
750.9169,5623
710.5812,5624
710.02167,5625
797.8399,5626
848.21423,5627
706.7639,5628
631.3816,5629
685.6247,5630
736.9124,5631
743.03613,5632
664.28784,5633
638.02026,5634
646.84546,5635
660.1625,5636
651.1156,5637
600.8413,5638
636.14703,5639
628.1565,5640
627.33356,5641
622.1843,5642
615.0364,5643
636.12885,5644
642.2499,5645
653.04596,5646
556.8133,5647
626.244,5648
645.7529,5649
632.96326,5650
739.7004,5651
702.1289,5652
659.013,5653
640.39655,5654
755.43945,5655
654.49316,5656
610.0014,5657
645.97406,5658
649.99335,5659
586.593,5660
626.25696,5661
599.4943,5662
653.73895,5663
820.49054,5664
908.9753,5665
814.68463,5666
735.9576,5667
745.31323,5668
734.0302,5669
740.57605,5670
748.4958,5671
776.40265,5672
771.30194,5673
721.0172,5674
745.6372,5675
707.16595,5676
670.8011,5677
712.3803,5678
703.0701,5679
745.2722,5680
727.2868,5681
741.8537,5682
752.4728,5683
718.7967,5684
672.4571,5685
724.87823,5686
727.9934,5687
758.22614,5688
644.2896,5689
631.7835,5690
677.6194,5691
760.8696,5692
735.509,5693
686.1221,5694
743.1044,5695
727.23816,5696
635.5078,5697
618.7879,5698
623.9744,5699
636.3738,5700
708.7484,5701
610.4474,5702
613.78217,5703
580.768,5704
600.17847,5705
688.0192,5706
632.55005,5707
573.46844,5708
606.7112,5709
573.4303,5710
588.1012,5711
630.3403,5712
555.2269,5713
616.102,5714
658.3927,5715
546.0281,5716
554.90753,5717
557.18207,5718
577.3219,5719
672.65485,5720
660.8587,5721
622.91846,5722
734.1865,5723
630.0593,5724
773.24524,5725
661.7749,5726
615.7299,5727
701.92816,5728
665.18256,5729
742.618,5730
667.36383,5731
632.514,5732
677.97186,5733
667.2976,5734
685.6179,5735
1033.6223,5736
1051.4547,5737
1004.5319,5738
912.76013,5739
862.7134,5740
825.6242,5741
891.4813,5742
893.6029,5743
897.637,5744
851.05896,5745
963.40674,5746
866.4184,5747
910.45593,5748
899.6408,5749
802.54846,5750
815.6286,5751
807.2403,5752
803.12775,5753
910.1103,5754
840.47095,5755
780.81824,5756
758.8861,5757
752.13446,5758
759.2057,5759
700.92084,5760
679.93384,5761
668.5838,5762
637.9922,5763
628.1944,5764
671.1217,5765
631.10583,5766
565.3583,5767
562.2049,5768
560.87604,5769
614.40045,5770
617.9584,5771
536.50354,5772
527.53436,5773
561.18854,5774
576.0222,5775
615.7757,5776
556.3426,5777
551.0939,5778
616.1579,5779
629.21295,5780
557.3982,5781
526.2823,5782
591.12054,5783
653.63513,5784
565.626,5785
534.0605,5786
553.0228,5787
588.8469,5788
565.5429,5789
542.05585,5790
539.7047,5791
644.146,5792
784.56537,5793
735.6249,5794
819.11194,5795
839.8055,5796
745.4972,5797
727.1533,5798
766.5022,5799
775.287,5800
824.00244,5801
1273.0266,5802
1072.8195,5803
971.93665,5804
947.62103,5805
868.87616,5806
825.379,5807
823.22723,5808
792.26013,5809
757.58435,5810
773.4728,5811
783.6088,5812
815.64966,5813
808.02893,5814
802.5992,5815
807.4049,5816
770.1402,5817
745.30206,5818
733.69635,5819
784.6406,5820
675.9998,5821
700.47235,5822
730.3431,5823
664.05914,5824
673.53564,5825
657.8696,5826
659.26245,5827
656.95197,5828
626.0445,5829
678.96924,5830
569.5116,5831
678.2601,5832
589.62964,5833
568.79333,5834
671.93536,5835
550.56006,5836
634.3861,5837
589.86206,5838
584.4278,5839
711.3812,5840
591.97473,5841
606.05725,5842
609.84,5843
594.7322,5844
642.4998,5845
720.71405,5846
710.39276,5847
658.4056,5848
685.9814,5849
668.29083,5850
686.7494,5851
782.2229,5852
642.7599,5853
635.9813,5854
741.9576,5855
743.9958,5856
694.5346,5857
686.9578,5858
668.5947,5859
678.01514,5860
684.94257,5861
670.294,5862
697.88367,5863
638.2034,5864
657.93365,5865
606.3973,5866
594.7405,5867
894.20215,5868
884.3031,5869
789.1702,5870
738.9102,5871
797.3311,5872
760.3369,5873
713.8843,5874
681.5835,5875
769.4298,5876
671.5183,5877
655.2579,5878
643.24677,5879
674.52997,5880
641.1984,5881
538.11053,5882
614.28613,5883
704.7071,5884
669.26447,5885
722.5473,5886
606.7596,5887
700.02966,5888
643.4581,5889
656.32513,5890
627.3163,5891
651.76746,5892
587.5622,5893
618.363,5894
1053.8542,5895
926.97864,5896
861.0394,5897
823.98035,5898
817.2226,5899
729.2962,5900
749.89856,5901
727.7243,5902
789.7765,5903
761.92365,5904
860.31665,5905
752.7388,5906
747.42816,5907
743.62585,5908
765.77515,5909
937.96954,5910
871.94696,5911
914.24554,5912
894.0478,5913
882.54346,5914
880.6481,5915
863.1612,5916
810.41364,5917
858.6924,5918
827.6796,5919
1126.332,5920
1083.1113,5921
948.4074,5922
951.4495,5923
941.659,5924
999.9297,5925
907.99805,5926
914.6366,5927
1147.6449,5928
1044.5267,5929
1088.2855,5930
1061.5889,5931
942.323,5932
925.7109,5933
807.7256,5934
859.2382,5935
875.62555,5936
1018.0569,5937
970.0572,5938
865.1359,5939
914.16113,5940
894.27966,5941
862.9057,5942
838.87933,5943
811.45233,5944
922.71405,5945
766.5353,5946
685.1267,5947
681.08777,5948
682.6796,5949
690.9601,5950
642.45483,5951
734.78296,5952
647.6721,5953
652.8645,5954
685.1878,5955
670.92554,5956
708.6083,5957
637.1788,5958
647.75977,5959
1260.9081,5960
1127.4205,5961
1060.9519,5962
903.1646,5963
793.6862,5964
823.2062,5965
888.6186,5966
878.55884,5967
775.9686,5968
821.4419,5969
712.7915,5970
821.2416,5971
747.56866,5972
693.24774,5973
731.2037,5974
704.9284,5975
739.0039,5976
633.57056,5977
707.928,5978
1253.0532,5979
1058.5948,5980
1059.2203,5981
995.3059,5982
1026.8975,5983
924.0791,5984
870.58746,5985
833.9202,5986
824.0126,5987
832.24005,5988
861.4969,5989
874.6992,5990
859.2,5991
780.29974,5992
730.14465,5993
771.9455,5994
710.28784,5995
690.7223,5996
680.39606,5997
676.6951,5998
598.1893,5999
682.72046,6000
782.0494,6001
642.50354,6002
729.99805,6003
653.15045,6004
701.9341,6005
659.96234,6006
589.5983,6007
648.37103,6008
591.15497,6009
602.1434,6010
532.67224,6011
571.97815,6012
583.01373,6013
593.35156,6014
730.3132,6015
628.42346,6016
602.93396,6017
680.8861,6018
782.05804,6019
724.6516,6020
645.1726,6021
664.50684,6022
668.75226,6023
1099.801,6024
908.0367,6025
1018.91583,6026
1010.3231,6027
907.1886,6028
835.989,6029
808.9026,6030
794.1334,6031
784.0388,6032
769.78516,6033
720.5762,6034
768.41797,6035
783.09766,6036
694.72614,6037
698.15326,6038
820.3452,6039
1018.7562,6040
870.12683,6041
813.47644,6042
835.75415,6043
882.7697,6044
844.00073,6045
855.5397,6046
863.48193,6047
846.84235,6048
824.49963,6049
900.59485,6050
867.89325,6051
908.31934,6052
832.66754,6053
791.5661,6054
815.5011,6055
816.9274,6056
842.65643,6057
830.0326,6058
878.9114,6059
769.41656,6060
851.44604,6061
798.0902,6062
830.13293,6063
728.97974,6064
767.15247,6065
722.02747,6066
742.46625,6067
746.992,6068
729.867,6069
965.53296,6070
963.68353,6071
896.9237,6072
826.9409,6073
798.9709,6074
827.5117,6075
811.1302,6076
762.3961,6077
748.1874,6078
794.0482,6079
793.54175,6080
834.9068,6081
736.0343,6082
693.69507,6083
741.37256,6084
836.15454,6085
785.01025,6086
744.85925,6087
734.9891,6088
721.16284,6089
656.4607,6090
634.1171,6091
680.8669,6092
695.1786,6093
734.4662,6094
888.1094,6095
735.20575,6096
718.1822,6097
700.68365,6098
705.63605,6099
627.32306,6100
656.1699,6101
605.0951,6102
644.89,6103
592.31213,6104
663.6482,6105
656.7436,6106
634.71326,6107
635.5355,6108
666.08984,6109
597.6878,6110
605.8491,6111
818.9706,6112
774.693,6113
693.5863,6114
732.01465,6115
631.3242,6116
697.9377,6117
593.4146,6118
640.40967,6119
587.53265,6120
631.60583,6121
681.56366,6122
805.22534,6123
737.8592,6124
754.4201,6125
699.06726,6126
733.4642,6127
739.94836,6128
750.16205,6129
721.80066,6130
825.5619,6131
733.6637,6132
707.4085,6133
667.9766,6134
641.32294,6135
665.8138,6136
636.8919,6137
657.7894,6138
634.5034,6139
628.7504,6140
632.7435,6141
708.3197,6142
745.08997,6143
695.2689,6144
637.87427,6145
627.85547,6146
644.3305,6147
619.9502,6148
606.76447,6149
650.39844,6150
629.29553,6151
619.864,6152
626.7192,6153
597.89484,6154
607.9714,6155
587.10675,6156
588.1422,6157
615.224,6158
586.4036,6159
595.43616,6160
638.0404,6161
582.7813,6162
637.85614,6163
571.3087,6164
644.3311,6165
594.3643,6166
617.5174,6167
659.5294,6168
582.756,6169
619.6631,6170
588.3257,6171
552.0764,6172
621.4904,6173
556.9446,6174
627.6335,6175
527.07825,6176
518.9069,6177
538.1893,6178
558.8357,6179
614.9599,6180
570.73816,6181
508.57764,6182
492.32077,6183
533.48975,6184
655.9052,6185
625.5164,6186
704.373,6187
675.24854,6188
658.0109,6189
617.99664,6190
584.7676,6191
622.70197,6192
665.50165,6193
635.4168,6194
630.213,6195
563.74054,6196
573.0189,6197
592.4292,6198
601.4355,6199
631.18567,6200
574.3496,6201
627.7335,6202
555.6345,6203
573.4989,6204
548.2871,6205
559.55273,6206
490.11758,6207
586.6908,6208
555.57495,6209
542.6801,6210
555.57086,6211
548.2829,6212
500.80203,6213
582.2354,6214
441.69937,6215
498.59088,6216
494.04233,6217
524.7243,6218
461.81595,6219
471.9583,6220
473.44516,6221
491.86304,6222
570.84076,6223
504.09592,6224
625.5749,6225
592.2359,6226
553.72034,6227
572.9753,6228
476.2894,6229
498.9881,6230
461.7039,6231
479.34073,6232
444.06104,6233
435.50397,6234
455.0254,6235
401.71814,6236
452.67075,6237
403.76187,6238
465.965,6239
429.68478,6240
436.1026,6241
483.3675,6242
462.75214,6243
441.09753,6244
448.45667,6245
438.68402,6246
440.76175,6247
442.2415,6248
434.98535,6249
468.68066,6250
622.40564,6251
641.73083,6252
545.1019,6253
583.98425,6254
536.5005,6255
597.1341,6256
614.11365,6257
606.1366,6258
607.28796,6259
623.58374,6260
559.021,6261
574.6307,6262
562.99976,6263
558.55725,6264
522.83057,6265
519.065,6266
501.90997,6267
486.44876,6268
471.79764,6269
432.3646,6270
476.79803,6271
508.04352,6272
462.30298,6273
435.50882,6274
460.4233,6275
432.44913,6276
683.47705,6277
499.39606,6278
463.00055,6279
531.9712,6280
471.57755,6281
454.52243,6282
441.20007,6283
440.62112,6284
530.8123,6285
470.10562,6286
558.2629,6287
656.0794,6288
510.8386,6289
495.45697,6290
547.81683,6291
528.88214,6292
535.2529,6293
537.5187,6294
509.24506,6295
504.41068,6296
527.4842,6297
572.02057,6298
540.1629,6299
516.9572,6300
490.56134,6301
539.6174,6302
532.1704,6303
516.17755,6304
560.67395,6305
512.4863,6306
593.73236,6307
479.9321,6308
464.57037,6309
436.03345,6310
404.19485,6311
405.4232,6312
484.4213,6313
464.97348,6314
426.83408,6315
405.3966,6316
427.84106,6317
460.38702,6318
457.64062,6319
464.5509,6320
484.1945,6321
476.69415,6322
425.34305,6323
427.2411,6324
413.75204,6325
428.22037,6326
405.71964,6327
435.2948,6328
475.19437,6329
465.11227,6330
426.65076,6331
410.35355,6332
404.68912,6333
434.09988,6334
418.79953,6335
435.31204,6336
441.8877,6337
401.43088,6338
449.7885,6339
456.7723,6340
483.3555,6341
542.0125,6342
480.1094,6343
509.89005,6344
469.44598,6345
459.57788,6346
445.9016,6347
529.2274,6348
488.73657,6349
493.61002,6350
545.1442,6351
538.29553,6352
490.2823,6353
454.12738,6354
440.78342,6355
636.7088,6356
473.6091,6357
469.13043,6358
478.87,6359
451.28107,6360
524.97656,6361
762.4182,6362
674.1051,6363
628.79846,6364
504.96744,6365
638.6647,6366
637.0489,6367
657.061,6368
594.2827,6369
556.3355,6370
660.81665,6371
618.18286,6372
616.793,6373
597.3088,6374
603.57666,6375
533.7535,6376
511.48193,6377
508.11868,6378
494.84164,6379
522.96234,6380
514.359,6381
536.402,6382
569.8213,6383
504.18375,6384
540.84393,6385
619.713,6386
541.0663,6387
527.9829,6388
592.47363,6389
535.81915,6390
509.20554,6391
575.8824,6392
559.39355,6393
479.423,6394
523.78204,6395
490.62607,6396
543.4681,6397
497.59418,6398
520.52234,6399
528.05035,6400
558.94995,6401
499.2714,6402
483.68436,6403
492.68793,6404
562.55066,6405
425.3276,6406
507.09235,6407
495.29016,6408
495.07297,6409
518.60077,6410
524.8579,6411
499.39825,6412
551.9738,6413
548.6285,6414
482.66092,6415
517.63495,6416
503.30905,6417
546.4183,6418
554.1068,6419
598.7509,6420
572.968,6421
532.3488,6422
503.03265,6423
486.80667,6424
492.08087,6425
518.9776,6426
540.12976,6427
572.73663,6428
510.07153,6429
506.82645,6430
544.4275,6431
546.1962,6432
474.29697,6433
571.08545,6434
505.85587,6435
506.3206,6436
606.8581,6437
499.2751,6438
510.5047,6439
534.03516,6440
485.73715,6441
498.99802,6442
578.87976,6443
496.7799,6444
490.9687,6445
553.69794,6446
526.1294,6447
447.20822,6448
524.51355,6449
566.0463,6450
479.81293,6451
616.2438,6452
517.9992,6453
479.78976,6454
517.035,6455
494.9771,6456
513.6905,6457
454.07327,6458
438.89075,6459
490.92065,6460
467.82584,6461
439.8916,6462
489.12863,6463
496.72485,6464
474.30316,6465
545.5913,6466
453.13654,6467
477.8485,6468
482.06937,6469
475.78537,6470
532.3069,6471
445.81827,6472
551.5213,6473
624.7483,6474
537.00433,6475
535.1799,6476
525.11456,6477
521.2998,6478
492.11987,6479
471.6919,6480
421.57217,6481
426.29044,6482
531.8677,6483
505.213,6484
419.0845,6485
499.6801,6486
498.38828,6487
413.7417,6488
429.35342,6489
467.23697,6490
464.08652,6491
398.85236,6492
446.82367,6493
449.4967,6494
419.19296,6495
426.514,6496
447.89035,6497
477.7878,6498
435.77234,6499
435.25854,6500
480.91165,6501
472.30585,6502
433.4525,6503
577.9062,6504
513.4917,6505
446.1124,6506
441.79456,6507
453.57724,6508
464.21518,6509
476.98398,6510
513.74005,6511
552.9664,6512
537.45166,6513
543.17017,6514
501.06696,6515
523.21857,6516
523.25916,6517
554.5135,6518
602.944,6519
607.3556,6520
605.5071,6521
658.90173,6522
619.29565,6523
584.7249,6524
594.9868,6525
606.51746,6526
606.96716,6527
605.0993,6528
574.8836,6529
534.08813,6530
521.29834,6531
507.80307,6532
551.93726,6533
545.5012,6534
511.11316,6535
496.4137,6536
489.52402,6537
512.6439,6538
506.31064,6539
498.3108,6540
524.30774,6541
549.5313,6542
550.6364,6543
561.0148,6544
579.693,6545
557.83514,6546
614.7336,6547
573.5496,6548
533.97107,6549
503.9577,6550
480.4639,6551
484.7107,6552
518.049,6553
487.98312,6554
461.28784,6555
435.32104,6556
437.3786,6557
438.30246,6558
433.2632,6559
508.25452,6560
481.28436,6561
516.0936,6562
495.4816,6563
569.2176,6564
492.65475,6565
494.99997,6566
495.04504,6567
516.8098,6568
495.7042,6569
438.8454,6570
445.97134,6571
443.9509,6572
452.68073,6573
501.15564,6574
480.5651,6575
472.22394,6576
475.99002,6577
441.32962,6578
497.29602,6579
400.8573,6580
459.71402,6581
399.1193,6582
375.20358,6583
460.15625,6584
412.27423,6585
472.3684,6586
443.59363,6587
445.15732,6588
465.53668,6589
432.77344,6590
445.82358,6591
464.59814,6592
425.68225,6593
410.01672,6594
421.229,6595
424.7828,6596
384.13583,6597
425.0025,6598
417.0407,6599
406.09454,6600
389.7386,6601
394.38046,6602
388.82697,6603
392.0533,6604
414.16177,6605
417.98184,6606
419.40665,6607
374.19827,6608
394.8234,6609
382.69952,6610
411.00052,6611
405.55466,6612
406.33292,6613
377.71982,6614
375.34448,6615
349.41895,6616
368.25546,6617
401.52155,6618
405.2598,6619
396.48987,6620
355.52408,6621
371.8775,6622
344.21774,6623
380.2057,6624
386.1528,6625
381.5958,6626
404.22168,6627
369.8875,6628
357.2139,6629
373.78745,6630
398.7695,6631
409.5274,6632
406.55527,6633
395.50388,6634
423.238,6635
380.41257,6636
429.61435,6637
372.0707,6638
396.19104,6639
416.359,6640
432.23044,6641
427.7344,6642
469.27252,6643
459.94864,6644
456.4277,6645
480.8141,6646
436.4769,6647
496.26498,6648
482.52258,6649
527.8989,6650
452.88474,6651
483.78632,6652
455.9398,6653
452.33798,6654
453.51297,6655
478.03082,6656
419.34845,6657
426.0515,6658
476.46472,6659
445.93173,6660
430.96982,6661
463.6372,6662
509.11343,6663
443.15836,6664
485.61255,6665
506.54556,6666
679.14124,6667
556.5663,6668
565.7719,6669
516.61255,6670
537.2769,6671
568.9284,6672
553.15137,6673
600.3203,6674
572.8705,6675
541.9846,6676
594.5789,6677
605.14764,6678
573.734,6679
625.7139,6680
613.29755,6681
601.5637,6682
589.60077,6683
590.4732,6684
604.92523,6685
608.4687,6686
603.52075,6687
617.45355,6688
637.0461,6689
566.30865,6690
570.6654,6691
558.7402,6692
548.6351,6693
557.9298,6694
551.48114,6695
560.37787,6696
547.7439,6697
543.3833,6698
590.2265,6699
591.9807,6700
647.817,6701
616.8626,6702
578.6753,6703
596.7958,6704
577.9081,6705
564.0507,6706
542.48846,6707
541.50244,6708
536.1423,6709
525.5944,6710
521.7571,6711
498.12808,6712
496.11768,6713
494.2631,6714
480.87592,6715
492.5222,6716
469.38867,6717
476.61746,6718
518.1563,6719
506.87048,6720
457.88922,6721
487.7401,6722
528.86127,6723
635.9233,6724
531.9244,6725
567.6155,6726
542.6478,6727
549.1784,6728
627.6419,6729
547.06354,6730
596.79913,6731
569.7334,6732
594.8799,6733
529.32166,6734
517.6934,6735
627.3123,6736
518.564,6737
605.46735,6738
562.24115,6739
514.5995,6740
524.5625,6741
521.4135,6742
580.2349,6743
555.91785,6744
525.77765,6745
476.64105,6746
463.90683,6747
491.44977,6748
494.6192,6749
487.00763,6750
528.1464,6751
495.8412,6752
465.01236,6753
460.9053,6754
529.1781,6755
429.86832,6756
447.87936,6757
446.45786,6758
414.74475,6759
478.302,6760
464.51166,6761
471.8488,6762
481.34775,6763
460.9427,6764
521.0937,6765
485.06308,6766
460.93625,6767
498.29535,6768
555.80225,6769
497.86288,6770
476.45163,6771
513.8872,6772
488.1139,6773
446.1178,6774
503.57822,6775
449.6189,6776
435.76553,6777
410.20374,6778
386.71817,6779
594.6968,6780
538.743,6781
475.49103,6782
517.74725,6783
544.80975,6784
519.383,6785
488.55338,6786
540.1561,6787
542.69714,6788
483.82034,6789
527.66187,6790
555.3789,6791
511.57538,6792
706.25146,6793
669.7699,6794
602.3835,6795
607.5474,6796
665.0235,6797
714.25586,6798
618.7071,6799
628.2196,6800
572.3214,6801
581.7712,6802
588.2271,6803
641.0266,6804
604.53076,6805
599.66675,6806
605.6346,6807
584.94507,6808
621.6969,6809
646.5935,6810
639.36804,6811
627.0997,6812
587.40607,6813
597.28186,6814
674.11224,6815
727.90704,6816
550.2803,6817
528.82416,6818
560.9829,6819
580.0336,6820
593.14655,6821
543.6347,6822
536.3697,6823
534.357,6824
551.99817,6825
597.9562,6826
511.37006,6827
480.58212,6828
517.50745,6829
610.0469,6830
554.1829,6831
518.46436,6832
518.8756,6833
506.17175,6834
559.6504,6835
592.4158,6836
473.3056,6837
492.0964,6838
555.7848,6839
543.50305,6840
525.10944,6841
634.02466,6842
627.52673,6843
536.1173,6844
539.81946,6845
529.70337,6846
519.12195,6847
502.8519,6848
506.6752,6849
513.1798,6850
591.7298,6851
564.2062,6852
571.4776,6853
569.5733,6854
585.54047,6855
545.2404,6856
528.10944,6857
468.61304,6858
581.076,6859
601.1646,6860
565.4043,6861
520.549,6862
570.9962,6863
516.7958,6864
537.8895,6865
602.25555,6866
507.32605,6867
584.5219,6868
682.5711,6869
750.6239,6870
683.0708,6871
673.1801,6872
656.8971,6873
628.846,6874
599.38824,6875
647.9415,6876
653.2183,6877
644.48035,6878
610.13745,6879
579.19574,6880
608.8066,6881
590.05383,6882
614.36255,6883
636.93036,6884
625.8143,6885
710.15717,6886
636.6471,6887
618.12897,6888
668.2858,6889
603.7158,6890
569.094,6891
551.319,6892
520.6477,6893
608.7661,6894
566.4539,6895
520.587,6896
561.1521,6897
526.1305,6898
624.4079,6899
616.0643,6900
720.4357,6901
697.8799,6902
609.80835,6903
581.4395,6904
571.46313,6905
603.97516,6906
548.447,6907
548.2794,6908
615.21313,6909
614.77185,6910
646.65955,6911
572.5467,6912
557.20764,6913
598.18567,6914
560.7906,6915
606.57916,6916
573.57635,6917
565.8465,6918
616.6928,6919
770.2336,6920
694.27405,6921
673.2043,6922
654.35004,6923
720.0551,6924
632.7443,6925
629.3157,6926
656.9094,6927
690.14343,6928
952.4654,6929
776.71106,6930
798.85736,6931
816.36725,6932
931.7197,6933
849.1386,6934
933.7384,6935
806.3836,6936
819.37885,6937
819.9162,6938
870.8174,6939
916.36835,6940
945.067,6941
960.0848,6942
787.2269,6943
894.00354,6944
807.5982,6945
771.912,6946
796.0345,6947
806.8,6948
767.4259,6949
813.6286,6950
776.5544,6951
757.87585,6952
704.7223,6953
742.45746,6954
734.353,6955
736.2285,6956
705.4122,6957
683.8532,6958
721.32,6959
724.5117,6960
746.96686,6961
791.0271,6962
737.0105,6963
681.4219,6964
667.9327,6965
760.8668,6966
715.15924,6967
694.59045,6968
602.3726,6969
599.4065,6970
615.4591,6971
637.7076,6972
673.6473,6973
609.24677,6974
595.73553,6975
572.9575,6976
599.6224,6977
564.5107,6978
578.68915,6979
559.83136,6980
568.53796,6981
643.24945,6982
639.7116,6983
542.7773,6984
553.37244,6985
580.78546,6986
600.2448,6987
623.26154,6988
695.28436,6989
688.6753,6990
631.07666,6991
624.5149,6992
728.57825,6993
672.22504,6994
610.2974,6995
713.35004,6996
863.7763,6997
735.86865,6998
688.9442,6999
709.02167,7000
730.8585,7001
716.10583,7002
726.00964,7003
752.7608,7004
1057.5013,7005
1166.9954,7006
1011.92126,7007
872.3492,7008
859.1948,7009
807.4987,7010
823.6858,7011
788.171,7012
761.7857,7013
763.2396,7014
815.2249,7015
834.4358,7016
853.74884,7017
822.7391,7018
800.2857,7019
767.6496,7020
753.7594,7021
789.6206,7022
672.9972,7023
682.99115,7024
715.7856,7025
676.2292,7026
748.43225,7027
703.17114,7028
757.2669,7029
714.83704,7030
700.42346,7031
685.23724,7032
605.99664,7033
716.0827,7034
746.4559,7035
730.497,7036
693.0285,7037
645.61725,7038
710.90765,7039
719.76886,7040
765.96326,7041
611.29236,7042
759.45087,7043
802.31464,7044
729.25244,7045
723.9096,7046
701.31036,7047
728.29504,7048
723.8272,7049
722.4282,7050
768.76324,7051
718.4936,7052
779.90576,7053
719.3727,7054
784.8347,7055
716.93207,7056
678.45703,7057
682.68604,7058
704.13995,7059
680.7223,7060
651.99176,7061
650.19574,7062
672.0036,7063
805.4475,7064
1026.7379,7065
877.7035,7066
819.81055,7067
775.63416,7068
859.7241,7069
740.64404,7070
778.61053,7071
804.139,7072
771.21545,7073
678.2119,7074
690.025,7075
695.71387,7076
686.51996,7077
805.1389,7078
715.549,7079
780.6538,7080
710.8858,7081
682.5449,7082
765.66394,7083
740.7292,7084
669.5825,7085
707.3643,7086
680.8483,7087
645.77814,7088
701.2935,7089
771.4815,7090
922.5713,7091
987.4582,7092
864.42584,7093
929.63617,7094
833.84827,7095
788.13495,7096
771.0374,7097
828.9301,7098
714.4672,7099
704.3802,7100
728.06116,7101
762.0945,7102
755.6363,7103
975.4055,7104
870.86035,7105
939.9977,7106
831.81866,7107
909.63684,7108
796.48724,7109
887.44464,7110
771.41174,7111
825.96594,7112
1164.1708,7113
1086.839,7114
1003.6428,7115
1015.9946,7116
967.5405,7117
999.8482,7118
892.5937,7119
849.64386,7120
1030.613,7121
985.65485,7122
968.2832,7123
1020.2492,7124
951.7092,7125
963.6348,7126
858.89667,7127
902.00336,7128
903.2674,7129
924.6337,7130
1093.0764,7131
1001.61743,7132
963.11664,7133
946.3931,7134
968.99225,7135
922.42303,7136
900.85114,7137
826.64026,7138
764.73126,7139
720.75507,7140
685.55054,7141
751.0668,7142
718.52637,7143
729.1626,7144
736.2419,7145
737.0355,7146
718.79926,7147
805.76215,7148
679.33844,7149
705.401,7150
686.44366,7151
898.4804,7152
1460.2484,7153
951.6707,7154
815.5026,7155
861.9048,7156
841.3093,7157
862.0552,7158
830.035,7159
756.41595,7160
803.66876,7161
762.4574,7162
859.0145,7163
736.4155,7164
780.04895,7165
693.71796,7166
735.0078,7167
761.29376,7168
714.1376,7169
1127.7472,7170
1079.7324,7171
984.7239,7172
1007.68506,7173
994.4018,7174
861.1488,7175
798.3551,7176
774.69324,7177
791.63086,7178
768.0673,7179
820.8253,7180
687.6039,7181
760.00903,7182
773.32886,7183
752.15765,7184
670.7276,7185
654.8687,7186
613.9356,7187
640.4513,7188
628.94257,7189
779.2231,7190
740.3067,7191
819.3909,7192
871.84875,7193
799.4301,7194
817.5425,7195
697.107,7196
722.91,7197
724.1231,7198
734.4796,7199
683.2545,7200
830.1021,7201
827.5578,7202
893.1631,7203
768.62634,7204
657.32336,7205
755.44714,7206
896.6607,7207
677.39886,7208
618.2862,7209
659.95197,7210
1088.1453,7211
927.5165,7212
893.48157,7213
998.7562,7214
949.2034,7215
942.08124,7216
745.5062,7217
724.2879,7218
865.4353,7219
866.2252,7220
797.918,7221
779.95245,7222
770.26733,7223
751.7695,7224
779.10754,7225
825.64813,7226
1187.5587,7227
1045.319,7228
888.1487,7229
829.7811,7230
895.86926,7231
881.41565,7232
852.1403,7233
766.22064,7234
807.7899,7235
847.0218,7236
847.1707,7237
864.2946,7238
846.61395,7239
887.1676,7240
819.63544,7241
806.4083,7242
766.1271,7243
783.6455,7244
819.3912,7245
882.98096,7246
1041.2538,7247
884.02386,7248
991.67755,7249
846.30505,7250
870.1854,7251
702.72815,7252
848.1701,7253
711.2911,7254
824.5606,7255
707.35846,7256
894.93677,7257
987.83344,7258
910.0117,7259
883.91595,7260
857.19244,7261
817.10297,7262
876.5368,7263
823.61176,7264
881.04333,7265
832.4439,7266
950.5499,7267
851.0583,7268
837.35596,7269
784.46576,7270
778.11206,7271
787.14795,7272
707.5079,7273
746.00995,7274
741.58545,7275
747.79474,7276
715.02124,7277
643.79803,7278
710.20465,7279
798.1139,7280
750.1446,7281
702.1691,7282
689.0807,7283
682.28973,7284
723.8664,7285
663.1713,7286
698.2777,7287
665.52905,7288
639.13837,7289
657.36505,7290
621.87787,7291
572.82184,7292
602.8988,7293
612.83105,7294
645.14606,7295
614.4155,7296
596.3523,7297
602.758,7298
648.40625,7299
671.48065,7300
654.80066,7301
644.45764,7302
626.5975,7303
646.7758,7304
580.54376,7305
669.29565,7306
593.04236,7307
647.8889,7308
588.7374,7309
699.42694,7310
669.4002,7311
768.2596,7312
687.97833,7313
686.7048,7314
636.7022,7315
677.3869,7316
695.6163,7317
716.74786,7318
729.2648,7319
744.8186,7320
686.2027,7321
618.03595,7322
605.2093,7323
664.1892,7324
658.696,7325
616.0106,7326
596.122,7327
581.62646,7328
625.39185,7329
654.7483,7330
598.0247,7331
595.71796,7332
704.59064,7333
689.5526,7334
682.1188,7335
636.8949,7336
590.2283,7337
574.6376,7338
576.5154,7339
572.5973,7340
605.541,7341
564.2682,7342
572.3107,7343
580.2536,7344
580.54315,7345
615.709,7346
629.06665,7347
570.12756,7348
589.59125,7349
552.4234,7350
557.0308,7351
549.2594,7352
536.9129,7353
597.26373,7354
658.59906,7355
627.5878,7356
657.79065,7357
561.81104,7358
547.6796,7359
593.0879,7360
557.2494,7361
612.4354,7362
597.27246,7363
619.7584,7364
573.1798,7365
507.70035,7366
548.3931,7367
485.80017,7368
491.85526,7369
454.76932,7370
489.72098,7371
525.5347,7372
538.1061,7373
561.68097,7374
527.74493,7375
527.896,7376
552.89667,7377
590.5206,7378
524.51074,7379
533.2474,7380
575.5991,7381
595.2753,7382
578.80524,7383
556.65497,7384
556.4932,7385
528.6602,7386
521.7717,7387
514.7164,7388
575.66284,7389
557.56146,7390
572.2174,7391
576.16846,7392
579.0692,7393
549.1961,7394
524.6311,7395
599.25684,7396
512.46014,7397
483.1638,7398
466.10086,7399
533.5108,7400
486.8201,7401
509.31027,7402
539.28375,7403
507.8626,7404
510.1394,7405
525.89484,7406
483.01837,7407
558.1916,7408
507.788,7409
531.2372,7410
518.6227,7411
478.87866,7412
519.03467,7413
498.63965,7414
528.9252,7415
520.6324,7416
526.8094,7417
565.19434,7418
581.5845,7419
514.6443,7420
498.92737,7421
505.97147,7422
567.4582,7423
746.7096,7424
504.8151,7425
453.1191,7426
460.78354,7427
435.0996,7428
484.40588,7429
489.62158,7430
484.1139,7431
424.13785,7432
500.79044,7433
464.7599,7434
414.37088,7435
392.24557,7436
466.52902,7437
478.19376,7438
472.9323,7439
523.86426,7440
592.4262,7441
578.6731,7442
501.41312,7443
541.6227,7444
530.26324,7445
575.2751,7446
604.1948,7447
522.7985,7448
582.65424,7449
574.65967,7450
565.6944,7451
554.0922,7452
559.14813,7453
552.07043,7454
554.0783,7455
513.9531,7456
529.9188,7457
499.16986,7458
532.35425,7459
436.61566,7460
484.9844,7461
492.26627,7462
422.4635,7463
451.17462,7464
499.36407,7465
469.9989,7466
410.8884,7467
457.24265,7468
447.06592,7469
457.8907,7470
455.8611,7471
436.22855,7472
463.7847,7473
442.3008,7474
487.8201,7475
488.92227,7476
445.56506,7477
422.1186,7478
420.02725,7479
437.15656,7480
458.21402,7481
408.5422,7482
453.6382,7483
532.4697,7484
435.92203,7485
590.2988,7486
733.59863,7487
622.5185,7488
604.27484,7489
612.47406,7490
601.3488,7491
525.34814,7492
549.32263,7493
534.1297,7494
582.66614,7495
556.6226,7496
559.8618,7497
631.58704,7498
555.1397,7499
602.8897,7500
580.9423,7501
563.8416,7502
588.7343,7503
573.6014,7504
559.44025,7505
547.7009,7506
563.618,7507
580.4019,7508
508.50943,7509
513.01056,7510
482.81586,7511
471.98068,7512
441.861,7513
508.3323,7514
472.08762,7515
526.1441,7516
453.9341,7517
452.45593,7518
508.71423,7519
493.65,7520
535.3492,7521
499.33716,7522
521.3854,7523
462.0297,7524
472.73166,7525
454.43832,7526
440.6882,7527
439.40326,7528
443.01373,7529
413.64484,7530
417.1609,7531
508.475,7532
456.93088,7533
461.1439,7534
423.99707,7535
441.54288,7536
445.5222,7537
452.5411,7538
469.20428,7539
435.17444,7540
456.218,7541
470.43384,7542
471.25452,7543
527.8938,7544
484.3767,7545
476.16107,7546
517.83856,7547
474.42093,7548
415.89194,7549
468.53992,7550
452.24408,7551
479.96033,7552
462.6132,7553
444.03632,7554
462.2695,7555
444.28787,7556
459.92825,7557
534.74133,7558
448.33014,7559
437.2165,7560
425.58926,7561
492.35675,7562
677.4286,7563
626.4619,7564
563.5397,7565
561.7198,7566
608.6424,7567
581.27966,7568
559.64526,7569
517.79706,7570
568.2553,7571
606.06067,7572
558.4547,7573
559.7532,7574
616.30206,7575
628.99786,7576
582.6339,7577
522.879,7578
513.86237,7579
497.71945,7580
482.74454,7581
508.4322,7582
502.99335,7583
492.96506,7584
599.83154,7585
579.7641,7586
577.6767,7587
555.27606,7588
508.08298,7589
547.30316,7590
543.6363,7591
543.7439,7592
529.8824,7593
444.85028,7594
514.82715,7595
483.8883,7596
514.9748,7597
486.04385,7598
505.40353,7599
519.68384,7600
501.77084,7601
486.68613,7602
515.9098,7603
447.94583,7604
454.9579,7605
463.34717,7606
472.75378,7607
487.1583,7608
493.37064,7609
530.8847,7610
484.77872,7611
543.97394,7612
472.292,7613
485.5152,7614
446.93768,7615
476.61835,7616
470.83023,7617
498.98233,7618
549.9557,7619
483.95428,7620
534.4736,7621
489.6649,7622
546.08344,7623
505.58102,7624
528.98004,7625
493.40494,7626
533.6565,7627
520.40533,7628
464.90463,7629
560.1319,7630
480.50824,7631
518.4523,7632
563.6446,7633
488.2345,7634
494.5345,7635
530.4548,7636
477.51413,7637
458.8192,7638
452.18417,7639
426.5742,7640
490.2128,7641
501.5373,7642
535.374,7643
491.86444,7644
523.59357,7645
483.96954,7646
553.017,7647
527.2428,7648
476.46225,7649
523.465,7650
542.2232,7651
491.629,7652
475.53937,7653
495.67825,7654
535.57135,7655
482.19574,7656
538.5486,7657
445.37524,7658
492.35568,7659
593.1586,7660
472.79825,7661
461.422,7662
482.47195,7663
445.66193,7664
631.00037,7665
521.8184,7666
484.51984,7667
449.234,7668
475.97855,7669
482.17496,7670
468.6235,7671
443.31747,7672
452.61566,7673
471.9746,7674
438.6677,7675
440.68958,7676
482.053,7677
475.45764,7678
461.86975,7679
480.8707,7680
452.41812,7681
448.2634,7682
458.10858,7683
482.78418,7684
414.3454,7685
479.35852,7686
509.98508,7687
435.69135,7688
417.52097,7689
572.56915,7690
637.1786,7691
526.15826,7692
495.5577,7693
507.76538,7694
517.94995,7695
545.2608,7696
564.2016,7697
559.6434,7698
544.8694,7699
548.33167,7700
579.45056,7701
555.07275,7702
531.65436,7703
565.78723,7704
576.3635,7705
548.3663,7706
537.35596,7707
528.42975,7708
506.18884,7709
516.5207,7710
510.96478,7711
504.7993,7712
495.66327,7713
523.7842,7714
498.88428,7715
476.67932,7716
462.54477,7717
477.4998,7718
474.82788,7719
492.65057,7720
534.967,7721
492.9033,7722
454.9402,7723
494.86398,7724
664.73535,7725
692.15265,7726
680.9437,7727
658.907,7728
617.8704,7729
592.82477,7730
570.1313,7731
574.6724,7732
565.72015,7733
556.5517,7734
562.7762,7735
564.5329,7736
547.0721,7737
560.7612,7738
533.54425,7739
539.4563,7740
540.26587,7741
515.7977,7742
506.06473,7743
517.8492,7744
543.8706,7745
534.9458,7746
528.5416,7747
501.82373,7748
575.647,7749
582.1617,7750
579.83704,7751
538.1926,7752
520.0244,7753
512.635,7754
505.56226,7755
516.5624,7756
521.3993,7757
480.40857,7758
536.23,7759
545.10315,7760
507.0336,7761
513.55066,7762
558.3002,7763
474.87277,7764
490.4798,7765
544.7178,7766
522.1907,7767
539.08325,7768
475.8765,7769
469.2762,7770
427.98172,7771
453.60074,7772
502.74783,7773
499.43674,7774
518.17017,7775
443.45374,7776
435.62024,7777
424.71768,7778
454.05875,7779
436.32413,7780
452.12335,7781
451.04773,7782
457.7501,7783
464.75604,7784
489.39413,7785
493.60446,7786
463.8755,7787
450.39285,7788
458.66504,7789
476.62012,7790
489.8842,7791
452.55975,7792
451.9172,7793
451.98288,7794
455.93994,7795
457.70514,7796
475.9222,7797
443.1079,7798
428.73474,7799
440.38525,7800
455.98157,7801
467.11865,7802
500.31693,7803
483.33548,7804
445.28052,7805
461.1637,7806
458.09097,7807
426.46896,7808
425.19534,7809
440.94327,7810
434.64078,7811
465.42938,7812
469.47064,7813
496.3809,7814
480.51794,7815
442.05615,7816
452.7606,7817
470.4182,7818
462.44556,7819
456.3321,7820
436.68796,7821
538.32916,7822
484.58566,7823
481.62543,7824
510.28104,7825
525.4689,7826
554.9403,7827
510.49805,7828
501.46585,7829
592.2794,7830
495.7575,7831
508.16873,7832
543.6156,7833
544.4564,7834
515.1767,7835
480.70334,7836
481.66943,7837
486.26532,7838
451.52933,7839
457.35074,7840
478.3555,7841
463.14008,7842
461.2945,7843
479.36768,7844
450.70483,7845
576.2514,7846
583.77295,7847
557.30176,7848
505.85074,7849
525.6903,7850
524.2222,7851
484.13486,7852
524.1888,7853
568.1127,7854
527.58124,7855
594.3878,7856
568.14453,7857
597.7063,7858
517.563,7859
523.4985,7860
616.2215,7861
599.98706,7862
578.8679,7863
595.67883,7864
571.935,7865
509.34048,7866
527.6463,7867
541.47363,7868
543.70404,7869
552.27216,7870
532.12067,7871
526.1004,7872
508.2019,7873
533.5199,7874
571.8157,7875
552.0785,7876
557.82544,7877
532.24585,7878
546.19775,7879
538.544,7880
539.9934,7881
608.92834,7882
840.0344,7883
741.4187,7884
768.3567,7885
706.96936,7886
690.7567,7887
666.39856,7888
651.9409,7889
639.5676,7890
587.50397,7891
579.20184,7892
589.6341,7893
571.8038,7894
597.51117,7895
569.7467,7896
540.93115,7897
543.3986,7898
541.5883,7899
553.5162,7900
543.5022,7901
527.1469,7902
521.7974,7903
519.1849,7904
515.3162,7905
510.92853,7906
605.50543,7907
528.2087,7908
572.6135,7909
761.69183,7910
666.1503,7911
706.5011,7912
744.07153,7913
709.69165,7914
764.23706,7915
710.26294,7916
768.9774,7917
756.41235,7918
668.4644,7919
671.2386,7920
655.129,7921
654.8783,7922
687.04663,7923
661.1659,7924
692.8427,7925
646.5618,7926
653.888,7927
617.9345,7928
613.4174,7929
615.4036,7930
645.8045,7931
700.38385,7932
617.7787,7933
600.3167,7934
578.47797,7935
545.8237,7936
562.6149,7937
592.1918,7938
591.81104,7939
651.09406,7940
630.52966,7941
532.5504,7942
564.8753,7943
572.5832,7944
502.56247,7945
497.57104,7946
514.5182,7947
591.8229,7948
498.43655,7949
489.04077,7950
529.05597,7951
568.36945,7952
517.2496,7953
507.23694,7954
547.93634,7955
535.3577,7956
506.85983,7957
499.84186,7958
566.23755,7959
521.49115,7960
474.63922,7961
508.77734,7962
484.30237,7963
462.78918,7964
461.18695,7965
432.05905,7966
421.07095,7967
414.90384,7968
425.33948,7969
561.92377,7970
607.0781,7971
583.44324,7972
630.6521,7973
627.9069,7974
633.5129,7975
520.67804,7976
596.1665,7977
650.0438,7978
714.4479,7979
795.34644,7980
817.07434,7981
746.5631,7982
722.9174,7983
781.3568,7984
733.26324,7985
712.4092,7986
723.4547,7987
691.2641,7988
645.7181,7989
655.71075,7990
693.3836,7991
719.0355,7992
663.3234,7993
690.9054,7994
747.1481,7995
755.7013,7996
694.0053,7997
732.6983,7998
718.1345,7999
675.7983,8000
708.1257,8001
743.3337,8002
667.98785,8003
644.0187,8004
718.55237,8005
727.1739,8006
823.47614,8007
677.74774,8008
645.38513,8009
757.2516,8010
674.60657,8011
663.20465,8012
680.50494,8013
688.4762,8014
739.0781,8015
748.2342,8016
691.4002,8017
643.2159,8018
652.05286,8019
706.7861,8020
679.6535,8021
606.98645,8022
704.1043,8023
670.5424,8024
718.2784,8025
678.3833,8026
682.56934,8027
637.51764,8028
652.16864,8029
672.99414,8030
655.61597,8031
649.02966,8032
621.4568,8033
779.5371,8034
782.10016,8035
769.2899,8036
724.0512,8037
728.8532,8038
754.5346,8039
688.17413,8040
675.567,8041
684.7862,8042
683.31055,8043
722.5805,8044
645.7654,8045
663.9609,8046
697.8999,8047
679.93646,8048
970.86945,8049
942.77405,8050
833.6261,8051
792.58,8052
766.0066,8053
761.42993,8054
766.2738,8055
741.5996,8056
679.73444,8057
689.967,8058
723.49725,8059
680.2453,8060
719.1645,8061
642.4643,8062
680.06464,8063
750.23785,8064
775.58167,8065
802.6737,8066
707.6491,8067
722.4894,8068
754.60425,8069
779.91986,8070
751.51953,8071
678.69135,8072
717.5608,8073
741.35864,8074
696.2692,8075
705.7024,8076
686.20496,8077
774.9659,8078
767.94305,8079
804.63434,8080
778.062,8081
772.97473,8082
787.41986,8083
781.2494,8084
731.89716,8085
742.5366,8086
714.6406,8087
704.27,8088
722.3746,8089
706.62274,8090
676.1187,8091
738.1037,8092
710.6136,8093
670.9105,8094
706.8976,8095
673.57935,8096
701.98694,8097
766.3046,8098
740.4167,8099
775.67004,8100
767.03467,8101
775.1341,8102
669.02966,8103
710.00995,8104
674.57794,8105
806.3217,8106
744.92474,8107
693.15765,8108
712.6557,8109
703.7078,8110
679.4436,8111
672.79407,8112
645.77704,8113
696.601,8114
687.07874,8115
663.3066,8116
638.0843,8117
650.11206,8118
663.4137,8119
688.393,8120
758.03375,8121
666.9655,8122
688.49396,8123
745.3918,8124
645.9979,8125
651.4754,8126
1202.5457,8127
1097.8009,8128
1050.4784,8129
970.0014,8130
921.7965,8131
886.9366,8132
839.6287,8133
842.7317,8134
797.5909,8135
785.929,8136
758.1766,8137
797.42004,8138
853.58716,8139
827.4255,8140
817.49567,8141
878.4329,8142
865.01074,8143
845.75555,8144
851.5429,8145
823.9287,8146
782.2492,8147
751.56946,8148
860.97125,8149
807.5367,8150
753.0653,8151
707.7918,8152
761.81384,8153
826.9821,8154
897.9643,8155
808.8988,8156
811.9028,8157
745.81274,8158
772.6539,8159
681.41125,8160
730.86694,8161
801.9075,8162
730.5406,8163
731.20374,8164
775.79535,8165
708.12744,8166
767.89087,8167
747.0275,8168
745.6758,8169
707.62134,8170
692.47736,8171
686.0949,8172
719.75885,8173
1060.7272,8174
975.47626,8175
903.8837,8176
853.5133,8177
822.6161,8178
807.8288,8179
838.845,8180
822.10175,8181
871.25555,8182
850.42346,8183
1073.6661,8184
1024.8662,8185
919.4265,8186
910.3836,8187
872.15344,8188
807.45123,8189
874.1097,8190
787.80164,8191
814.8657,8192
813.3922,8193
757.3833,8194
835.831,8195
885.6802,8196
819.1773,8197
732.17896,8198
715.00507,8199
756.0356,8200
741.9242,8201
716.3905,8202
735.711,8203
687.28925,8204
755.4385,8205
738.35297,8206
743.41315,8207
748.0491,8208
687.9063,8209
824.64294,8210
713.08057,8211
711.6487,8212
832.00464,8213
815.8081,8214
837.55524,8215
750.40497,8216
842.1179,8217
879.3554,8218
776.95197,8219
808.5056,8220
796.49976,8221
849.8163,8222
802.3375,8223
789.2577,8224
778.4281,8225
748.53656,8226
827.39325,8227
776.3964,8228
783.8543,8229
741.62744,8230
793.0327,8231
755.34467,8232
1034.8743,8233
978.04956,8234
836.07745,8235
848.9027,8236
790.21313,8237
851.56726,8238
861.66705,8239
817.9203,8240
811.85986,8241
770.307,8242
900.5291,8243
780.1853,8244
703.3468,8245
740.63245,8246
697.4088,8247
818.9724,8248
793.1929,8249
766.8155,8250
768.8784,8251
708.5852,8252
724.2349,8253
716.4534,8254
1118.9979,8255
1111.9637,8256
1072.3717,8257
989.277,8258
939.3084,8259
841.9938,8260
822.1463,8261
826.1165,8262
821.5259,8263
769.1626,8264
787.39465,8265
803.4191,8266
821.50055,8267
791.70026,8268
795.4093,8269
723.00006,8270
742.0728,8271
743.2253,8272
734.83844,8273
711.5959,8274
688.8968,8275
726.06976,8276
783.94495,8277
732.41516,8278
724.4227,8279
753.98334,8280
750.304,8281
764.56586,8282
690.4577,8283
663.493,8284
654.593,8285
651.5041,8286
647.9854,8287
644.5656,8288
625.8133,8289
703.6677,8290
1072.4469,8291
925.8312,8292
899.475,8293
917.0044,8294
913.6841,8295
951.55115,8296
835.09814,8297
869.23975,8298
831.029,8299
839.00903,8300
820.9645,8301
838.979,8302
811.39386,8303
798.4824,8304
1009.3057,8305
870.09924,8306
861.18365,8307
813.1766,8308
806.5614,8309
815.47766,8310
802.18286,8311
754.5532,8312
751.9103,8313
921.9093,8314
983.0808,8315
960.1753,8316
958.38196,8317
937.9099,8318
891.18726,8319
821.4484,8320
874.81635,8321
802.6131,8322
846.6432,8323
962.7487,8324
987.8052,8325
932.5938,8326
916.2388,8327
847.23914,8328
791.31244,8329
799.39606,8330
795.083,8331
770.86237,8332
725.90656,8333
734.0844,8334
779.34,8335
794.32495,8336
886.93146,8337
820.797,8338
834.8588,8339
810.15234,8340
790.7589,8341
772.6246,8342
804.4993,8343
813.71277,8344
813.9283,8345
785.70233,8346
725.5402,8347
760.9287,8348
770.27783,8349
675.3984,8350
656.4103,8351
724.54456,8352
805.0005,8353
743.68445,8354
735.1218,8355
677.8769,8356
797.7361,8357
732.7318,8358
785.35034,8359
687.4275,8360
656.14746,8361
739.51825,8362
715.228,8363
740.7405,8364
793.7885,8365
715.6497,8366
702.62604,8367
783.8126,8368
669.1635,8369
735.79456,8370
770.2462,8371
877.70374,8372
837.6796,8373
768.3038,8374
779.38135,8375
713.5337,8376
736.33484,8377
772.25476,8378
739.01666,8379
673.1272,8380
712.97876,8381
1202.0419,8382
1173.6664,8383
993.8248,8384
900.2239,8385
883.12933,8386
826.49274,8387
826.0929,8388
767.8228,8389
749.3215,8390
793.7834,8391
834.97797,8392
849.1266,8393
819.1799,8394
797.7404,8395
840.41595,8396
860.3148,8397
765.0182,8398
734.52423,8399
725.96906,8400
865.2142,8401
778.1541,8402
829.0651,8403
789.8628,8404
786.66266,8405
827.7295,8406
828.94586,8407
735.52026,8408
653.0644,8409
670.90314,8410
673.142,8411
700.0639,8412
691.6023,8413
728.55695,8414
790.9994,8415
735.0043,8416
717.74054,8417
748.5193,8418
720.4585,8419
759.6659,8420
706.88495,8421
663.41864,8422
723.8461,8423
731.2152,8424
709.4139,8425
722.0027,8426
734.9086,8427
1045.6602,8428
966.6458,8429
919.5355,8430
901.0395,8431
852.3705,8432
897.1565,8433
866.7136,8434
890.4576,8435
934.3189,8436
887.58746,8437
1024.4728,8438
889.9594,8439
1133.4055,8440
1143.2004,8441
1033.139,8442
933.3767,8443
989.04803,8444
922.3679,8445
890.7172,8446
885.7612,8447
833.54443,8448
834.8055,8449
890.66345,8450
807.2995,8451
981.1465,8452
992.75775,8453
933.4536,8454
871.906,8455
811.6632,8456
810.36847,8457
846.0687,8458
871.15186,8459
821.643,8460
831.1046,8461
802.0479,8462
874.7918,8463
861.8533,8464
718.47986,8465
749.33,8466
799.93317,8467
742.50555,8468
843.99506,8469
759.1174,8470
858.75684,8471
881.82263,8472
786.0683,8473
776.11914,8474
729.36273,8475
707.909,8476
759.3984,8477
780.6181,8478
710.2339,8479
658.18066,8480
673.48206,8481
677.2803,8482
709.7473,8483
691.1895,8484
685.53546,8485
713.5847,8486
913.54517,8487
1023.1316,8488
888.91833,8489
888.3328,8490
826.0537,8491
865.2912,8492
891.3229,8493
866.8283,8494
810.65485,8495
860.30634,8496
853.49963,8497
898.5934,8498
838.9783,8499
784.712,8500
717.54156,8501
783.3548,8502
844.63464,8503
805.5368,8504
714.07367,8505
638.2881,8506
653.20966,8507
751.7935,8508
870.91016,8509
1061.7959,8510
896.0476,8511
893.9327,8512
930.549,8513
819.5337,8514
772.1303,8515
679.4464,8516
712.94476,8517
781.98755,8518
741.3395,8519
727.2797,8520
724.93036,8521
708.5354,8522
737.59955,8523
702.47894,8524
704.02704,8525
669.28955,8526
667.0229,8527
987.1374,8528
881.2712,8529
833.8256,8530
863.00146,8531
825.3168,8532
872.90234,8533
803.89685,8534
772.7252,8535
799.1038,8536
691.7692,8537
710.5973,8538
720.5981,8539
846.69086,8540
1061.3005,8541
897.8897,8542
822.51526,8543
840.2384,8544
770.84845,8545
752.247,8546
764.95636,8547
704.86975,8548
739.3757,8549
852.48334,8550
998.34393,8551
893.0183,8552
862.55206,8553
855.1328,8554
833.5112,8555
810.94135,8556
801.4553,8557
791.195,8558
760.486,8559
957.77014,8560
912.5542,8561
792.8486,8562
862.1137,8563
798.41895,8564
759.18933,8565
817.87396,8566
763.164,8567
782.23364,8568
1014.5609,8569
895.50214,8570
900.7849,8571
960.009,8572
892.62085,8573
836.2842,8574
816.9231,8575
882.8976,8576
881.33813,8577
818.0871,8578
870.44696,8579
880.20764,8580
872.2997,8581
812.7583,8582
808.43085,8583
755.1357,8584
786.0889,8585
770.4926,8586
786.59814,8587
758.0292,8588
749.6949,8589
816.90125,8590
732.4506,8591
748.7952,8592
771.50476,8593
740.16547,8594
730.9523,8595
756.50085,8596
749.90094,8597
750.588,8598
671.88525,8599
735.82367,8600
715.14935,8601
730.58856,8602
688.015,8603
634.08624,8604
605.71027,8605
687.3175,8606
681.4899,8607
684.0702,8608
759.6375,8609
730.0816,8610
705.6358,8611
657.6928,8612
643.95325,8613
725.6255,8614
700.7521,8615
649.04517,8616
629.2521,8617
597.7387,8618
595.0979,8619
667.636,8620
597.849,8621
600.52057,8622
678.12036,8623
622.42426,8624
615.0875,8625
761.87274,8626
797.39795,8627
777.81854,8628
717.4391,8629
707.32324,8630
713.7182,8631
731.2089,8632
722.14276,8633
688.4148,8634
616.6545,8635
710.26807,8636
724.751,8637
653.1756,8638
1186.2306,8639
1019.7843,8640
970.8875,8641
994.9645,8642
791.1174,8643
874.14795,8644
902.83575,8645
814.3442,8646
877.5034,8647
753.4588,8648
778.3501,8649
827.53033,8650
824.93646,8651
815.0397,8652
799.36993,8653
755.49115,8654
815.9985,8655
816.2863,8656
770.7414,8657
819.8964,8658
861.62805,8659
809.279,8660
752.7167,8661
769.896,8662
753.4903,8663
729.5373,8664
764.23676,8665
743.39557,8666
896.19293,8667
779.9689,8668
845.6038,8669
875.0199,8670
904.2895,8671
817.16785,8672
690.4385,8673
695.1498,8674
746.66516,8675
812.68024,8676
894.0865,8677
1052.8733,8678
1003.5389,8679
961.9431,8680
852.30383,8681
908.3166,8682
772.32764,8683
797.3468,8684
769.46857,8685
752.07385,8686
816.7133,8687
789.35736,8688
869.67206,8689
1056.8263,8690
1010.8695,8691
975.076,8692
1026.8813,8693
979.44135,8694
954.85834,8695
922.04877,8696
900.27155,8697
1105.0192,8698
999.17145,8699
939.0538,8700
931.72424,8701
907.01355,8702
886.8496,8703
848.64417,8704
823.0419,8705
851.0805,8706
994.3922,8707
1078.8673,8708
960.0027,8709
950.18713,8710
903.7531,8711
839.80426,8712
833.4287,8713
847.3285,8714
824.3791,8715
783.10913,8716
876.8021,8717
837.2857,8718
867.70337,8719
856.2151,8720
865.56976,8721
880.7144,8722
867.5074,8723
814.5569,8724
744.95276,8725
776.8841,8726
819.6792,8727
778.0732,8728
775.4779,8729
687.78796,8730
729.1531,8731
781.08405,8732
751.2063,8733
674.19446,8734
655.05505,8735
657.95197,8736
687.41187,8737
658.52527,8738
659.2266,8739
657.59375,8740
700.33203,8741
916.10236,8742
1006.6432,8743
869.38354,8744
850.11884,8745
845.671,8746
862.5998,8747
862.33984,8748
882.11523,8749
835.28217,8750
851.87427,8751
861.19116,8752
1045.2911,8753
924.67145,8754
829.9201,8755
849.0111,8756
816.92755,8757
843.2482,8758
813.3371,8759
749.7255,8760
925.0802,8761
973.2907,8762
861.90735,8763
872.30035,8764
839.5548,8765
799.4228,8766
876.8706,8767
835.9161,8768
820.8217,8769
748.24963,8770
753.81635,8771
839.3769,8772
745.104,8773
725.2569,8774
717.19727,8775
817.59436,8776
766.9677,8777
694.63153,8778
641.75,8779
669.0924,8780
777.35486,8781
711.8059,8782
674.3068,8783
695.8738,8784
609.72095,8785
697.5391,8786
662.6254,8787
701.41486,8788
681.87823,8789
672.73157,8790
652.9382,8791
619.4848,8792
618.18427,8793
687.76874,8794
639.86304,8795
610.2278,8796
590.2049,8797
591.14935,8798
636.6252,8799
600.664,8800
648.56274,8801
601.0756,8802
610.73956,8803
652.6208,8804
606.5511,8805
640.63916,8806
622.9797,8807
644.80304,8808
573.5014,8809
583.93335,8810
629.1559,8811
715.07587,8812
640.0907,8813
568.511,8814
553.9763,8815
576.70496,8816
580.46704,8817
538.72186,8818
530.56836,8819
550.34436,8820
547.85284,8821
535.812,8822
506.8604,8823
681.51074,8824
656.1199,8825
718.77563,8826
748.27454,8827
681.2509,8828
632.6516,8829
648.8957,8830
615.3472,8831
658.0813,8832
597.7599,8833
632.9932,8834
713.3419,8835
640.8199,8836
640.0833,8837
618.38776,8838
617.3071,8839
604.5081,8840
562.509,8841
555.7126,8842
599.0881,8843
566.14813,8844
546.6951,8845
519.8448,8846
626.7669,8847
572.49255,8848
514.71893,8849
535.7411,8850
546.7728,8851
477.87137,8852
554.47687,8853
495.37308,8854
477.215,8855
485.51364,8856
473.70682,8857
458.3442,8858
489.22546,8859
499.21506,8860
492.0057,8861
486.58984,8862
483.40833,8863
524.188,8864
529.2649,8865
527.5495,8866
588.7223,8867
558.3006,8868
550.4001,8869
548.43475,8870
539.1684,8871
533.4587,8872
531.42944,8873
570.3219,8874
569.30286,8875
605.646,8876
527.06226,8877
449.0382,8878
524.5971,8879
476.97415,8880
526.7996,8881
518.2858,8882
457.41403,8883
491.49918,8884
458.16864,8885
491.49704,8886
493.66025,8887
472.70245,8888
539.64856,8889
490.30118,8890
497.11032,8891
511.73724,8892
443.44302,8893
513.03876,8894
455.6139,8895
595.4661,8896
698.40643,8897
619.41724,8898
654.75214,8899
623.137,8900
622.8963,8901
666.9275,8902
668.6266,8903
605.9783,8904
633.18304,8905
657.49115,8906
678.8456,8907
660.5819,8908
606.4677,8909
666.5725,8910
638.11176,8911
626.20215,8912
651.7257,8913
597.26843,8914
571.53424,8915
565.80347,8916
516.3745,8917
500.69684,8918
499.2971,8919
505.33398,8920
531.4999,8921
502.55075,8922
494.00494,8923
507.10834,8924
507.5751,8925
547.11066,8926
501.1369,8927
480.6506,8928
496.85468,8929
538.0565,8930
499.27664,8931
486.48767,8932
485.85965,8933
460.5992,8934
501.381,8935
636.9009,8936
658.6348,8937
607.0087,8938
579.3583,8939
579.0827,8940
578.7548,8941
576.02234,8942
574.53424,8943
550.6818,8944
585.6743,8945
565.01587,8946
551.81757,8947
664.48755,8948
629.63513,8949
621.5517,8950
629.7062,8951
591.77246,8952
631.9127,8953
609.64105,8954
614.8933,8955
724.12463,8956
691.7664,8957
696.69885,8958
637.8306,8959
604.7409,8960
624.56726,8961
608.1713,8962
606.2334,8963
564.69916,8964
577.63983,8965
570.0524,8966
619.89,8967
699.547,8968
629.29816,8969
622.1585,8970
586.7785,8971
564.09393,8972
604.1413,8973
559.67816,8974
557.6401,8975
575.0166,8976
597.07056,8977
574.65674,8978
595.077,8979
585.15356,8980
552.75726,8981
540.84,8982
578.09924,8983
570.76685,8984
595.54395,8985
591.01953,8986
645.31836,8987
585.5706,8988
542.87866,8989
572.13824,8990
564.4149,8991
519.2816,8992
505.0286,8993
522.7915,8994
480.87976,8995
434.86444,8996
474.544,8997
555.04706,8998
485.3755,8999
501.29385,9000
494.7763,9001
483.68527,9002
520.6999,9003
474.73135,9004
507.52682,9005
504.48746,9006
524.5136,9007
625.91754,9008
634.89215,9009
612.24164,9010
573.26434,9011
598.4763,9012
594.9714,9013
596.7452,9014
598.05725,9015
552.2498,9016
570.46533,9017
577.8371,9018
540.72003,9019
553.82336,9020
569.9787,9021
503.8548,9022
557.30096,9023
494.7553,9024
498.67377,9025
513.2705,9026
517.509,9027
490.54352,9028
598.8173,9029
538.5453,9030
597.8472,9031
589.57526,9032
699.3709,9033
602.86597,9034
600.7161,9035
623.2837,9036
623.26624,9037
595.9841,9038
567.5437,9039
576.25635,9040
658.90704,9041
601.4535,9042
532.1939,9043
517.66095,9044
439.75558,9045
521.24164,9046
539.9681,9047
523.4096,9048
499.23413,9049
486.64136,9050
523.87195,9051
540.58374,9052
547.85114,9053
522.8976,9054
529.3993,9055
563.68256,9056
595.4848,9057
527.8451,9058
487.67725,9059
471.12238,9060
461.69254,9061
539.4224,9062
464.36673,9063
492.73865,9064
505.85828,9065
454.0476,9066
482.11655,9067
469.73804,9068
479.77457,9069
512.1876,9070
495.14395,9071
485.43582,9072
494.56396,9073
462.4451,9074
506.61563,9075
510.8293,9076
487.38412,9077
505.1281,9078
516.9378,9079
466.13498,9080
479.08252,9081
505.809,9082
502.3939,9083
729.0963,9084
623.2688,9085
467.75665,9086
477.08032,9087
535.113,9088
484.8768,9089
453.68777,9090
464.19083,9091
428.00513,9092
481.84766,9093
449.1404,9094
466.9523,9095
491.80978,9096
590.6617,9097
502.37134,9098
557.7803,9099
520.68353,9100
542.8876,9101
480.65552,9102
494.0653,9103
427.0771,9104
456.7372,9105
451.6931,9106
424.1304,9107
425.8179,9108
455.7382,9109
463.21558,9110
450.1103,9111
460.74527,9112
464.0714,9113
445.1868,9114
472.24222,9115
520.96875,9116
481.14236,9117
447.27344,9118
453.76175,9119
470.54858,9120
458.99615,9121
506.42896,9122
494.3687,9123
483.58517,9124
503.33118,9125
471.94485,9126
496.4804,9127
427.31354,9128
443.06558,9129
432.19278,9130
416.95584,9131
406.00317,9132
427.84668,9133
404.98474,9134
434.52722,9135
437.21558,9136
460.55566,9137
480.107,9138
451.72006,9139
478.63364,9140
455.82144,9141
460.191,9142
494.51895,9143
458.12103,9144
437.418,9145
466.03934,9146
434.80304,9147
502.26144,9148
569.76495,9149
510.7553,9150
525.2565,9151
469.0336,9152
472.47232,9153
489.99283,9154
486.40976,9155
552.9951,9156
499.1382,9157
485.83487,9158
472.4377,9159
416.63123,9160
476.76175,9161
426.52847,9162
425.8392,9163
407.48245,9164
380.0814,9165
419.90576,9166
414.39175,9167
459.25305,9168
454.4313,9169
456.43314,9170
494.72183,9171
449.5777,9172
401.67184,9173
445.53656,9174
405.46774,9175
462.58054,9176
459.56876,9177
455.12872,9178
421.4951,9179
433.0455,9180
428.5595,9181
428.54166,9182
418.84363,9183
396.34122,9184
383.30746,9185
414.00296,9186
415.85175,9187
444.95114,9188
408.20612,9189
379.24167,9190
388.4997,9191
361.414,9192
399.08374,9193
404.94577,9194
381.4401,9195
409.87222,9196
410.0071,9197
434.9028,9198
450.7261,9199
403.67957,9200
405.11533,9201
421.79077,9202
436.30615,9203
441.95184,9204
457.02255,9205
423.421,9206
469.9798,9207
452.93332,9208
417.5875,9209
438.13,9210
412.7992,9211
413.5438,9212
395.80472,9213
372.73666,9214
393.9898,9215
393.57083,9216
411.9487,9217
457.1637,9218
398.16,9219
384.2431,9220
392.05466,9221
385.90073,9222
407.92734,9223
402.3685,9224
385.86337,9225
399.45554,9226
463.03726,9227
407.06332,9228
390.28513,9229
433.74796,9230
418.59766,9231
390.4765,9232
402.71017,9233
375.21982,9234
424.44244,9235
418.53006,9236
390.40082,9237
414.4805,9238
401.95734,9239
474.4542,9240
493.51755,9241
453.8319,9242
446.49396,9243
439.15488,9244
455.76508,9245
447.0806,9246
460.55542,9247
427.62537,9248
421.08694,9249
400.99548,9250
395.36343,9251
417.9009,9252
389.057,9253
390.2132,9254
408.4173,9255
407.31592,9256
431.3827,9257
426.96515,9258
412.1034,9259
434.6468,9260
440.35944,9261
435.97897,9262
475.7084,9263
461.1241,9264
433.60754,9265
461.7376,9266
449.57495,9267
457.70395,9268
462.21826,9269
421.0944,9270
437.92184,9271
446.87534,9272
440.9377,9273
446.2205,9274
449.74033,9275
423.43747,9276
489.3989,9277
511.8293,9278
485.97565,9279
478.20822,9280
466.96707,9281
522.95917,9282
501.6431,9283
464.67657,9284
457.04556,9285
446.9058,9286
451.44342,9287
464.7817,9288
464.4493,9289
501.35477,9290
499.21472,9291
488.12878,9292
518.46326,9293
459.7968,9294
487.926,9295
462.74115,9296
452.04373,9297
435.83713,9298
442.0526,9299
449.10028,9300
431.47452,9301
457.29352,9302
426.38385,9303
424.92847,9304
441.62476,9305
445.36237,9306
467.9768,9307
455.7199,9308
430.08002,9309
404.79712,9310
442.60632,9311
432.18793,9312
420.51807,9313
434.53134,9314
411.6756,9315
437.0602,9316
475.22366,9317
442.553,9318
437.4968,9319
473.7606,9320
488.08942,9321
507.31372,9322
491.32755,9323
481.75394,9324
497.1921,9325
505.9664,9326
446.89056,9327
457.53607,9328
458.4326,9329
471.7862,9330
453.70157,9331
406.78757,9332
426.83762,9333
440.13382,9334
498.42917,9335
537.7526,9336
448.06848,9337
434.69186,9338
374.21506,9339
385.6882,9340
382.48856,9341
381.16672,9342
397.669,9343
415.61194,9344
379.10254,9345
408.25568,9346
399.30814,9347
429.51547,9348
473.8019,9349
482.14844,9350
483.59415,9351
474.12708,9352
463.00275,9353
428.76376,9354
397.8869,9355
425.02945,9356
421.58508,9357
418.3342,9358
445.55768,9359
420.43616,9360
438.51044,9361
416.68994,9362
424.85684,9363
434.74698,9364
394.4782,9365
430.7605,9366
414.53674,9367
418.9197,9368
432.94,9369
404.38232,9370
387.52966,9371
411.6474,9372
381.4572,9373
379.87003,9374
384.39944,9375
372.58112,9376
383.11447,9377
415.55548,9378
403.3452,9379
417.71512,9380
411.9607,9381
445.76465,9382
471.83517,9383
475.63364,9384
474.81534,9385
471.4429,9386
461.55496,9387
432.96417,9388
524.73315,9389
486.13995,9390
439.75992,9391
451.8163,9392
455.0745,9393
483.37793,9394
435.64108,9395
447.70013,9396
493.0762,9397
466.22717,9398
456.60422,9399
486.92233,9400
502.73087,9401
483.16977,9402
477.34332,9403
471.60788,9404
473.37015,9405
407.35138,9406
429.41592,9407
490.29468,9408
465.39267,9409
471.1443,9410
444.39368,9411
465.4401,9412
451.12314,9413
463.2668,9414
423.27216,9415
423.78653,9416
470.46176,9417
428.4505,9418
655.5804,9419
635.61597,9420
606.2075,9421
638.89764,9422
593.662,9423
567.72504,9424
606.3789,9425
574.46436,9426
590.6166,9427
621.92053,9428
580.734,9429
618.61127,9430
573.64557,9431
556.1302,9432
546.4678,9433
518.9818,9434
565.6312,9435
564.7594,9436
577.2385,9437
498.07785,9438
476.69516,9439
504.74512,9440
475.99805,9441
520.2554,9442
481.6509,9443
459.5981,9444
485.8302,9445
497.23026,9446
480.2523,9447
449.40106,9448
422.39316,9449
461.75497,9450
465.62854,9451
378.92975,9452
389.9075,9453
385.6781,9454
385.77982,9455
407.8804,9456
407.52386,9457
413.07697,9458
401.24963,9459
408.6582,9460
397.2106,9461
452.53125,9462
432.38113,9463
456.6304,9464
464.8435,9465
496.87982,9466
493.88687,9467
480.57193,9468
488.43494,9469
450.90714,9470
417.02008,9471
470.22122,9472
471.41974,9473
506.35773,9474
596.9612,9475
619.30853,9476
587.9915,9477
569.3878,9478
609.19775,9479
588.1913,9480
557.2937,9481
521.18097,9482
532.64056,9483
553.6149,9484
569.7449,9485
521.6193,9486
613.1885,9487
713.60205,9488
651.6658,9489
598.9686,9490
563.19025,9491
561.86914,9492
546.5385,9493
567.7736,9494
599.313,9495
554.6828,9496
573.3594,9497
557.81726,9498
579.84937,9499
621.38513,9500
596.3081,9501
639.86414,9502
611.72955,9503
675.7474,9504
650.41016,9505
568.5404,9506
556.3611,9507
510.63803,9508
550.2889,9509
596.8983,9510
531.27374,9511
544.2745,9512
560.1843,9513
552.58276,9514
597.71985,9515
614.37305,9516
583.15796,9517
538.8888,9518
594.2007,9519
602.9753,9520
550.6527,9521
530.9088,9522
514.91345,9523
549.64636,9524
503.9505,9525
433.92853,9526
442.01523,9527
413.46893,9528
401.28168,9529
406.2138,9530
401.08316,9531
420.9429,9532
428.76495,9533
423.3831,9534
411.49817,9535
442.99872,9536
473.73407,9537
479.55792,9538
436.34354,9539
485.4202,9540
490.5808,9541
507.28882,9542
508.5526,9543
462.3967,9544
499.5991,9545
525.7916,9546
509.95047,9547
549.344,9548
500.7814,9549
499.26788,9550
509.1054,9551
499.80948,9552
484.9902,9553
507.49966,9554
535.40906,9555
484.92545,9556
503.814,9557
521.5853,9558
494.33157,9559
507.7518,9560
483.0883,9561
484.42438,9562
505.92062,9563
523.0682,9564
491.61575,9565
467.6015,9566
493.8932,9567
483.84296,9568
498.0042,9569
473.977,9570
505.14847,9571
530.37524,9572
532.1888,9573
632.336,9574
679.0637,9575
627.7828,9576
643.01337,9577
619.4179,9578
569.85913,9579
586.7084,9580
555.78204,9581
582.0301,9582
615.11993,9583
642.2043,9584
640.96967,9585
611.6582,9586
611.9112,9587
606.7453,9588
547.9472,9589
576.49023,9590
550.63947,9591
549.1024,9592
473.30527,9593
502.47964,9594
448.97177,9595
481.3036,9596
461.99475,9597
470.81503,9598
468.43015,9599
423.42075,9600
453.19473,9601
464.5699,9602
438.88617,9603
420.275,9604
431.2963,9605
417.50684,9606
405.17203,9607
446.79224,9608
439.711,9609
428.23593,9610
438.7341,9611
439.7511,9612
470.4094,9613
497.92438,9614
459.64575,9615
480.9412,9616
513.64484,9617
487.51492,9618
440.39893,9619
653.1498,9620
629.37006,9621
645.2665,9622
660.2756,9623
561.2003,9624
588.2788,9625
565.2501,9626
526.7965,9627
578.8768,9628
522.5573,9629
513.08435,9630
528.84485,9631
539.5857,9632
619.62024,9633
642.46155,9634
679.28143,9635
686.1918,9636
600.3236,9637
612.69836,9638
589.09344,9639
614.6917,9640
614.2923,9641
620.6333,9642
650.83997,9643
650.90466,9644
680.0449,9645
648.5862,9646
634.9172,9647
663.52264,9648
585.3727,9649
583.2713,9650
562.9532,9651
606.6301,9652
615.97437,9653
564.50836,9654
566.8288,9655
611.5901,9656
711.9523,9657
649.85046,9658
594.8197,9659
593.56976,9660
624.54974,9661
552.1989,9662
538.7505,9663
555.6518,9664
578.97046,9665
623.7444,9666
606.1736,9667
597.55096,9668
604.4422,9669
604.7116,9670
682.06964,9671
603.5317,9672
554.8522,9673
538.6641,9674
527.39655,9675
557.1672,9676
563.63214,9677
628.89557,9678
584.1396,9679
582.5313,9680
565.39465,9681
584.0476,9682
491.53455,9683
484.6936,9684
518.7269,9685
492.77884,9686
495.19266,9687
508.8037,9688
480.73215,9689
499.32693,9690
492.31406,9691
534.12756,9692
498.12613,9693
525.4875,9694
484.11667,9695
497.67465,9696
540.1942,9697
493.6193,9698
489.36932,9699
480.73862,9700
443.282,9701
491.03796,9702
451.67395,9703
447.9864,9704
457.30115,9705
468.97684,9706
502.18976,9707
532.10376,9708
535.3571,9709
543.5515,9710
575.5954,9711
568.2816,9712
548.97034,9713
553.53424,9714
564.49255,9715
520.563,9716
457.525,9717
456.7985,9718
449.57535,9719
450.85364,9720
456.0277,9721
464.70413,9722
445.43436,9723
407.2006,9724
438.34888,9725
460.48138,9726
467.35602,9727
529.5239,9728
519.81226,9729
532.3473,9730
525.02295,9731
466.02274,9732
431.6894,9733
481.59064,9734
620.862,9735
594.2991,9736
570.679,9737
557.62134,9738
605.89233,9739
592.74744,9740
541.24316,9741
598.4301,9742
625.3626,9743
618.11835,9744
630.67267,9745
541.14197,9746
577.8889,9747
570.41907,9748
610.24713,9749
645.33685,9750
495.73718,9751
483.2133,9752
477.28946,9753
488.97028,9754
477.25266,9755
479.20706,9756
483.8188,9757
481.91138,9758
482.41077,9759
474.7848,9760
489.7054,9761
514.66846,9762
501.27927,9763
482.0632,9764
431.51276,9765
423.4169,9766
446.59897,9767
410.03113,9768
402.58038,9769
411.0931,9770
405.82236,9771
431.9611,9772
429.25262,9773
406.54977,9774
428.55026,9775
461.8208,9776
496.02475,9777
487.2501,9778
457.90106,9779
476.33636,9780
484.39185,9781
466.75082,9782
468.48746,9783
454.05426,9784
467.49603,9785
462.59995,9786
465.79932,9787
460.20056,9788
433.07513,9789
464.3094,9790
537.14026,9791
590.64545,9792
637.1505,9793
630.4858,9794
629.59515,9795
602.098,9796
612.92523,9797
599.2979,9798
575.7579,9799
611.2502,9800
640.8015,9801
619.11145,9802
605.28754,9803
580.71606,9804
557.606,9805
556.37085,9806
580.46234,9807
525.64185,9808
590.29767,9809
594.5898,9810
548.5018,9811
541.5328,9812
558.6704,9813
559.81,9814
561.4839,9815
530.98773,9816
537.5992,9817
538.3588,9818
566.8875,9819
585.47815,9820
561.22375,9821
573.56757,9822
599.91943,9823
671.16174,9824
628.96356,9825
593.88055,9826
575.92145,9827
538.05,9828
586.6156,9829
561.6105,9830
599.7667,9831
538.54193,9832
474.8836,9833
521.09357,9834
543.3266,9835
528.73236,9836
524.86945,9837
464.92923,9838
479.61563,9839
466.65543,9840
497.19577,9841
525.7745,9842
436.4359,9843
484.72495,9844
541.904,9845
498.51535,9846
445.4801,9847
416.73306,9848
403.4934,9849
438.15326,9850
436.8162,9851
426.85623,9852
445.3993,9853
441.99957,9854
461.13898,9855
491.19598,9856
476.9556,9857
507.0054,9858
509.1576,9859
578.7379,9860
530.233,9861
492.29724,9862
528.4091,9863
523.88257,9864
524.1722,9865
548.9574,9866
530.56146,9867
536.44257,9868
561.51935,9869
516.76056,9870
535.677,9871
522.66644,9872
579.5939,9873
537.09314,9874
540.396,9875
562.9994,9876
537.8383,9877
533.525,9878
551.0503,9879
533.70654,9880
490.74332,9881
532.9837,9882
465.55362,9883
495.67282,9884
509.3069,9885
491.63983,9886
457.73874,9887
431.79422,9888
449.69794,9889
463.4827,9890
484.86972,9891
485.2271,9892
493.04248,9893
601.9217,9894
673.65643,9895
658.473,9896
567.6487,9897
578.76886,9898
569.8046,9899
542.6838,9900
569.33594,9901
542.58527,9902
594.5893,9903
638.21924,9904
612.0171,9905
586.46027,9906
543.25183,9907
541.78143,9908
535.7714,9909
565.70966,9910
512.39795,9911
698.59515,9912
769.31104,9913
713.46454,9914
721.85944,9915
671.75226,9916
643.3401,9917
652.71796,9918
610.47125,9919
611.51917,9920
595.916,9921
551.44855,9922
599.15515,9923
698.22327,9924
776.901,9925
660.2031,9926
654.47156,9927
664.6386,9928
639.2283,9929
614.19495,9930
621.5598,9931
613.938,9932
643.6522,9933
654.9656,9934
757.91486,9935
750.5386,9936
761.1583,9937
721.3242,9938
713.5732,9939
680.3334,9940
680.7338,9941
699.0678,9942
657.2252,9943
634.34296,9944
805.5757,9945
761.89496,9946
752.25714,9947
745.22974,9948
749.9086,9949
694.70667,9950
695.9052,9951
660.9823,9952
685.077,9953
814.1003,9954
774.98267,9955
768.9599,9956
764.67444,9957
676.93616,9958
711.58295,9959
655.039,9960
647.4855,9961
641.30804,9962
576.1228,9963
589.3271,9964
607.641,9965
727.0646,9966
806.8793,9967
771.131,9968
712.10815,9969
726.7995,9970
697.8149,9971
670.2808,9972
610.14374,9973
639.0537,9974
661.55615,9975
683.70184,9976
720.9797,9977
721.96,9978
713.6301,9979
726.8348,9980
706.7371,9981
696.1796,9982
679.5577,9983
618.8395,9984
616.79944,9985
614.57007,9986
604.02625,9987
668.5063,9988
633.2798,9989
606.1148,9990
659.2036,9991
605.862,9992
698.33307,9993
554.8007,9994
505.2548,9995
483.51297,9996
523.65594,9997
511.05066,9998
504.6391,9999
531.0563,10000
520.31274,10001
537.8678,10002
555.87726,10003
569.3405,10004
617.3856,10005
594.55524,10006
601.2969,10007
655.6607,10008
597.4442,10009
620.28687,10010
643.67065,10011
595.4531,10012
609.5038,10013
632.695,10014
602.15405,10015
610.49225,10016
594.9517,10017
618.96326,10018
647.5206,10019
641.4943,10020
668.0596,10021
654.6501,10022
651.2267,10023
650.4302,10024
648.00183,10025
633.8219,10026
578.34564,10027
512.3271,10028
537.9809,10029
530.6195,10030
515.0015,10031
491.85773,10032
468.24762,10033
472.153,10034
461.4622,10035
462.89688,10036
476.64407,10037
495.10648,10038
522.2968,10039
528.00757,10040
465.0804,10041
501.00687,10042
500.26767,10043
491.95734,10044
466.10706,10045
454.4153,10046
440.19516,10047
824.65405,10048
986.11005,10049
849.0325,10050
907.2204,10051
890.7502,10052
723.7112,10053
774.804,10054
708.7926,10055
817.1669,10056
834.1454,10057
737.2253,10058
686.4415,10059
730.0428,10060
747.92694,10061
802.11804,10062
635.4953,10063
625.1606,10064
640.40173,10065
722.2293,10066
766.16974,10067
713.557,10068
650.8453,10069
699.0868,10070
791.6938,10071
757.1658,10072
742.1282,10073
709.5629,10074
699.2175,10075
727.21405,10076
646.2522,10077
644.2443,10078
741.9532,10079
741.24884,10080
705.68896,10081
696.70795,10082
618.23987,10083
680.59924,10084
709.2573,10085
602.63007,10086
552.1532,10087
471.9133,10088
470.21616,10089
497.74646,10090
442.0493,10091
421.51877,10092
449.435,10093
464.5302,10094
488.98843,10095
470.92566,10096
469.24704,10097
466.30374,10098
688.2473,10099
668.81476,10100
662.4044,10101
686.3587,10102
595.9288,10103
581.455,10104
564.51074,10105
533.79736,10106
541.5007,10107
549.5926,10108
525.4404,10109
560.934,10110
572.86926,10111
790.9103,10112
815.26654,10113
833.521,10114
880.1078,10115
876.05676,10116
818.51434,10117
807.7346,10118
793.2203,10119
768.94855,10120
894.8786,10121
906.2821,10122
823.6593,10123
814.3649,10124
833.5679,10125
744.81915,10126
696.48364,10127
703.1393,10128
707.4186,10129
754.169,10130
700.54895,10131
672.79083,10132
702.2736,10133
847.68054,10134
828.64215,10135
761.8596,10136
755.3612,10137
769.4181,10138
712.07263,10139
699.9354,10140
703.37396,10141
702.9029,10142
712.8168,10143
728.3864,10144
734.74817,10145
734.1929,10146
769.5669,10147
776.1965,10148
735.9977,10149
724.1574,10150
656.72363,10151
694.083,10152
716.08954,10153
685.3984,10154
720.77264,10155
648.8741,10156
658.6238,10157
663.29645,10158
485.84857,10159
510.4742,10160
483.8962,10161
464.97775,10162
481.19138,10163
451.50992,10164
483.36377,10165
490.68762,10166
519.6754,10167
511.53336,10168
485.49194,10169
531.9329,10170
537.7955,10171
533.3319,10172
565.53503,10173
563.2566,10174
534.9173,10175
549.71155,10176
712.6106,10177
763.32697,10178
718.4214,10179
679.9989,10180
664.2476,10181
655.0797,10182
611.2798,10183
632.97034,10184
606.32465,10185
608.918,10186
654.38715,10187
607.9218,10188
633.02875,10189
615.0829,10190
556.2814,10191
597.3383,10192
571.7738,10193
508.18155,10194
491.2851,10195
516.39746,10196
504.27344,10197
705.228,10198
798.3022,10199
736.34576,10200
793.3918,10201
778.7276,10202
686.73724,10203
641.9331,10204
665.4242,10205
664.44055,10206
619.8167,10207
589.3423,10208
639.45667,10209
651.85657,10210
671.4778,10211
706.2002,10212
626.3233,10213
640.7032,10214
646.1643,10215
590.0187,10216
593.245,10217
517.9727,10218
545.9605,10219
599.65027,10220
599.4614,10221
626.17255,10222
654.1848,10223
652.6847,10224
559.88135,10225
498.122,10226
471.99908,10227
473.83154,10228
479.416,10229
473.54245,10230
485.7303,10231
493.93042,10232
498.70227,10233
504.3917,10234
501.798,10235
478.38797,10236
526.2687,10237
514.687,10238
516.92017,10239
554.35187,10240
521.63776,10241
516.5049,10242
525.04724,10243
474.5848,10244
487.8095,10245
469.2422,10246
446.0592,10247
461.43094,10248
516.82135,10249
467.02316,10250
491.97858,10251
492.09305,10252
472.60593,10253
515.793,10254
517.6916,10255
498.52917,10256
497.75446,10257
485.19257,10258
464.7228,10259
435.78226,10260
465.8477,10261
454.88965,10262
448.12433,10263
436.04916,10264
410.62936,10265
426.5943,10266
484.5709,10267
513.7639,10268
614.15625,10269
652.469,10270
717.04785,10271
701.77826,10272
672.05133,10273
619.193,10274
593.1335,10275
608.75134,10276
624.9141,10277
600.1609,10278
598.7838,10279
646.1122,10280
631.4842,10281
641.01447,10282
663.6205,10283
650.52155,10284
671.1918,10285
591.03613,10286
583.1863,10287
532.4587,10288
564.81396,10289
522.29724,10290
538.6738,10291
518.358,10292
486.712,10293
523.4182,10294
484.04587,10295
487.15842,10296
504.5297,10297
464.38522,10298
421.12775,10299
400.61667,10300
390.72443,10301
428.72696,10302
434.57703,10303
436.3449,10304
463.5639,10305
459.25314,10306
469.61246,10307
506.061,10308
459.1961,10309
448.63403,10310
460.0892,10311
423.5319,10312
462.48218,10313
437.6341,10314
404.86465,10315
422.7766,10316
429.03415,10317
413.5115,10318
466.6698,10319
426.79016,10320
418.29614,10321
427.422,10322
441.47073,10323
459.52023,10324
494.8596,10325
462.9346,10326
474.63507,10327
462.97604,10328
439.82755,10329
471.8209,10330
470.769,10331
458.85684,10332
526.90607,10333
479.183,10334
473.9988,10335
470.624,10336
424.26117,10337
440.96027,10338
413.7231,10339
473.53384,10340
488.3065,10341
415.79288,10342
411.70773,10343
408.7232,10344
425.2332,10345
489.62723,10346
447.25854,10347
440.43124,10348
484.19983,10349
498.6724,10350
471.60333,10351
481.461,10352
453.6107,10353
452.77045,10354
466.3792,10355
454.0676,10356
448.46106,10357
445.27438,10358
444.4622,10359
468.5504,10360
475.31015,10361
489.78018,10362
496.57016,10363
471.78485,10364
441.10358,10365
1055.2354,10366
928.50275,10367
851.1081,10368
790.4141,10369
804.30164,10370
803.1725,10371
796.2178,10372
760.0383,10373
753.1871,10374
794.48883,10375
830.28796,10376
807.0746,10377
797.3618,10378
795.07996,10379
813.6894,10380
831.04614,10381
799.91235,10382
765.07513,10383
724.1566,10384
700.4521,10385
734.52094,10386
741.93646,10387
692.39996,10388
712.3131,10389
721.5114,10390
707.16907,10391
643.8233,10392
610.8526,10393
670.21844,10394
706.7825,10395
743.68866,10396
679.83484,10397
636.9118,10398
642.60065,10399
669.062,10400
684.5488,10401
658.06506,10402
570.0449,10403
561.9323,10404
564.317,10405
549.8143,10406
532.3196,10407
536.023,10408
487.63968,10409
489.6394,10410
526.3047,10411
519.2224,10412
527.3916,10413
552.75195,10414
543.45544,10415
556.83185,10416
546.2375,10417
561.8628,10418
528.65765,10419
528.47473,10420
532.092,10421
533.267,10422
543.1102,10423
517.1828,10424
492.00708,10425
535.4157,10426
467.1624,10427
537.23,10428
520.9575,10429
488.85648,10430
476.1571,10431
488.2334,10432
513.3303,10433
519.24524,10434
568.06995,10435
627.9553,10436
549.6112,10437
501.34195,10438
551.957,10439
558.887,10440
578.849,10441
610.1634,10442
613.80396,10443
578.4135,10444
563.37585,10445
552.898,10446
634.54596,10447
567.85144,10448
587.311,10449
587.60394,10450
480.461,10451
546.97076,10452
546.13367,10453
515.57056,10454
524.0356,10455
586.262,10456
533.10187,10457
573.9028,10458
516.50665,10459
492.296,10460
540.9783,10461
529.5618,10462
492.3098,10463
499.63016,10464
493.55487,10465
521.9053,10466
558.3384,10467
490.987,10468
444.09143,10469
456.29422,10470
453.99506,10471
428.62775,10472
441.25388,10473
439.75244,10474
449.3358,10475
510.33383,10476
481.40967,10477
476.99542,10478
517.1386,10479
481.48273,10480
523.7467,10481
552.7445,10482
518.65076,10483
527.89325,10484
539.4347,10485
477.45486,10486
532.5033,10487
491.08945,10488
479.58838,10489
535.6214,10490
502.03854,10491
497.54703,10492
505.72385,10493
496.23767,10494
509.94308,10495
476.10437,10496
540.237,10497
502.60196,10498
539.1234,10499
521.8431,10500
514.7058,10501
486.0712,10502
515.6064,10503
508.70465,10504
429.9954,10505
465.35913,10506
477.33066,10507
450.33002,10508
465.8881,10509
488.2218,10510
456.62958,10511
450.76193,10512
489.34656,10513
510.258,10514
465.40585,10515
500.7045,10516
478.49725,10517
443.21973,10518
451.61783,10519
426.9498,10520
400.9295,10521
462.60236,10522
429.8301,10523
455.43503,10524
457.62222,10525
438.21182,10526
426.63187,10527
466.1959,10528
422.0186,10529
392.87564,10530
419.52475,10531
413.18774,10532
430.3707,10533
425.38058,10534
391.80826,10535
375.6131,10536
395.01987,10537
380.31,10538
406.59293,10539
437.7093,10540
393.06363,10541
442.01498,10542
444.52902,10543
523.1579,10544
515.8291,10545
508.5295,10546
545.16534,10547
519.1457,10548
512.177,10549
555.96265,10550
516.91254,10551
522.22424,10552
533.38586,10553
531.8786,10554
570.1266,10555
564.41565,10556
503.21146,10557
473.35556,10558
466.1989,10559
499.55972,10560
481.62375,10561
494.54187,10562
479.18097,10563
558.9297,10564
471.18256,10565
537.04535,10566
498.53976,10567
552.37494,10568
553.5449,10569
472.7394,10570
513.43365,10571
625.72784,10572
559.42865,10573
565.95233,10574
539.0628,10575
478.9085,10576
438.2646,10577
473.21988,10578
451.62808,10579
474.07513,10580
483.4018,10581
435.79697,10582
440.6713,10583
427.66214,10584
431.00494,10585
456.35938,10586
484.91083,10587
497.35092,10588
462.50812,10589
452.72058,10590
449.97495,10591
471.08026,10592
455.86987,10593
479.33273,10594
490.2303,10595
512.4234,10596
516.5339,10597
487.5007,10598
445.21158,10599
407.9122,10600
401.77008,10601
413.5961,10602
398.61652,10603
399.7427,10604
395.14282,10605
398.4025,10606
409.2123,10607
439.1085,10608
491.6592,10609
486.7728,10610
486.89166,10611
507.0713,10612
533.7202,10613
528.80084,10614
533.6843,10615
514.62244,10616
522.02924,10617
507.88095,10618
502.60785,10619
502.10977,10620
468.8348,10621
458.97684,10622
447.1109,10623
438.2822,10624
425.68265,10625
439.12787,10626
438.18924,10627
432.5488,10628
462.68973,10629
499.05096,10630
478.48514,10631
490.58316,10632
525.30597,10633
433.2242,10634
461.1445,10635
483.63577,10636
472.4267,10637
470.22928,10638
425.6843,10639
455.597,10640
484.28372,10641
492.4505,10642
469.36716,10643
448.1447,10644
493.05634,10645
442.84586,10646
438.07806,10647
449.0605,10648
458.02905,10649
430.91156,10650
514.3601,10651
511.6416,10652
482.69327,10653
513.02545,10654
469.63837,10655
503.2322,10656
467.0955,10657
463.7332,10658
494.34695,10659
558.5623,10660
487.77884,10661
474.93246,10662
473.98248,10663
436.5941,10664
442.7764,10665
450.56818,10666
484.71988,10667
507.551,10668
468.2652,10669
458.24036,10670
475.17648,10671
476.97296,10672
465.36017,10673
458.60455,10674
447.61542,10675
434.28226,10676
474.74442,10677
436.98477,10678
440.3095,10679
463.62317,10680
456.6178,10681
453.18918,10682
428.28412,10683
440.13422,10684
489.82333,10685
459.09067,10686
433.0802,10687
453.58554,10688
412.46066,10689
448.05096,10690
501.11908,10691
434.97995,10692
473.82587,10693
491.51715,10694
419.5506,10695
616.7498,10696
477.10425,10697
436.21606,10698
455.22745,10699
496.68118,10700
467.928,10701
475.55966,10702
525.00714,10703
502.68082,10704
519.2907,10705
553.9941,10706
504.08966,10707
485.1822,10708
497.02615,10709
516.1082,10710
443.3618,10711
465.80966,10712
458.07254,10713
429.0787,10714
521.14294,10715
465.7193,10716
467.2979,10717
518.71484,10718
510.48303,10719
464.82764,10720
558.7325,10721
495.1722,10722
468.78555,10723
527.9804,10724
478.85275,10725
505.20084,10726
531.61505,10727
505.30652,10728
498.90436,10729
489.70984,10730
437.23877,10731
455.8064,10732
441.8904,10733
415.48727,10734
446.21835,10735
476.21732,10736
462.79065,10737
449.404,10738
464.6708,10739
456.539,10740
481.1881,10741
490.54636,10742
448.75153,10743
498.2126,10744
529.65405,10745
479.05728,10746
496.1104,10747
455.74118,10748
472.55643,10749
496.7,10750
463.2973,10751
456.1744,10752
515.5549,10753
451.30966,10754
470.0741,10755
439.89777,10756
471.24597,10757
492.77493,10758
578.8425,10759
449.86078,10760
421.7768,10761
455.91928,10762
442.68646,10763
432.42905,10764
480.7208,10765
434.80316,10766
498.39548,10767
567.9862,10768
457.97937,10769
482.62427,10770
610.1763,10771
517.9241,10772
453.0015,10773
438.71384,10774
436.3075,10775
453.62222,10776
467.31268,10777
490.85583,10778
468.55762,10779
475.51678,10780
499.03574,10781
435.47086,10782
516.2014,10783
508.02432,10784
487.46744,10785
483.873,10786
513.9589,10787
429.59738,10788
434.05005,10789
445.11865,10790
390.37875,10791
464.16602,10792
440.5931,10793
459.70697,10794
509.46927,10795
436.0574,10796
420.34955,10797
521.7668,10798
453.49664,10799
429.14606,10800
494.93478,10801
465.54996,10802
458.66473,10803
517.11273,10804
476.17505,10805
504.3385,10806
476.43958,10807
509.858,10808
447.4239,10809
511.1213,10810
535.3543,10811
492.08575,10812
455.76398,10813
471.23013,10814
460.8195,10815
440.32043,10816
432.1622,10817
420.01477,10818
461.53015,10819
423.75668,10820
445.17636,10821
456.9672,10822
430.59564,10823
462.8285,10824
447.63,10825
443.81503,10826
520.5485,10827
453.59906,10828
449.819,10829
516.06915,10830
421.2166,10831
442.92352,10832
526.83,10833
434.98206,10834
411.26614,10835
479.66016,10836
446.40717,10837
484.14926,10838
479.93527,10839
416.27045,10840
479.3168,10841
521.0969,10842
484.82153,10843
504.07812,10844
535.23206,10845
496.7057,10846
525.8515,10847
506.12097,10848
467.80188,10849
498.09003,10850
597.24884,10851
537.913,10852
496.48575,10853
587.02637,10854
568.1667,10855
445.41522,10856
455.38898,10857
428.26218,10858
446.74902,10859
461.06207,10860
482.53836,10861
521.7379,10862
503.6987,10863
437.20767,10864
482.5111,10865
512.2358,10866
486.81128,10867
530.62103,10868
538.53436,10869
468.99478,10870
541.8275,10871
577.0244,10872
537.4647,10873
597.24084,10874
541.6526,10875
636.01215,10876
546.5682,10877
525.6577,10878
531.1273,10879
552.63965,10880
572.4149,10881
554.6747,10882
438.32452,10883
521.2116,10884
531.36163,10885
444.07306,10886
463.8185,10887
473.2406,10888
475.71634,10889
498.24515,10890
470.70856,10891
508.67108,10892
535.25806,10893
534.9397,10894
454.66702,10895
480.3444,10896
440.40088,10897
477.7417,10898
495.27338,10899
507.7448,10900
506.7512,10901
534.021,10902
490.84613,10903
512.15906,10904
522.53046,10905
514.6821,10906
540.98065,10907
542.5671,10908
538.38086,10909
547.9479,10910
488.21396,10911
507.81772,10912
502.54852,10913
484.57608,10914
455.21738,10915
445.4389,10916
453.20816,10917
401.08456,10918
566.2304,10919
559.50824,10920
612.86835,10921
583.44495,10922
619.72705,10923
492.16553,10924
549.7011,10925
523.8912,10926
528.883,10927
525.96606,10928
477.6792,10929
474.0232,10930
515.40814,10931
555.48364,10932
601.7402,10933
627.8215,10934
596.8863,10935
643.439,10936
580.21173,10937
548.2075,10938
557.9921,10939
490.0383,10940
531.8879,10941
600.91113,10942
492.35532,10943
581.5053,10944
480.8914,10945
533.45605,10946
758.6248,10947
831.22644,10948
830.14905,10949
793.0589,10950
752.2632,10951
740.43335,10952
752.9894,10953
673.46466,10954
497.98663,10955
533.79816,10956
536.3583,10957
606.46844,10958
619.0235,10959
654.1626,10960
617.52344,10961
583.9484,10962
659.7234,10963
566.7951,10964
583.15955,10965
629.6057,10966
574.2128,10967
578.53046,10968
522.6505,10969
525.73615,10970
548.2813,10971
543.6809,10972
608.6788,10973
579.3688,10974
610.47894,10975
829.786,10976
780.01154,10977
763.8113,10978
761.0532,10979
662.928,10980
659.60455,10981
636.49524,10982
627.75543,10983
726.82446,10984
691.60974,10985
646.30255,10986
893.1614,10987
967.33636,10988
751.3945,10989
770.7963,10990
720.87933,10991
718.44025,10992
762.78217,10993
691.47833,10994
709.54663,10995
721.1785,10996
627.2429,10997
669.8471,10998
661.85455,10999
714.535,11000
681.7906,11001
664.4227,11002
669.77814,11003
603.88464,11004
663.50775,11005
659.04834,11006
597.4356,11007
620.5439,11008
593.1811,11009
609.391,11010
604.12244,11011
639.8584,11012
658.49414,11013
634.4396,11014
598.7256,11015
611.6272,11016
580.0736,11017
559.9299,11018
585.58966,11019
608.96265,11020
592.54865,11021
600.8387,11022
605.96423,11023
590.02185,11024
584.3604,11025
605.3286,11026
612.4335,11027
574.39514,11028
586.5338,11029
618.3808,11030
600.42975,11031
585.72,11032
590.3444,11033
602.815,11034
581.35095,11035
562.5553,11036
577.0215,11037
531.49396,11038
560.2802,11039
543.7464,11040
510.87537,11041
544.15,11042
523.5201,11043
538.89435,11044
489.11975,11045
513.8269,11046
461.68933,11047
439.7215,11048
546.5408,11049
443.65387,11050
443.8043,11051
483.90836,11052
444.13834,11053
447.966,11054
747.9683,11055
676.7481,11056
586.98956,11057
578.79236,11058
547.934,11059
538.90045,11060
559.74243,11061
538.97906,11062
543.2623,11063
544.1041,11064
533.4887,11065
562.3054,11066
531.43964,11067
537.0029,11068
540.4443,11069
536.71686,11070
554.86163,11071
539.9752,11072
523.8402,11073
543.7024,11074
524.7783,11075
531.7019,11076
521.8437,11077
808.72723,11078
787.2373,11079
742.35645,11080
678.8591,11081
672.7263,11082
684.6019,11083
659.9573,11084
643.772,11085
645.82306,11086
642.2762,11087
660.4144,11088
654.8936,11089
662.6613,11090
650.936,11091
672.1591,11092
683.0212,11093
623.80286,11094
689.71173,11095
660.07825,11096
667.0089,11097
660.5498,11098
643.7574,11099
661.9216,11100
631.5242,11101
932.3839,11102
853.298,11103
666.42883,11104
662.05896,11105
683.36053,11106
676.3693,11107
705.7655,11108
697.97437,11109
705.6542,11110
705.0835,11111
719.70026,11112
736.82806,11113
717.01373,11114
742.24817,11115
744.27216,11116
735.5417,11117
701.34705,11118
662.9231,11119
680.9822,11120
608.6911,11121
616.3877,11122
606.3816,11123
571.0113,11124
585.8166,11125
547.89905,11126
592.0265,11127
519.033,11128
546.4751,11129
551.3178,11130
507.9199,11131
543.1341,11132
709.4969,11133
643.1302,11134
630.4062,11135
592.62067,11136
540.72815,11137
530.2705,11138
547.2762,11139
530.80414,11140
556.2257,11141
514.083,11142
501.8583,11143
513.52826,11144
479.34186,11145
509.8224,11146
569.0175,11147
512.74316,11148
519.30786,11149
487.49783,11150
614.9247,11151
722.75574,11152
636.6186,11153
617.66345,11154
633.68774,11155
619.66,11156
616.57697,11157
650.08813,11158
591.2594,11159
589.7858,11160
617.52844,11161
636.2648,11162
705.9124,11163
638.52765,11164
607.25543,11165
642.69275,11166
645.3561,11167
621.1944,11168
661.59973,11169
622.28204,11170
613.9589,11171
632.2377,11172
747.9493,11173
674.6961,11174
639.70154,11175
634.55115,11176
640.3989,11177
626.8465,11178
606.8859,11179
620.4105,11180
617.7216,11181
592.7253,11182
601.76636,11183
618.7645,11184
587.99725,11185
614.1638,11186
645.8079,11187
658.0372,11188
647.0393,11189
639.93243,11190
612.76556,11191
701.2564,11192
666.87384,11193
655.39453,11194
699.7532,11195
643.88184,11196
632.45197,11197
645.63306,11198
590.79755,11199
620.5043,11200
595.0572,11201
574.1734,11202
581.2301,11203
590.3289,11204
552.01086,11205
574.84717,11206
529.06537,11207
516.7284,11208
590.25977,11209
515.45795,11210
512.57,11211
554.9448,11212
459.66577,11213
518.96967,11214
543.04626,11215
445.39685,11216
431.8523,11217
444.7339,11218
418.9529,11219
438.87436,11220
431.64752,11221
404.33105,11222
449.74234,11223
444.81464,11224
425.77878,11225
456.89438,11226
438.0288,11227
437.31726,11228
502.49487,11229
464.05963,11230
462.7145,11231
477.32584,11232
454.3716,11233
492.01675,11234
467.79706,11235
443.5765,11236
507.51617,11237
457.14438,11238
431.1993,11239
508.04736,11240
500.31772,11241
465.16714,11242
492.62476,11243
442.57684,11244
478.50998,11245
466.94412,11246
437.55426,11247
487.3637,11248
453.79086,11249
445.43192,11250
487.56033,11251
458.82782,11252
453.62332,11253
440.0318,11254
473.34604,11255
477.82516,11256
466.76834,11257
488.5812,11258
428.984,11259
457.57025,11260
515.18646,11261
462.47827,11262
522.2892,11263
577.85364,11264
518.7137,11265
520.7582,11266
547.20856,11267
490.35806,11268
504.88733,11269
483.63693,11270
513.5266,11271
541.0343,11272
521.2935,11273
528.1465,11274
517.9796,11275
515.0445,11276
529.315,11277
511.00446,11278
523.9033,11279
511.0176,11280
523.40906,11281
572.7005,11282
671.8308,11283
613.6718,11284
628.9197,11285
625.59186,11286
573.5417,11287
601.133,11288
623.4055,11289
574.86444,11290
551.7135,11291
528.6446,11292
535.0075,11293
520.93915,11294
528.4648,11295
549.8473,11296
548.91,11297
542.0843,11298
557.6661,11299
544.13196,11300
541.5914,11301
521.6269,11302
753.66504,11303
860.229,11304
814.65717,11305
792.2786,11306
775.6676,11307
747.1781,11308
697.5199,11309
644.8032,11310
646.7562,11311
533.8429,11312
608.742,11313
749.78235,11314
681.82434,11315
660.9911,11316
701.90045,11317
625.732,11318
644.2202,11319
586.679,11320
586.33453,11321
583.5794,11322
589.37616,11323
816.75977,11324
834.6748,11325
826.01337,11326
873.6233,11327
904.8578,11328
832.28876,11329
822.7355,11330
790.1831,11331
756.9429,11332
773.39,11333
923.4658,11334
922.951,11335
873.80115,11336
857.83325,11337
809.7658,11338
795.9528,11339
816.8385,11340
724.23157,11341
671.40607,11342
902.51776,11343
853.14825,11344
889.92065,11345
868.1998,11346
837.4789,11347
817.78156,11348
799.2359,11349
870.26654,11350
851.09424,11351
801.4973,11352
793.59607,11353
802.62415,11354
805.80273,11355
811.43866,11356
815.9914,11357
753.0892,11358
794.4734,11359
666.7621,11360
672.2672,11361
731.87537,11362
769.0477,11363
750.51807,11364
762.7658,11365
732.4109,11366
762.1763,11367
707.90094,11368
738.57916,11369
765.58246,11370
767.69446,11371
771.18835,11372
857.9512,11373
815.7782,11374
760.13354,11375
765.72076,11376
707.01953,11377
730.8605,11378
792.1847,11379
940.43445,11380
938.0864,11381
896.07336,11382
830.4213,11383
896.56006,11384
883.3392,11385
804.4039,11386
859.9249,11387
818.64417,11388
802.5951,11389
790.5109,11390
744.2438,11391
720.95166,11392
706.25214,11393
702.2126,11394
670.7734,11395
689.69006,11396
672.7305,11397
690.52673,11398
727.88,11399
676.3732,11400
748.3952,11401
731.7426,11402
708.90906,11403
743.6783,11404
2035.2936,11405
1738.4062,11406
1514.7853,11407
1249.918,11408
1038.3125,11409
1001.22266,11410
1114.9255,11411
1113.2524,11412
1068.2297,11413
1079.6946,11414
1023.5507,11415
941.29956,11416
1016.99493,11417
951.74713,11418
1046.1973,11419
1798.2526,11420
1535.0922,11421
1058.3536,11422
1101.405,11423
1102.945,11424
1106.8022,11425
1323.2295,11426
1144.6699,11427
1201.8706,11428
951.64935,11429
1541.6552,11430
1264.4205,11431
1126.3383,11432
966.3702,11433
1054.8325,11434
968.62354,11435
1092.3042,11436
1067.5403,11437
1555.6929,11438
1386.7938,11439
1089.1388,11440
945.80115,11441
1106.3907,11442
1047.3506,11443
1408.055,11444
1410.7778,11445
1331.652,11446
1258.7307,11447
1175.2224,11448
1019.34937,11449
1029.9979,11450
990.3423,11451
1162.5857,11452
1244.4954,11453
1220.8129,11454
1155.1416,11455
1155.0955,11456
1162.3519,11457
1098.7273,11458
1086.4974,11459
1012.63385,11460
1025.741,11461
1099.4003,11462
951.23236,11463
991.34564,11464
1093.7416,11465
958.53705,11466
898.0281,11467
915.9811,11468
858.8404,11469
960.0436,11470
924.39124,11471
898.80634,11472
1056.6139,11473
978.02277,11474
859.08875,11475
888.07935,11476
827.9928,11477
840.80707,11478
924.3899,11479
883.68756,11480
878.4969,11481
908.6016,11482
825.0534,11483
886.41425,11484
867.26196,11485
757.1075,11486
849.59283,11487
822.1317,11488
787.0057,11489
810.33887,11490
748.9057,11491
751.6597,11492
776.1812,11493
724.82166,11494
742.507,11495
783.5917,11496
725.3503,11497
765.4424,11498
753.53845,11499
727.4492,11500
729.8699,11501
729.40906,11502
723.6929,11503
722.7326,11504
621.03265,11505
613.8763,11506
673.95667,11507
624.80115,11508
615.21436,11509
674.1246,11510
648.7561,11511
693.48956,11512
700.09393,11513
635.7149,11514
638.15137,11515
619.8429,11516
598.413,11517
613.88055,11518
651.8169,11519
669.078,11520
681.2391,11521
636.0228,11522
628.4737,11523
676.99457,11524
635.54517,11525
604.43787,11526
631.26843,11527
624.3302,11528
600.9824,11529
600.78436,11530
677.0745,11531
669.24365,11532
660.199,11533
687.74133,11534
649.92395,11535
650.7592,11536
678.6612,11537
685.31104,11538
659.0602,11539
712.56396,11540
675.79913,11541
709.61725,11542
676.2928,11543
670.43756,11544
613.06995,11545
637.2056,11546
618.4127,11547
596.4319,11548
598.7359,11549
620.3387,11550
678.7106,11551
667.0508,11552
637.61584,11553
717.6833,11554
638.47095,11555
600.49646,11556
670.36566,11557
607.2934,11558
621.6907,11559
655.17413,11560
618.4255,11561
628.6958,11562
649.201,11563
597.3775,11564
640.295,11565
586.9887,11566
614.0321,11567
546.7607,11568
562.5488,11569
592.27795,11570
534.1352,11571
563.1424,11572
562.27203,11573
517.77106,11574
481.09198,11575
531.9676,11576
485.04562,11577
500.35114,11578
463.87598,11579
406.4817,11580
422.56268,11581
420.94034,11582
399.65396,11583
410.9654,11584
411.03467,11585
420.44904,11586
416.73843,11587
436.03094,11588
493.44205,11589
534.5341,11590
497.38998,11591
468.6259,11592
533.6042,11593
519.91547,11594
457.662,11595
551.3149,11596
490.18137,11597
504.03033,11598
501.8489,11599
480.31674,11600
515.98663,11601
512.1751,11602
518.5751,11603
509.9838,11604
507.069,11605
482.5627,11606
475.28915,11607
478.9073,11608
495.42303,11609
481.70776,11610
490.76178,11611
481.8016,11612
477.1858,11613
479.82062,11614
486.78162,11615
475.27112,11616
497.2651,11617
520.44714,11618
522.7165,11619
524.0818,11620
579.5,11621
604.1727,11622
552.8354,11623
585.9741,11624
555.11414,11625
552.37396,11626
593.7434,11627
554.5624,11628
543.7984,11629
498.52002,11630
524.7895,11631
516.31335,11632
490.1976,11633
559.4845,11634
479.97162,11635
494.45212,11636
515.58167,11637
453.87372,11638
482.63174,11639
502.08292,11640
473.96982,11641
480.92694,11642
501.94138,11643
725.33936,11644
704.0167,11645
612.42365,11646
690.58026,11647
595.5972,11648
599.9161,11649
640.60443,11650
610.73114,11651
596.38293,11652
597.2529,11653
594.69183,11654
558.3974,11655
558.51917,11656
566.7194,11657
665.5075,11658
571.566,11659
616.44025,11660
628.06726,11661
527.1876,11662
554.6712,11663
596.0052,11664
548.54535,11665
607.5153,11666
623.116,11667
535.07214,11668
618.5734,11669
588.82056,11670
543.0938,11671
580.8631,11672
495.12433,11673
566.16943,11674
514.88055,11675
520.0205,11676
493.43777,11677
485.78903,11678
523.31744,11679
467.89914,11680
474.98352,11681
505.71356,11682
495.42352,11683
448.11322,11684
412.51788,11685
628.7122,11686
618.2012,11687
618.25476,11688
584.63934,11689
561.7719,11690
540.6439,11691
553.0978,11692
567.5899,11693
537.07776,11694
538.6502,11695
562.0535,11696
527.11414,11697
546.8964,11698
587.52997,11699
542.48834,11700
564.5489,11701
569.9064,11702
535.87744,11703
566.039,11704
541.6692,11705
543.46674,11706
592.1869,11707
930.1635,11708
841.5002,11709
830.783,11710
805.6713,11711
804.80164,11712
750.46735,11713
721.3933,11714
734.5266,11715
708.4949,11716
669.8112,11717
597.65405,11718
624.5761,11719
616.5479,11720
622.0403,11721
649.2144,11722
599.23517,11723
629.9096,11724
635.1166,11725
621.6353,11726
581.45953,11727
568.4923,11728
583.967,11729
584.43115,11730
587.23096,11731
921.3831,11732
878.2103,11733
784.6504,11734
812.5243,11735
896.0053,11736
799.57153,11737
776.1833,11738
844.13135,11739
759.08154,11740
827.16125,11741
779.5779,11742
765.7898,11743
786.0519,11744
744.88745,11745
811.6823,11746
757.49896,11747
703.28253,11748
744.4676,11749
677.28595,11750
649.7451,11751
669.0031,11752
668.47375,11753
577.4679,11754
641.8919,11755
691.5735,11756
598.22076,11757
626.4832,11758
610.0069,11759
612.7102,11760
658.7766,11761
663.1743,11762
605.7312,11763
654.5258,11764
586.3355,11765
549.943,11766
656.70544,11767
546.8794,11768
578.0135,11769
586.5186,11770
582.48016,11771
584.4801,11772
631.84674,11773
575.42413,11774
624.8894,11775
593.84393,11776
536.1206,11777
587.6472,11778
554.4763,11779
545.73413,11780
587.9337,11781
562.86774,11782
522.9453,11783
565.05237,11784
548.2186,11785
553.2552,11786
598.34705,11787
625.619,11788
656.79694,11789
622.99475,11790
601.23395,11791
640.2332,11792
607.593,11793
593.2046,11794
629.12146,11795
619.6234,11796
594.43555,11797
613.6486,11798
653.60126,11799
649.1151,11800
643.62225,11801
694.5351,11802
746.47327,11803
764.98975,11804
710.27625,11805
746.7542,11806
757.4316,11807
701.64984,11808
744.42065,11809
850.9598,11810
630.9352,11811
681.59576,11812
732.37213,11813
677.76526,11814
730.70825,11815
781.1596,11816
710.80743,11817
696.0757,11818
691.5593,11819
686.66644,11820
706.2335,11821
679.0037,11822
672.68585,11823
714.3573,11824
675.40063,11825
654.93616,11826
684.6893,11827
755.94104,11828
738.00964,11829
740.76495,11830
894.1213,11831
762.62854,11832
744.4296,11833
796.825,11834
689.57227,11835
844.5734,11836
825.307,11837
770.82056,11838
795.69366,11839
818.49005,11840
802.47943,11841
746.81976,11842
724.98834,11843
755.11273,11844
944.9301,11845
916.5586,11846
796.2031,11847
758.3386,11848
789.83606,11849
894.66235,11850
829.8875,11851
803.51,11852
830.5249,11853
804.67377,11854
841.87854,11855
820.35693,11856
716.51715,11857
836.9212,11858
797.3641,11859
825.0767,11860
799.6397,11861
829.5884,11862
783.83124,11863
822.9052,11864
845.7076,11865
786.0673,11866
794.3601,11867
795.45734,11868
749.3572,11869
764.44995,11870
727.5523,11871
685.8026,11872
676.15674,11873
636.95056,11874
583.3273,11875
647.4878,11876
640.2807,11877
645.03656,11878
686.86145,11879
604.31647,11880
1028.061,11881
1006.0197,11882
948.0743,11883
911.0015,11884
899.4924,11885
888.659,11886
895.7462,11887
868.67737,11888
1110.0593,11889
1100.2382,11890
1008.85114,11891
980.3843,11892
924.362,11893
844.2728,11894
838.0801,11895
829.49274,11896
827.8228,11897
862.9249,11898
855.98706,11899
818.7731,11900
817.5021,11901
837.5875,11902
792.0523,11903
717.6498,11904
625.4807,11905
629.5337,11906
614.1569,11907
637.24133,11908
657.088,11909
617.2754,11910
621.5376,11911
623.77057,11912
639.59937,11913
777.63043,11914
746.31354,11915
649.9562,11916
721.5173,11917
668.7404,11918
769.80035,11919
764.1971,11920
764.6406,11921
820.1534,11922
788.5288,11923
672.7664,11924
667.20154,11925
718.1352,11926
700.9838,11927
669.5755,11928
651.4334,11929
658.3807,11930
665.8467,11931
645.75995,11932
673.3224,11933
963.4762,11934
888.7588,11935
903.24164,11936
827.4656,11937
844.876,11938
908.54047,11939
795.0528,11940
813.0843,11941
826.1244,11942
832.58777,11943
792.323,11944
778.92737,11945
748.68744,11946
770.27185,11947
797.2228,11948
779.75586,11949
827.17584,11950
760.9375,11951
753.75037,11952
822.2941,11953
851.87964,11954
919.6627,11955
869.299,11956
780.46716,11957
932.8783,11958
1021.80896,11959
967.9337,11960
900.8804,11961
878.6644,11962
858.8744,11963
818.25555,11964
845.22955,11965
798.6138,11966
791.59436,11967
789.5251,11968
777.5978,11969
788.0986,11970
789.5842,11971
705.29297,11972
692.6959,11973
724.4115,11974
739.00946,11975
1072.6328,11976
1095.0845,11977
1036.0237,11978
963.65295,11979
956.6445,11980
962.6885,11981
953.4995,11982
950.2265,11983
907.3585,11984
866.7135,11985
909.4769,11986
906.7375,11987
876.83795,11988
834.3344,11989
853.50854,11990
1224.2462,11991
1110.5631,11992
1099.2411,11993
1012.9844,11994
957.72687,11995
947.558,11996
926.4024,11997
867.69147,11998
846.1222,11999
1116.9878,12000
992.9381,12001
949.97675,12002
909.31885,12003
870.6868,12004
866.1798,12005
854.8638,12006
1069.0867,12007
1102.4287,12008
1035.3331,12009
1003.2748,12010
960.23663,12011
930.3158,12012
938.7034,12013
911.42554,12014
1124.1481,12015
1019.11914,12016
1085.4672,12017
1061.8717,12018
1038.0009,12019
1071.383,12020
1066.6508,12021
1184.4954,12022
1132.0338,12023
1076.3215,12024
1057.1353,12025
1020.27246,12026
1027.8209,12027
1042.7892,12028
1028.8138,12029
1013.9525,12030
981.4776,12031
988.2457,12032
844.96246,12033
861.29645,12034
961.75226,12035
1273.7501,12036
1191.0015,12037
1172.2445,12038
1003.64655,12039
987.68854,12040
1018.80804,12041
996.1839,12042
923.1652,12043
920.5853,12044
914.0939,12045
949.17303,12046
948.08545,12047
908.20966,12048
901.77246,12049
939.3961,12050
895.08655,12051
779.24066,12052
845.16046,12053
840.57605,12054
803.63934,12055
873.9427,12056
800.3775,12057
773.53674,12058
884.59454,12059
813.2169,12060
681.0505,12061
641.5122,12062
604.3353,12063
625.94073,12064
681.74225,12065
612.891,12066
630.87915,12067
621.7179,12068
643.55,12069
733.66705,12070
663.96515,12071
658.4458,12072
733.4254,12073
717.83844,12074
768.0655,12075
769.4954,12076
727.126,12077
708.01263,12078
790.1512,12079
940.8709,12080
1103.2432,12081
970.64966,12082
1017.761,12083
973.02313,12084
988.25824,12085
924.6737,12086
907.2121,12087
919.19714,12088
829.9244,12089
828.27924,12090
1034.2852,12091
951.49176,12092
830.2604,12093
781.12445,12094
805.55994,12095
815.36615,12096
769.72345,12097
940.62897,12098
844.25134,12099
884.86804,12100
852.98816,12101
772.4686,12102
790.47797,12103
715.2645,12104
708.05634,12105
706.196,12106
703.9421,12107
687.1177,12108
801.73804,12109
841.78754,12110
878.1459,12111
837.2637,12112
828.09064,12113
796.0975,12114
801.0303,12115
829.3068,12116
801.3267,12117
820.0645,12118
792.4812,12119
810.98,12120
764.1928,12121
735.9939,12122
736.77515,12123
729.95166,12124
731.6979,12125
692.28186,12126
739.5526,12127
694.5151,12128
691.559,12129
663.71454,12130
678.1225,12131
677.3104,12132
674.0906,12133
699.7947,12134
620.37054,12135
635.5755,12136
717.0271,12137
640.2757,12138
659.9619,12139
666.7204,12140
655.7033,12141
672.9867,12142
677.4843,12143
658.3679,12144
662.7616,12145
632.5011,12146
622.6414,12147
630.5976,12148
618.30096,12149
604.259,12150
775.77185,12151
736.5272,12152
691.9932,12153
707.49384,12154
709.937,12155
668.9053,12156
662.2261,12157
650.30994,12158
625.315,12159
615.5987,12160
657.6364,12161
670.2679,12162
699.8297,12163
663.6123,12164
627.7945,12165
617.4024,12166
615.8382,12167
1008.46155,12168
1056.9497,12169
941.48785,12170
1035.2891,12171
907.9045,12172
833.9339,12173
815.66205,12174
783.81683,12175
810.551,12176
834.7774,12177
754.17615,12178
787.2297,12179
844.226,12180
803.67584,12181
874.14343,12182
921.6605,12183
1493.0652,12184
1392.7325,12185
1245.9584,12186
1081.1305,12187
978.03674,12188
1043.4958,12189
1001.265,12190
989.88434,12191
1030.0314,12192
995.86993,12193
939.4392,12194
939.3535,12195
1010.6853,12196
964.1452,12197
888.5663,12198
882.335,12199
866.3271,12200
834.75616,12201
925.38434,12202
797.4319,12203
765.23883,12204
888.3947,12205
766.51044,12206
714.17377,12207
723.9143,12208
667.9285,12209
664.78357,12210
719.00385,12211
1138.7422,12212
1054.7743,12213
1001.15125,12214
898.114,12215
850.53766,12216
868.3893,12217
857.15906,12218
927.96735,12219
846.63806,12220
811.51746,12221
921.13586,12222
880.50977,12223
867.7742,12224
905.91815,12225
1094.7699,12226
1043.3453,12227
1104.9365,12228
1031.9296,12229
1073.2053,12230
978.7226,12231
982.91174,12232
901.4846,12233
1084.3267,12234
942.48517,12235
924.57996,12236
808.8696,12237
803.8938,12238
869.65234,12239
822.33594,12240
809.1506,12241
1047.2567,12242
1041.018,12243
934.2147,12244
944.92993,12245
874.36487,12246
824.8328,12247
722.5378,12248
770.10504,12249
804.22797,12250
710.46796,12251
866.23785,12252
932.30383,12253
920.8674,12254
900.5954,12255
835.7367,12256
812.47656,12257
786.25397,12258
733.4774,12259
784.0744,12260
757.60187,12261
772.2044,12262
747.23395,12263
764.3125,12264
780.7106,12265
781.45245,12266
782.03986,12267
816.7369,12268
834.61304,12269
848.35675,12270
790.0353,12271
848.1875,12272
856.2823,12273
876.4108,12274
769.91,12275
756.4664,12276
838.6453,12277
734.8703,12278
787.02905,12279
778.4826,12280
838.6669,12281
787.0007,12282
806.49615,12283
768.3636,12284
774.76196,12285
750.9643,12286
700.86194,12287
712.20966,12288
696.2655,12289
682.79584,12290
872.5091,12291
837.24695,12292
771.4664,12293
720.3338,12294
764.06903,12295
782.9234,12296
755.3855,12297
765.0727,12298
728.5948,12299
692.2237,12300
739.1987,12301
759.3514,12302
732.3124,12303
733.5656,12304
756.235,12305
780.83923,12306
777.9724,12307
1145.8457,12308
1233.2561,12309
973.3616,12310
910.11017,12311
959.68054,12312
802.9073,12313
826.19434,12314
885.6114,12315
801.52454,12316
824.5934,12317
835.74927,12318
781.00824,12319
831.5893,12320
781.1887,12321
809.89966,12322
942.22107,12323
821.3039,12324
1441.3944,12325
1825.2479,12326
1610.9271,12327
1552.1942,12328
1296.7769,12329
1476.4023,12330
1716.5061,12331
1593.4954,12332
1457.4619,12333
1227.9865,12334
959.25824,12335
876.39624,12336
1068.637,12337
902.77856,12338
903.6456,12339
1008.6919,12340
942.7149,12341
981.684,12342
968.9859,12343
887.6705,12344
793.5991,12345
830.30035,12346
821.6074,12347
896.79193,12348
972.0659,12349
931.9157,12350
819.8036,12351
783.17096,12352
747.7271,12353
799.31213,12354
860.87506,12355
910.2545,12356
896.74036,12357
798.7306,12358
766.50696,12359
826.77313,12360
782.452,12361
721.12006,12362
680.3636,12363
670.0217,12364
659.42773,12365
720.1572,12366
1513.268,12367
1634.8615,12368
1452.0574,12369
1330.4159,12370
1224.2974,12371
1251.4865,12372
1162.5273,12373
1071.9304,12374
866.31525,12375
798.9595,12376
822.60205,12377
886.01526,12378
837.58795,12379
1348.4218,12380
1271.5281,12381
1033.5574,12382
1050.8268,12383
1051.9604,12384
1032.047,12385
925.4106,12386
945.72925,12387
911.1734,12388
830.8779,12389
905.5002,12390
1186.0099,12391
1275.4708,12392
1241.1339,12393
1162.5186,12394
1061.4161,12395
1039.4629,12396
1055.2927,12397
1063.3184,12398
956.29895,12399
914.641,12400
943.06744,12401
962.11786,12402
1030.1235,12403
1140.2004,12404
1222.0015,12405
1119.2036,12406
1186.4701,12407
1085.3503,12408
1120.7017,12409
1112.7227,12410
1079.319,12411
1091.7882,12412
1027.8262,12413
915.84344,12414
864.36633,12415
846.636,12416
855.13605,12417
851.38776,12418
887.7298,12419
970.6822,12420
996.6719,12421
1097.581,12422
1005.02545,12423
1011.4104,12424
925.52405,12425
899.7237,12426
817.8602,12427
842.2177,12428
881.0662,12429
820.43274,12430
796.5371,12431
781.8787,12432
776.38257,12433
740.40283,12434
765.0397,12435
842.0926,12436
803.1579,12437
773.3179,12438
752.4285,12439
780.4482,12440
943.314,12441
831.3803,12442
813.89166,12443
783.66766,12444
781.38464,12445
721.48724,12446
826.39746,12447
750.83966,12448
712.2974,12449
746.7862,12450
715.8752,12451
737.27527,12452
685.428,12453
646.2499,12454
706.70856,12455
715.9293,12456
679.2324,12457
754.0927,12458
725.98267,12459
712.9148,12460
725.1999,12461
695.48956,12462
711.95807,12463
730.56836,12464
695.9728,12465
654.52814,12466
637.7119,12467
640.8801,12468
709.957,12469
629.19794,12470
608.6303,12471
723.2864,12472
637.8138,12473
633.56946,12474
653.5053,12475
666.6913,12476
622.2984,12477
643.5496,12478
664.35297,12479
583.9725,12480
631.4295,12481
655.197,12482
574.1097,12483
571.3657,12484
596.00555,12485
525.5883,12486
563.1522,12487
582.4488,12488
536.1946,12489
580.9112,12490
577.31976,12491
559.64984,12492
585.5156,12493
550.0391,12494
533.2153,12495
542.3337,12496
539.8999,12497
543.7864,12498
523.4995,12499
563.0226,12500
519.83545,12501
509.099,12502
556.9307,12503
557.4348,12504
519.91486,12505
675.77295,12506
925.9903,12507
852.93646,12508
899.1568,12509
826.73944,12510
773.2046,12511
783.04675,12512
798.9848,12513
677.69244,12514
662.1553,12515
643.81506,12516
656.9019,12517
615.2603,12518
618.076,12519
623.88184,12520
569.9628,12521
554.25696,12522
528.641,12523
542.0523,12524
538.34155,12525
533.4566,12526
519.5835,12527
488.91696,12528
506.19846,12529
531.499,12530
513.5295,12531
526.60406,12532
528.60645,12533
536.6242,12534
540.17395,12535
556.0088,12536
547.2106,12537
550.0142,12538
544.6936,12539
557.1793,12540
750.98456,12541
654.325,12542
766.61676,12543
752.6675,12544
717.20325,12545
733.5136,12546
656.8524,12547
649.0928,12548
688.2694,12549
656.1471,12550
657.4944,12551
639.1024,12552
596.7796,12553
619.1404,12554
635.3528,12555
624.8134,12556
668.05035,12557
626.7856,12558
652.59393,12559
672.002,12560
654.5852,12561
665.4874,12562
608.45685,12563
684.16595,12564
622.21014,12565
616.43994,12566
627.3592,12567
594.4936,12568
612.15765,12569
566.90393,12570
582.29266,12571
548.8811,12572
525.9564,12573
565.5431,12574
505.17703,12575
508.7841,12576
443.23422,12577
417.17935,12578
406.08447,12579
414.58228,12580
401.39487,12581
405.04092,12582
402.32828,12583
405.1024,12584
445.81134,12585
417.7572,12586
428.81726,12587
475.26968,12588
433.73825,12589
512.738,12590
521.28845,12591
481.32364,12592
512.44934,12593
488.5618,12594
481.31226,12595
498.92468,12596
501.50928,12597
478.74442,12598
759.7424,12599
587.7916,12600
492.45496,12601
538.0175,12602
508.881,12603
527.7611,12604
525.90466,12605
488.33444,12606
515.08936,12607
520.4332,12608
497.40744,12609
507.04388,12610
501.68103,12611
502.70544,12612
501.347,12613
498.7256,12614
466.24786,12615
519.01526,12616
514.0067,12617
477.22073,12618
533.249,12619
514.1185,12620
462.82236,12621
539.8982,12622
497.47943,12623
500.34766,12624
489.01096,12625
453.929,12626
478.87085,12627
457.47684,12628
468.7755,12629
441.04782,12630
427.06885,12631
461.0633,12632
464.11722,12633
453.22913,12634
453.74216,12635
436.4494,12636
451.78333,12637
440.98154,12638
447.47134,12639
482.7096,12640
458.30026,12641
446.30997,12642
476.4282,12643
439.36777,12644
487.34006,12645
484.81717,12646
470.9702,12647
534.5689,12648
493.85117,12649
483.89157,12650
564.97955,12651
496.90942,12652
518.33405,12653
557.79004,12654
966.97974,12655
812.4811,12656
755.3508,12657
685.2492,12658
662.9535,12659
670.8403,12660
695.7699,12661
663.09467,12662
673.3712,12663
649.11426,12664
643.78357,12665
662.75494,12666
617.8159,12667
615.12134,12668
622.2813,12669
672.75543,12670
631.5284,12671
640.97833,12672
674.61847,12673
663.6278,12674
655.8113,12675
709.7959,12676
677.07587,12677
661.91724,12678
712.2269,12679
663.46796,12680
673.3825,12681
674.52563,12682
683.48987,12683
662.5175,12684
687.28284,12685
680.39343,12686
701.66504,12687
726.2968,12688
653.1,12689
606.7933,12690
649.32635,12691
599.9661,12692
608.0427,12693
649.5608,12694
613.6301,12695
682.3968,12696
674.70526,12697
653.4604,12698
665.2087,12699
629.4269,12700
624.5962,12701
597.34564,12702
596.72656,12703
621.45825,12704
600.9822,12705
625.30914,12706
601.53357,12707
513.07294,12708
494.53275,12709
492.72174,12710
479.41315,12711
490.72272,12712
530.8671,12713
498.9643,12714
512.1859,12715
502.05374,12716
470.0745,12717
493.55588,12718
455.65884,12719
478.05957,12720
514.48285,12721
498.86594,12722
526.22437,12723
517.6323,12724
504.06226,12725
531.36615,12726
549.0473,12727
526.22485,12728
497.40543,12729
546.77344,12730
503.86337,12731
501.929,12732
521.653,12733
527.88086,12734
548.3883,12735
510.21228,12736
475.73886,12737
505.51025,12738
494.08084,12739
506.59644,12740
481.51212,12741
472.6447,12742
493.2348,12743
511.69812,12744
493.7359,12745
499.1873,12746
512.22076,12747
463.9732,12748
461.88007,12749
484.34857,12750
529.3761,12751
491.78214,12752
488.288,12753
490.18298,12754
481.44238,12755
465.01865,12756
596.41187,12757
584.885,12758
710.6816,12759
645.42316,12760
578.1487,12761
670.2335,12762
638.8044,12763
654.1607,12764
569.14624,12765
538.6588,12766
594.1261,12767
600.60583,12768
568.074,12769
595.654,12770
589.8283,12771
549.4273,12772
523.0836,12773
567.7624,12774
584.5741,12775
560.63715,12776
536.44336,12777
525.4726,12778
554.9458,12779
524.21783,12780
550.2869,12781
530.1954,12782
580.22314,12783
574.75323,12784
545.23865,12785
506.3168,12786
560.69617,12787
521.8317,12788
553.63556,12789
523.86414,12790
538.08234,12791
548.47516,12792
537.76715,12793
564.1876,12794
516.2908,12795
525.23,12796
549.097,12797
519.1638,12798
527.79724,12799
559.18945,12800
563.7596,12801
505.7507,12802
538.21313,12803
566.2022,12804
508.70935,12805
523.3976,12806
497.02457,12807
510.26675,12808
527.7571,12809
486.727,12810
455.6853,12811
479.53113,12812
435.03207,12813
497.22977,12814
463.87344,12815
435.708,12816
462.92798,12817
446.8854,12818
446.79086,12819
473.621,12820
437.45755,12821
399.42734,12822
411.1869,12823
380.44095,12824
390.90372,12825
384.65872,12826
378.29163,12827
385.7374,12828
396.01758,12829
409.04855,12830
404.58374,12831
403.13593,12832
446.2933,12833
443.18405,12834
443.85947,12835
501.45834,12836
460.9743,12837
455.09918,12838
468.13266,12839
439.19098,12840
473.58414,12841
473.2478,12842
452.90964,12843
462.69846,12844
455.50937,12845
447.3497,12846
497.84683,12847
439.22702,12848
439.24377,12849
497.96136,12850
444.38202,12851
490.77518,12852
483.4514,12853
447.48276,12854
470.3136,12855
471.04007,12856
447.22345,12857
481.41754,12858
461.7214,12859
471.85898,12860
491.7307,12861
468.6336,12862
454.0929,12863
480.1435,12864
496.39752,12865
488.34616,12866
507.2586,12867
498.35666,12868
498.3579,12869
553.2331,12870
555.1417,12871
545.1579,12872
555.8636,12873
502.91214,12874
554.63806,12875
517.0767,12876
510.9745,12877
488.95663,12878
515.5504,12879
496.2085,12880
492.80133,12881
539.6599,12882
524.02344,12883
527.54254,12884
529.4844,12885
473.60233,12886
521.2205,12887
539.0023,12888
499.21637,12889
481.51117,12890
497.61252,12891
500.84155,12892
498.9216,12893
498.3191,12894
480.5327,12895
483.82825,12896
458.29968,12897
474.8016,12898
463.67288,12899
492.28503,12900
484.4172,12901
494.14664,12902
509.27457,12903
574.4135,12904
564.5895,12905
544.8099,12906
543.06946,12907
542.4107,12908
577.3764,12909
538.62085,12910
539.6256,12911
577.7368,12912
551.2425,12913
549.851,12914
559.8483,12915
562.57117,12916
552.01,12917
559.5128,12918
623.06244,12919
617.94904,12920
663.24493,12921
617.7817,12922
618.7047,12923
616.21155,12924
627.91766,12925
613.6105,12926
606.4246,12927
630.4412,12928
597.3912,12929
627.58685,12930
664.33997,12931
618.50256,12932
609.63934,12933
621.8111,12934
600.20544,12935
612.5485,12936
627.1838,12937
860.39954,12938
890.67957,12939
895.1566,12940
799.5798,12941
730.65717,12942
677.1169,12943
650.5856,12944
663.4565,12945
671.3872,12946
674.6285,12947
664.3522,12948
709.02466,12949
711.12946,12950
889.57666,12951
887.1397,12952
891.5357,12953
765.8216,12954
697.046,12955
722.9465,12956
656.77246,12957
614.65515,12958
625.12415,12959
586.65845,12960
611.46045,12961
607.5458,12962
620.08105,12963
556.5657,12964
654.25885,12965
601.8509,12966
637.1008,12967
704.8776,12968
625.3644,12969
631.18286,12970
633.4505,12971
607.59406,12972
599.4531,12973
601.929,12974
623.9286,12975
609.68945,12976
652.6255,12977
651.24976,12978
657.51447,12979
670.13074,12980
665.54126,12981
664.6912,12982
610.9521,12983
622.4271,12984
585.3345,12985
515.00024,12986
536.6855,12987
522.11755,12988
505.05295,12989
526.0073,12990
509.36688,12991
499.2367,12992
490.27286,12993
513.76166,12994
522.8873,12995
515.6643,12996
548.19025,12997
489.19443,12998
488.8518,12999
520.327,13000
521.4632,13001
517.80646,13002
513.54083,13003
561.19543,13004
585.16504,13005
542.1245,13006
596.29205,13007
772.4312,13008
753.6735,13009
659.22797,13010
692.0523,13011
621.1571,13012
610.661,13013
646.1125,13014
605.9487,13015
609.3558,13016
612.74744,13017
593.4378,13018
574.29315,13019
580.6377,13020
584.2566,13021
547.02216,13022
569.90295,13023
570.2713,13024
540.8685,13025
530.7864,13026
556.86743,13027
555.6556,13028
544.82196,13029
545.42285,13030
541.40265,13031
576.95337,13032
581.73303,13033
545.8527,13034
580.6546,13035
569.967,13036
542.4714,13037
591.14886,13038
602.39453,13039
510.34665,13040
557.83813,13041
627.3461,13042
530.26855,13043
590.9412,13044
545.8988,13045
551.702,13046
580.41486,13047
548.38556,13048
534.8868,13049
557.955,13050
508.55353,13051
483.72238,13052
535.5862,13053
516.9752,13054
537.5179,13055
581.0724,13056
547.8423,13057
546.473,13058
554.3365,13059
551.0608,13060
555.4686,13061
582.7543,13062
596.4125,13063
579.6077,13064
594.458,13065
560.01514,13066
489.55206,13067
486.94678,13068
526.557,13069
506.9943,13070
537.5792,13071
491.23138,13072
475.67978,13073
455.18604,13074
470.60126,13075
469.8018,13076
437.99805,13077
442.39276,13078
508.30682,13079
449.3851,13080
451.34393,13081
518.75146,13082
398.67682,13083
396.60175,13084
371.8632,13085
369.00397,13086
385.8908,13087
375.3565,13088
365.64145,13089
389.73416,13090
384.38132,13091
376.59467,13092
415.7828,13093
405.21698,13094
422.3931,13095
471.23697,13096
444.67175,13097
514.2106,13098
499.86398,13099
430.5286,13100
470.99445,13101
444.88452,13102
450.81702,13103
473.54242,13104
454.46,13105
447.21188,13106
494.46255,13107
441.24457,13108
466.48706,13109
487.9193,13110
436.59726,13111
506.20493,13112
489.4453,13113
459.97485,13114
533.1931,13115
490.4101,13116
459.8739,13117
491.2259,13118
454.73135,13119
468.28693,13120
488.24628,13121
465.79504,13122
497.94254,13123
482.3711,13124
479.65433,13125
505.94974,13126
496.38452,13127
517.53516,13128
499.86627,13129
561.58856,13130
566.7539,13131
526.1185,13132
539.29,13133
556.3609,13134
557.318,13135
569.4772,13136
536.1655,13137
485.04672,13138
553.85406,13139
549.864,13140
553.1465,13141
510.49997,13142
485.41934,13143
559.53455,13144
489.66025,13145
468.60312,13146
487.57358,13147
524.7723,13148
464.55515,13149
479.12085,13150
499.82382,13151
425.6439,13152
495.56158,13153
531.23926,13154
495.3904,13155
504.26685,13156
516.9738,13157
460.89716,13158
549.40106,13159
446.54187,13160
478.2684,13161
540.7393,13162
435.06992,13163
532.61206,13164
513.97015,13165
489.6864,13166
517.42816,13167
484.94153,13168
493.32886,13169
524.874,13170
490.912,13171
501.38565,13172
529.16864,13173
491.8976,13174
531.4805,13175
547.5321,13176
557.9671,13177
566.35614,13178
600.5497,13179
587.57715,13180
567.13574,13181
651.71796,13182
656.40173,13183
585.3685,13184
619.30396,13185
618.56866,13186
558.38025,13187
600.19055,13188
573.65045,13189
580.726,13190
1830.4229,13191
1407.5492,13192
1131.1057,13193
1135.7706,13194
1158.5569,13195
1201.5844,13196
1152.0435,13197
1158.8856,13198
1149.3422,13199
1072.5913,13200
1050.1702,13201
982.4352,13202
1048.7158,13203
1066.3965,13204
1030.8241,13205
980.7741,13206
958.5794,13207
996.57007,13208
987.4086,13209
997.03107,13210
944.90393,13211
976.81757,13212
933.80896,13213
971.2875,13214
897.54944,13215
872.371,13216
899.30853,13217
904.0816,13218
867.7767,13219
897.8964,13220
907.2388,13221
861.89056,13222
854.83545,13223
855.04364,13224
843.0825,13225
848.06647,13226
808.643,13227
799.40015,13228
776.6491,13229
746.2864,13230
746.3634,13231
752.00226,13232
914.7701,13233
893.43085,13234
909.58264,13235
893.49243,13236
830.54736,13237
877.064,13238
857.478,13239
878.69574,13240
933.3693,13241
879.4323,13242
891.7037,13243
869.18274,13244
828.07965,13245
764.31415,13246
751.44745,13247
741.01965,13248
721.4421,13249
745.67267,13250
750.53253,13251
714.26685,13252
704.4923,13253
690.49133,13254
677.01196,13255
751.74695,13256
830.96686,13257
890.2388,13258
918.0761,13259
890.39764,13260
812.09644,13261
821.21155,13262
765.18164,13263
753.6871,13264
774.8855,13265
718.67334,13266
699.9939,13267
741.96454,13268
675.2015,13269
693.472,13270
765.2868,13271
658.35406,13272
874.5202,13273
959.4052,13274
864.71173,13275
897.3421,13276
957.01,13277
909.6755,13278
865.18616,13279
902.9727,13280
879.5485,13281
905.981,13282
861.59894,13283
902.57745,13284
957.24615,13285
806.49335,13286
879.60706,13287
929.99615,13288
807.646,13289
757.43787,13290
797.4863,13291
762.30615,13292
797.1104,13293
801.4245,13294
716.91986,13295
727.4449,13296
706.0302,13297
769.02,13298
718.19684,13299
842.4318,13300
926.59607,13301
908.6449,13302
853.97375,13303
881.9531,13304
880.12665,13305
864.8651,13306
846.54736,13307
872.00604,13308
778.49084,13309
842.78046,13310
748.959,13311
721.7263,13312
694.46497,13313
674.25793,13314
678.6655,13315
698.43256,13316
611.1453,13317
674.98505,13318
860.7946,13319
1276.7682,13320
1177.0924,13321
1100.9266,13322
991.9857,13323
913.1054,13324
897.16315,13325
967.9995,13326
810.96643,13327
842.27527,13328
805.6985,13329
765.87177,13330
820.2178,13331
762.6686,13332
725.708,13333
793.82495,13334
733.4888,13335
688.9652,13336
737.6788,13337
702.7915,13338
705.86584,13339
774.74133,13340
701.2078,13341
1242.8724,13342
1144.4655,13343
1091.2063,13344
1013.1074,13345
1120.8944,13346
1036.4897,13347
1104.9833,13348
992.8839,13349
915.51636,13350
991.36084,13351
1037.4856,13352
1001.96234,13353
1043.9745,13354
1037.6398,13355
1011.1377,13356
995.8881,13357
991.0592,13358
1018.3152,13359
1075.8296,13360
937.4897,13361
959.46765,13362
1029.8365,13363
1005.921,13364
1003.51337,13365
991.9871,13366
1403.8972,13367
1316.1638,13368
1292.2706,13369
1270.3707,13370
1308.3242,13371
1325.2181,13372
1271.9573,13373
1194.4901,13374
1215.1079,13375
1157.4269,13376
1224.245,13377
1157.1427,13378
1156.1564,13379
1082.103,13380
1062.106,13381
1113.8204,13382
1096.4921,13383
1108.1526,13384
1046.0786,13385
1025.505,13386
1118.9044,13387
1229.5898,13388
1090.3413,13389
1107.0431,13390
1075.8278,13391
1106.4725,13392
1161.1935,13393
1149.2346,13394
1199.3928,13395
1115.2758,13396
1123.4934,13397
1131.0101,13398
1101.8456,13399
1070.5519,13400
1075.6466,13401
1029.4379,13402
1122.5812,13403
1269.4664,13404
1221.2544,13405
1082.0737,13406
1045.7417,13407
1053.9897,13408
1092.1732,13409
1041.611,13410
1050.0465,13411
1038.5195,13412
1139.8506,13413
1119.1998,13414
1123.7035,13415
1208.9218,13416
1061.639,13417
1000.44666,13418
950.5162,13419
954.5223,13420
909.4259,13421
971.724,13422
934.8609,13423
911.87115,13424
947.49615,13425
930.133,13426
920.57776,13427
1192.9639,13428
1100.4276,13429
1089.2748,13430
1070.95,13431
1045.169,13432
978.69226,13433
975.59235,13434
998.45435,13435
1050.6909,13436
961.4199,13437
919.0016,13438
956.1744,13439
1050.331,13440
1061.2327,13441
1004.84326,13442
932.2135,13443
964.0105,13444
861.1689,13445
820.56714,13446
911.4574,13447
899.782,13448
853.06134,13449
813.7411,13450
745.2412,13451
751.2566,13452
789.067,13453
738.28796,13454
789.23413,13455
816.60516,13456
829.3641,13457
716.5448,13458
810.4135,13459
740.4211,13460
755.9362,13461
760.04913,13462
655.9646,13463
689.70807,13464
760.30927,13465
660.0409,13466
709.02185,13467
696.86206,13468
699.7989,13469
768.6743,13470
723.3167,13471
687.0838,13472
753.62006,13473
726.2753,13474
734.2535,13475
770.3633,13476
754.6712,13477
745.1618,13478
788.20105,13479
757.5419,13480
758.64453,13481
820.8474,13482
728.6104,13483
808.04285,13484
806.4283,13485
843.4556,13486
875.8035,13487
812.3889,13488
753.2679,13489
732.3563,13490
745.9689,13491
749.17535,13492
848.0273,13493
696.9048,13494
747.6611,13495
794.1513,13496
723.27576,13497
722.73517,13498
766.2143,13499
748.83124,13500
742.098,13501
701.4564,13502
728.20386,13503
728.83044,13504
741.41205,13505
752.7287,13506
741.3074,13507
729.7826,13508
727.2874,13509
661.1685,13510
721.83154,13511
637.58295,13512
691.82324,13513
633.2869,13514
620.2563,13515
674.9581,13516
660.582,13517
606.72174,13518
600.2969,13519
554.8915,13520
610.6542,13521
566.9847,13522
592.7597,13523
571.8102,13524
595.5381,13525
526.58575,13526
564.61816,13527
555.8988,13528
601.0483,13529
573.8339,13530
579.5568,13531
594.1184,13532
561.91486,13533
563.74695,13534
627.0359,13535
620.38354,13536
571.2064,13537
578.496,13538
578.036,13539
627.62897,13540
616.3834,13541
568.0106,13542
603.15204,13543
623.657,13544
623.1818,13545
656.0786,13546
598.5083,13547
618.2983,13548
654.68,13549
635.9467,13550
617.0222,13551
650.50195,13552
648.9646,13553
630.96045,13554
623.6715,13555
589.44324,13556
661.4742,13557
611.1715,13558
625.3461,13559
646.9202,13560
585.63165,13561
576.5859,13562
587.3544,13563
596.7878,13564
648.8747,13565
611.5222,13566
563.9203,13567
623.26825,13568
596.5468,13569
614.7187,13570
665.3686,13571
633.8966,13572
662.5141,13573
684.89166,13574
673.7632,13575
581.4466,13576
516.2013,13577
536.3672,13578
511.05704,13579
478.34067,13580
476.2186,13581
431.084,13582
510.13788,13583
478.77158,13584
465.7054,13585
483.23636,13586
454.79724,13587
446.09467,13588
468.5285,13589
494.6438,13590
453.8511,13591
495.817,13592
469.98566,13593
479.41632,13594
486.8455,13595
419.2779,13596
480.69522,13597
438.13434,13598
431.98575,13599
494.30826,13600
448.76428,13601
459.0885,13602
492.89426,13603
519.6242,13604
497.51074,13605
504.05316,13606
452.1639,13607
512.6742,13608
469.90457,13609
449.94846,13610
501.47366,13611
469.85413,13612
493.69794,13613
480.51984,13614
480.14157,13615
489.85254,13616
518.9648,13617
458.94962,13618
447.16574,13619
450.46976,13620
423.46283,13621
469.9468,13622
439.06723,13623
436.57343,13624
476.99417,13625
463.35443,13626
466.53714,13627
536.8585,13628
472.17215,13629
450.8379,13630
527.3419,13631
449.98984,13632
484.16412,13633
507.83704,13634
447.06418,13635
560.30945,13636
536.9839,13637
435.65186,13638
518.484,13639
533.73724,13640
482.39526,13641
558.7984,13642
503.91806,13643
477.52744,13644
571.4345,13645
519.49677,13646
478.24695,13647
537.71686,13648
531.3868,13649
555.4638,13650
502.31354,13651
485.15475,13652
538.78516,13653
589.81494,13654
507.91205,13655
564.49457,13656
474.03354,13657
531.1962,13658
601.5657,13659
508.7973,13660
560.9561,13661
609.2326,13662
511.7567,13663
515.78644,13664
592.6248,13665
503.18423,13666
595.86334,13667
557.2014,13668
487.38654,13669
574.64557,13670
603.3053,13671
537.33215,13672
625.337,13673
523.14435,13674
565.6916,13675
602.87445,13676
527.87604,13677
589.4144,13678
677.8057,13679
541.29846,13680
665.41833,13681
607.822,13682
635.68506,13683
713.7927,13684
605.4035,13685
588.3248,13686
616.8785,13687
577.3827,13688
723.9201,13689
738.5572,13690
718.49646,13691
604.39386,13692
711.0202,13693
752.04346,13694
730.2686,13695
642.5616,13696
741.7018,13697
614.846,13698
461.43585,13699
472.49362,13700
444.49832,13701
420.92584,13702
438.00534,13703
460.87463,13704
422.07797,13705
388.05112,13706
451.70004,13707
397.82492,13708
429.46487,13709
463.0748,13710
374.0416,13711
463.491,13712
440.04736,13713
412.88757,13714
417.98203,13715
414.8906,13716
400.25024,13717
440.18738,13718
445.1303,13719
390.7692,13720
410.56403,13721
389.84445,13722
425.50092,13723
421.91718,13724
387.18115,13725
402.85098,13726
417.72504,13727
441.44742,13728
411.3126,13729
433.63055,13730
412.02167,13731
410.3638,13732
470.43475,13733
408.28397,13734
389.18738,13735
409.75763,13736
415.06537,13737
398.93515,13738
429.71487,13739
394.7701,13740
380.82904,13741
539.982,13742
510.67215,13743
557.4285,13744
567.6646,13745
467.70734,13746
544.9887,13747
532.2078,13748
510.15155,13749
583.46936,13750
583.9916,13751
617.898,13752
602.4452,13753
544.23364,13754
570.9839,13755
606.64923,13756
541.53046,13757
768.35895,13758
713.493,13759
567.41534,13760
581.1439,13761
632.0756,13762
589.89545,13763
586.29504,13764
552.8722,13765
560.2464,13766
540.70715,13767
520.50507,13768
496.49362,13769
481.00195,13770
533.8633,13771
476.3703,13772
557.20197,13773
519.3037,13774
470.6236,13775
537.03357,13776
483.05753,13777
450.74026,13778
463.2333,13779
414.0518,13780
483.66586,13781
469.1083,13782
428.38214,13783
446.03583,13784
463.57004,13785
428.78568,13786
496.1957,13787
435.4609,13788
443.00363,13789
472.3897,13790
419.3066,13791
449.3743,13792
414.206,13793
438.84326,13794
462.93027,13795
463.42813,13796
510.71442,13797
494.36444,13798
552.9065,13799
519.66187,13800
460.63345,13801
477.9223,13802
588.7713,13803
511.93506,13804
501.92206,13805
526.9802,13806
546.85016,13807
485.20676,13808
479.9763,13809
428.0268,13810
546.0947,13811
466.32013,13812
469.5567,13813
485.09323,13814
507.4406,13815
473.20792,13816
439.71295,13817
452.31927,13818
504.41486,13819
487.47076,13820
435.6232,13821
463.13074,13822
546.29407,13823
612.95605,13824
447.04688,13825
409.20288,13826
518.5136,13827
477.49655,13828
479.87634,13829
475.0904,13830
488.27075,13831
545.7698,13832
485.89053,13833
456.65298,13834
502.41812,13835
524.2123,13836
438.49765,13837
507.47327,13838
519.5313,13839
541.27856,13840
459.24258,13841
406.36792,13842
506.83,13843
514.8983,13844
477.27167,13845
490.55832,13846
470.88977,13847
594.937,13848
527.8079,13849
447.07208,13850
476.6292,13851
620.1852,13852
527.5606,13853
470.51755,13854
495.27423,13855
608.29675,13856
594.2831,13857
552.7007,13858
585.0666,13859
541.707,13860
572.06824,13861
592.05475,13862
543.63495,13863
545.11615,13864
511.63342,13865
510.12097,13866
537.88104,13867
479.01944,13868
510.127,13869
520.5671,13870
524.2204,13871
523.65936,13872
513.25183,13873
495.02393,13874
527.7591,13875
524.2576,13876
530.42487,13877
524.5431,13878
477.71918,13879
502.40482,13880
484.10333,13881
463.48404,13882
470.28986,13883
448.19943,13884
484.688,13885
470.40866,13886
478.2036,13887
501.4192,13888
458.26913,13889
484.1107,13890
547.24664,13891
494.0347,13892
493.52957,13893
546.586,13894
524.9393,13895
511.33536,13896
499.5043,13897
482.86328,13898
533.89075,13899
501.8305,13900
536.12573,13901
553.95764,13902
481.53528,13903
539.0482,13904
516.9233,13905
524.32324,13906
551.93243,13907
504.59604,13908
526.9967,13909
575.4698,13910
462.84824,13911
522.5454,13912
512.2319,13913
515.20593,13914
538.42566,13915
497.17688,13916
474.95065,13917
512.77277,13918
485.29166,13919
470.54538,13920
523.81885,13921
495.95255,13922
600.5274,13923
486.5297,13924
538.9844,13925
605.65576,13926
549.4734,13927
529.17883,13928
565.1473,13929
542.44275,13930
558.68286,13931
492.50473,13932
483.5141,13933
442.21786,13934
488.71405,13935
468.2964,13936
469.3259,13937
489.815,13938
440.1449,13939
386.60303,13940
398.19897,13941
425.51837,13942
376.7377,13943
378.97208,13944
399.6185,13945
449.11545,13946
386.06998,13947
414.076,13948
477.83978,13949
432.9727,13950
483.37628,13951
447.70056,13952
395.02304,13953
493.17227,13954
406.7979,13955
469.13483,13956
513.1865,13957
442.38098,13958
496.90628,13959
514.3087,13960
403.87524,13961
500.21472,13962
472.61072,13963
421.06784,13964
500.56763,13965
489.17496,13966
457.22604,13967
543.50085,13968
457.75247,13969
471.85745,13970
584.6775,13971
470.23602,13972
494.5053,13973
469.13205,13974
489.93726,13975
493.1205,13976
506.7506,13977
449.70932,13978
430.98926,13979
440.08084,13980
449.0773,13981
466.7668,13982
432.36868,13983
462.91757,13984
414.203,13985
419.258,13986
450.48978,13987
410.30933,13988
401.3351,13989
451.2151,13990
394.42996,13991
427.56396,13992
442.16196,13993
421.31546,13994
415.89783,13995
357.76263,13996
370.21808,13997
438.25876,13998
392.51886,13999
418.1062,14000
475.0844,14001
383.84763,14002
402.43704,14003
458.39563,14004
382.24844,14005
404.51932,14006
465.1304,14007
430.8107,14008
423.69626,14009
487.00256,14010
497.85794,14011
489.3383,14012
461.99323,14013
480.46854,14014
437.56662,14015
475.5577,14016
470.97333,14017
443.5101,14018
446.68878,14019
423.56424,14020
446.59576,14021
459.03543,14022
446.31677,14023
443.7249,14024
469.2124,14025
467.10446,14026
453.6688,14027
506.85342,14028
462.75598,14029
493.30356,14030
503.91754,14031
430.02588,14032
494.76617,14033
473.3376,14034
455.2864,14035
440.6963,14036
471.91183,14037
467.60025,14038
445.2468,14039
554.18744,14040
459.69824,14041
507.78156,14042
493.17075,14043
458.98572,14044
523.2641,14045
470.95505,14046
475.75967,14047
494.1862,14048
440.89563,14049
479.99078,14050
469.0736,14051
431.76166,14052
481.33084,14053
457.89648,14054
435.28308,14055
505.6447,14056
431.37753,14057
442.23975,14058
573.2285,14059
398.83643,14060
489.99503,14061
481.7673,14062
389.09528,14063
492.47684,14064
416.17154,14065
398.3431,14066
537.1924,14067
406.77042,14068
432.96228,14069
572.18304,14070
472.21466,14071
487.63928,14072
536.6515,14073
480.98355,14074
454.00305,14075
517.9157,14076
475.6671,14077
557.50336,14078
454.82822,14079
503.37842,14080
537.84875,14081
488.98907,14082
454.3972,14083
543.9657,14084
497.35507,14085
432.08627,14086
557.9334,14087
533.4278,14088
441.83664,14089
521.37305,14090
476.10797,14091
479.93,14092
514.79016,14093
468.95862,14094
506.08505,14095
485.13547,14096
483.83017,14097
569.82947,14098
466.0263,14099
485.45645,14100
532.9995,14101
503.26862,14102
502.9624,14103
456.28607,14104
436.8896,14105
464.7551,14106
440.7564,14107
456.4145,14108
508.2753,14109
473.92126,14110
496.3912,14111
479.92673,14112
469.03793,14113
527.34357,14114
476.69986,14115
423.6501,14116
447.4525,14117
431.65817,14118
454.88464,14119
475.4271,14120
482.20358,14121
538.9258,14122
487.99884,14123
442.346,14124
522.64557,14125
483.1888,14126
463.22577,14127
538.6312,14128
468.78635,14129
470.03146,14130
463.74506,14131
429.77747,14132
489.16098,14133
481.5287,14134
469.25043,14135
532.5559,14136
471.8589,14137
424.078,14138
551.68933,14139
456.76016,14140
487.25485,14141
579.4987,14142
511.30435,14143
431.9818,14144
513.6701,14145
489.03165,14146
546.36066,14147
555.29785,14148
421.12622,14149
495.11572,14150
519.54846,14151
475.01144,14152
501.3223,14153
491.54996,14154
479.44583,14155
523.54706,14156
490.1838,14157
500.31314,14158
464.6472,14159
490.58188,14160
534.5953,14161
478.1244,14162
464.98285,14163
477.34732,14164
425.97885,14165
456.63132,14166
516.83496,14167
491.7617,14168
491.78433,14169
487.63037,14170
472.48636,14171
480.14612,14172
445.73447,14173
481.16815,14174
523.01733,14175
464.6995,14176
511.01318,14177
518.79865,14178
461.05154,14179
506.4684,14180
504.77798,14181
411.27408,14182
517.01685,14183
463.10605,14184
485.0778,14185
500.5883,14186
410.5444,14187
542.9016,14188
499.7955,14189
470.10577,14190
559.3631,14191
549.05554,14192
423.33264,14193
487.62418,14194
532.2159,14195
518.28253,14196
496.10965,14197
503.65475,14198
480.2106,14199
529.28815,14200
438.76486,14201
424.132,14202
452.53397,14203
423.58188,14204
428.82727,14205
520.2137,14206
419.24133,14207
504.6566,14208
518.6697,14209
489.5912,14210
460.0986,14211
570.974,14212
545.6324,14213
440.92868,14214
473.33377,14215
457.72104,14216
475.7125,14217
524.42365,14218
440.26233,14219
455.6171,14220
468.85022,14221
437.10205,14222
618.88684,14223
488.189,14224
477.4713,14225
539.0919,14226
476.59286,14227
499.46228,14228
545.29663,14229
437.17996,14230
565.88416,14231
594.44714,14232
466.7014,14233
503.7485,14234
456.9053,14235
433.73352,14236
517.90204,14237
405.53348,14238
390.55148,14239
512.7667,14240
451.0081,14241
456.53458,14242
447.82318,14243
453.9662,14244
534.66016,14245
465.5641,14246
447.62814,14247
466.96863,14248
504.54083,14249
426.15283,14250
492.96063,14251
457.88156,14252
541.61804,14253
464.36844,14254
435.47263,14255
468.53522,14256
444.80258,14257
501.46967,14258
473.99957,14259
457.9616,14260
476.48416,14261
506.10226,14262
450.2526,14263
564.7618,14264
502.5782,14265
504.75995,14266
504.1901,14267
451.288,14268
533.03894,14269
447.16736,14270
444.37653,14271
525.76263,14272
422.81604,14273
442.7702,14274
556.4979,14275
476.85556,14276
494.78024,14277
574.8315,14278
472.2578,14279
473.16043,14280
456.2348,14281
449.18588,14282
557.35724,14283
481.53778,14284
572.1199,14285
535.1572,14286
566.5683,14287
504.54578,14288
566.1448,14289
556.54504,14290
534.86615,14291
516.5983,14292
535.2117,14293
525.6912,14294
517.47723,14295
582.4542,14296
599.0686,14297
494.2721,14298
605.0864,14299
512.1084,14300
538.539,14301
575.8935,14302
508.56168,14303
424.8083,14304
556.60864,14305
445.4309,14306
532.4293,14307
579.57556,14308
476.94565,14309
529.8743,14310
641.88916,14311
530.2325,14312
547.60785,14313
557.49243,14314
623.3001,14315
561.0927,14316
582.9566,14317
466.23505,14318
409.27655,14319
483.43222,14320
543.2399,14321
646.4941,14322
533.4649,14323
483.9451,14324
648.3539,14325
624.79395,14326
552.9602,14327
720.92267,14328
546.5953,14329
684.1945,14330
626.1935,14331
609.0834,14332
536.6322,14333
585.42676,14334
536.43365,14335
729.6536,14336
628.26385,14337
574.7005,14338
779.7157,14339
639.1486,14340
611.09985,14341
888.66656,14342
701.522,14343
720.93463,14344
819.1548,14345
652.7828,14346
797.6459,14347
712.85455,14348
655.7052,14349
716.7836,14350
752.5947,14351
757.51337,14352
909.7992,14353
754.7342,14354
707.6337,14355
952.69275,14356
893.2859,14357
873.834,14358
1158.9895,14359
1169.7147,14360
823.9758,14361
1115.4109,14362
1171.6725,14363
1025.1952,14364
749.2341,14365
1154.8625,14366
898.1619,14367
1156.088,14368
904.5589,14369
1138.924,14370
1529.4855,14371
773.4499,14372
805.787,14373
989.4685,14374
1139.1155,14375
1112.4244,14376
1272.7941,14377
999.07495,14378
1288.4492,14379
1159.058,14380
1189.3132,14381
1341.8604,14382
930.339,14383
1261.1013,14384
774.16003,14385
1268.8422,14386
1029.8573,14387
786.32355,14388
940.0608,14389
840.5218,14390
949.21375,14391
893.69214,14392
718.3218,14393
847.9543,14394
1011.9536,14395
723.3056,14396
834.5388,14397
759.9268,14398
939.9308,14399
904.10297,14400
1016.7889,14401
779.66754,14402
980.0803,14403
960.19995,14404
894.35284,14405
1060.2422,14406
687.6128,14407
912.11584,14408
985.0668,14409
897.43494,14410
681.8707,14411
843.0096,14412
874.61487,14413
833.98224,14414
625.32477,14415
686.1887,14416
946.4025,14417
1041.9819,14418
1086.5533,14419
880.6592,14420
844.3234,14421
892.79834,14422
1120.8868,14423
977.96716,14424
993.98737,14425
1136.3639,14426
1134.0343,14427
1174.8827,14428
969.60156,14429
1011.2624,14430
1128.4954,14431
847.95667,14432
740.48145,14433
1199.011,14434
1054.8573,14435
1000.1481,14436
1486.296,14437
825.9119,14438
884.3093,14439
1037.8602,14440
1140.5183,14441
1069.9644,14442
896.27716,14443
801.8034,14444
1252.5708,14445
1425.3687,14446
1095.0759,14447
832.71106,14448
1086.1865,14449
841.8942,14450
1167.8625,14451
1210.0597,14452
1020.4147,14453
1815.5232,14454
1230.7942,14455
1183.0471,14456
1176.4856,14457
884.1386,14458
1636.0272,14459
1186.2285,14460
1014.1583,14461
1326.5619,14462
1337.312,14463
1335.0251,14464
1086.9705,14465
1605.2771,14466
1280.9001,14467
1294.4282,14468
902.1191,14469
1448.6536,14470
1788.3229,14471
1602.1084,14472
1971.0946,14473
1642.8252,14474
1394.9375,14475
2362.264,14476
1865.6055,14477
1106.36,14478
1009.47473,14479
1277.5547,14480
1915.2327,14481
1972.6097,14482
1582.9296,14483
2000.4861,14484
1537.1807,14485
2045.5579,14486
1442.3027,14487
1586.6371,14488
2126.1924,14489
1295.3243,14490
1710.6852,14491
2483.4758,14492
1548.2114,14493
1319.8527,14494
1742.4408,14495
1988.4392,14496
3034.0728,14497
1464.2677,14498
3087.508,14499
2899.8657,14500
1959.9288,14501
1522.2524,14502
1656.1775,14503
3692.8909,14504
3327.7615,14505
2075.2266,14506
1741.7931,14507
2499.8035,14508
1589.4131,14509
1615.4854,14510
1716.8536,14511
1863.2678,14512
2366.8518,14513
2795.5842,14514
1619.2726,14515
1196.0337,14516
2023.9569,14517
2326.9104,14518
2164.771,14519
1912.2267,14520
1507.0034,14521
1334.1462,14522
2035.5383,14523
1446.2378,14524
1932.2089,14525
2175.8528,14526
1436.6737,14527
1208.0245,14528
1680.0562,14529
2401.967,14530
1010.0754,14531
2385.2502,14532
1150.3726,14533
1140.5244,14534
1072.9478,14535
2624.4673,14536
1323.4393,14537
1804.6515,14538
1105.4574,14539
765.16327,14540
1955.2781,14541
2199.988,14542
1529.7399,14543
1432.1906,14544
1045.3632,14545
858.61646,14546
2043.6978,14547
2722.7732,14548
2530.1716,14549
1162.564,14550
1264.3086,14551
1238.5801,14552
2042.0184,14553
1405.6289,14554
2107.1553,14555
1615.085,14556
1567.8788,14557
904.33356,14558
1194.8739,14559
2007.5879,14560
2028.8682,14561
2190.1934,14562
1969.6884,14563
2198.7952,14564
1846.9208,14565
1969.613,14566
2742.5354,14567
1816.9396,14568
1761.2648,14569
2437.788,14570
1304.0726,14571
2438.473,14572
1657.3679,14573
1383.6443,14574
2083.4019,14575
1566.6445,14576
1469.2128,14577
1694.6611,14578
1040.0941,14579
1500.8842,14580
2451.9797,14581
2304.5994,14582
1767.8467,14583
2344.383,14584
1989.8915,14585
2248.9937,14586
1978.809,14587
2933.8362,14588
2185.51,14589
2197.131,14590
1594.6937,14591
2186.942,14592
1184.2633,14593
1940.9945,14594
987.73987,14595
2159.08,14596
1211.4703,14597
1807.3616,14598
2685.9434,14599
1884.1549,14600
954.78766,14601
2350.2544,14602
1003.0261,14603
1268.9066,14604
1881.285,14605
2296.406,14606
2366.5847,14607
2679.9888,14608
1492.9783,14609
1498.0057,14610
1953.2482,14611
1798.4791,14612
2227.455,14613
1477.5487,14614
1821.3812,14615
2046.0787,14616
3443.205,14617
1515.3752,14618
1415.9427,14619
2589.291,14620
2287.1973,14621
1379.1447,14622
2404.8162,14623
2422.3342,14624
1510.913,14625
1286.7819,14626
1738.6664,14627
1199.5164,14628
1170.0201,14629
2439.6785,14630
1408.838,14631
2077.6165,14632
1637.2968,14633
1515.2274,14634
1789.5819,14635
2303.3127,14636
1992.9155,14637
1257.9277,14638
1924.6002,14639
1063.4852,14640
1664.0479,14641
2935.8677,14642
934.95905,14643
942.9843,14644
2281.9146,14645
1096.14,14646
1576.4781,14647
1834.0938,14648
2132.7197,14649
1820.4287,14650
3203.348,14651
1440.8802,14652
2333.828,14653
1256.346,14654
3170.92,14655
1685.6865,14656
1565.0569,14657
1409.0645,14658
1832.1012,14659
3538.3674,14660
2056.0068,14661
1267.7411,14662
959.0313,14663
1394.36,14664
1048.9774,14665
1810.1132,14666
2019.1742,14667
1364.8956,14668
1575.0475,14669
2040.6104,14670
1629.4194,14671
2971.0688,14672
3366.2866,14673
2783.3667,14674
1816.7274,14675
2247.2673,14676
1875.1058,14677
1483.1206,14678
1861.5582,14679
3364.2373,14680
1691.3237,14681
3061.3315,14682
2169.0918,14683
1985.6439,14684
1823.9885,14685
2498.6785,14686
1721.9376,14687
1223.253,14688
2139.2292,14689
1550.5453,14690
2380.5183,14691
2000.5438,14692
1904.6176,14693
1849.4741,14694
2915.8574,14695
1929.8865,14696
826.8643,14697
1074.1272,14698
1096.8087,14699
1277.0088,14700
1217.2943,14701
1979.258,14702
2728.643,14703
1672.8595,14704
2107.5342,14705
2445.887,14706
2452.911,14707
1352.1492,14708
1826.0774,14709
1301.0627,14710
1981.8254,14711
1746.7672,14712
2561.8123,14713
2302.6174,14714
1432.9724,14715
1398.4568,14716
1843.9271,14717
1365.7823,14718
2085.866,14719
1828.177,14720
