@RELATION 'Music feature'
%rows=1
%columns=14720
%sample_rate=22050
%window_size=512
%step_size=512

@ATTRIBUTE 'Low energy' NUMERIC
@ATTRIBUTE WindowNumber NUMERIC

@DATA
NaN,1
NaN,2
NaN,3
NaN,4
NaN,5
NaN,6
NaN,7
NaN,8
NaN,9
NaN,10
NaN,11
NaN,12
NaN,13
NaN,14
NaN,15
NaN,16
NaN,17
NaN,18
NaN,19
NaN,20
NaN,21
NaN,22
NaN,23
NaN,24
NaN,25
NaN,26
NaN,27
NaN,28
NaN,29
NaN,30
NaN,31
NaN,32
NaN,33
NaN,34
NaN,35
NaN,36
NaN,37
NaN,38
NaN,39
NaN,40
NaN,41
NaN,42
NaN,43
NaN,44
NaN,45
NaN,46
NaN,47
NaN,48
NaN,49
NaN,50
NaN,51
NaN,52
NaN,53
NaN,54
NaN,55
NaN,56
NaN,57
NaN,58
NaN,59
NaN,60
NaN,61
NaN,62
NaN,63
NaN,64
NaN,65
NaN,66
NaN,67
NaN,68
NaN,69
NaN,70
NaN,71
NaN,72
NaN,73
NaN,74
NaN,75
NaN,76
NaN,77
NaN,78
NaN,79
NaN,80
NaN,81
NaN,82
NaN,83
NaN,84
NaN,85
NaN,86
NaN,87
NaN,88
NaN,89
NaN,90
NaN,91
NaN,92
NaN,93
NaN,94
NaN,95
NaN,96
NaN,97
NaN,98
NaN,99
0.65,100
0.65,101
0.64,102
0.65,103
0.65,104
0.64,105
0.65,106
0.64,107
0.63,108
0.64,109
0.63,110
0.62,111
0.61,112
0.6,113
0.6,114
0.6,115
0.6,116
0.6,117
0.6,118
0.6,119
0.6,120
0.6,121
0.61,122
0.62,123
0.62,124
0.63,125
0.62,126
0.62,127
0.63,128
0.63,129
0.62,130
0.62,131
0.62,132
0.63,133
0.62,134
0.62,135
0.62,136
0.62,137
0.62,138
0.61,139
0.62,140
0.61,141
0.6,142
0.6,143
0.6,144
0.6,145
0.6,146
0.59,147
0.58,148
0.57,149
0.58,150
0.59,151
0.58,152
0.58,153
0.58,154
0.58,155
0.58,156
0.57,157
0.56,158
0.55,159
0.55,160
0.54,161
0.53,162
0.53,163
0.54,164
0.55,165
0.55,166
0.55,167
0.55,168
0.55,169
0.55,170
0.55,171
0.56,172
0.57,173
0.58,174
0.57,175
0.59,176
0.6,177
0.59,178
0.58,179
0.6,180
0.6,181
0.59,182
0.6,183
0.6,184
0.59,185
0.59,186
0.6,187
0.6,188
0.6,189
0.6,190
0.62,191
0.62,192
0.62,193
0.63,194
0.63,195
0.63,196
0.63,197
0.63,198
0.63,199
0.63,200
0.62,201
0.63,202
0.64,203
0.64,204
0.64,205
0.63,206
0.62,207
0.61,208
0.61,209
0.61,210
0.62,211
0.62,212
0.62,213
0.62,214
0.62,215
0.63,216
0.63,217
0.63,218
0.62,219
0.61,220
0.6,221
0.59,222
0.59,223
0.59,224
0.59,225
0.59,226
0.59,227
0.59,228
0.6,229
0.6,230
0.6,231
0.6,232
0.6,233
0.61,234
0.61,235
0.61,236
0.61,237
0.6,238
0.59,239
0.58,240
0.57,241
0.58,242
0.57,243
0.56,244
0.57,245
0.57,246
0.56,247
0.58,248
0.57,249
0.57,250
0.57,251
0.57,252
0.57,253
0.57,254
0.57,255
0.57,256
0.58,257
0.58,258
0.59,259
0.58,260
0.58,261
0.58,262
0.58,263
0.58,264
0.58,265
0.58,266
0.58,267
0.58,268
0.58,269
0.58,270
0.58,271
0.58,272
0.58,273
0.58,274
0.58,275
0.59,276
0.6,277
0.59,278
0.59,279
0.6,280
0.61,281
0.61,282
0.62,283
0.62,284
0.63,285
0.61,286
0.61,287
0.61,288
0.61,289
0.61,290
0.63,291
0.63,292
0.63,293
0.63,294
0.64,295
0.64,296
0.64,297
0.64,298
0.64,299
0.64,300
0.64,301
0.64,302
0.64,303
0.64,304
0.64,305
0.65,306
0.64,307
0.64,308
0.64,309
0.64,310
0.62,311
0.62,312
0.62,313
0.62,314
0.62,315
0.62,316
0.62,317
0.62,318
0.63,319
0.64,320
0.65,321
0.66,322
0.67,323
0.67,324
0.67,325
0.67,326
0.68,327
0.69,328
0.68,329
0.68,330
0.69,331
0.7,332
0.71,333
0.69,334
0.7,335
0.7,336
0.71,337
0.69,338
0.69,339
0.68,340
0.69,341
0.68,342
0.65,343
0.65,344
0.66,345
0.67,346
0.67,347
0.68,348
0.67,349
0.65,350
0.65,351
0.63,352
0.63,353
0.64,354
0.65,355
0.65,356
0.66,357
0.62,358
0.61,359
0.61,360
0.59,361
0.6,362
0.6,363
0.61,364
0.62,365
0.62,366
0.63,367
0.63,368
0.62,369
0.61,370
0.6,371
0.61,372
0.61,373
0.62,374
0.68,375
0.68,376
0.67,377
0.67,378
0.67,379
0.67,380
0.66,381
0.66,382
0.66,383
0.66,384
0.67,385
0.66,386
0.66,387
0.66,388
0.66,389
0.66,390
0.67,391
0.69,392
0.7,393
0.7,394
0.71,395
0.74,396
0.73,397
0.72,398
0.71,399
0.7,400
0.7,401
0.71,402
0.72,403
0.71,404
0.7,405
0.7,406
0.69,407
0.68,408
0.69,409
0.69,410
0.68,411
0.68,412
0.69,413
0.68,414
0.67,415
0.66,416
0.65,417
0.64,418
0.63,419
0.63,420
0.63,421
0.63,422
0.63,423
0.62,424
0.61,425
0.6,426
0.6,427
0.6,428
0.61,429
0.6,430
0.59,431
0.58,432
0.57,433
0.56,434
0.55,435
0.55,436
0.55,437
0.54,438
0.53,439
0.54,440
0.54,441
0.54,442
0.54,443
0.54,444
0.54,445
0.54,446
0.54,447
0.54,448
0.54,449
0.53,450
0.53,451
0.53,452
0.53,453
0.52,454
0.53,455
0.53,456
0.54,457
0.54,458
0.54,459
0.54,460
0.54,461
0.54,462
0.54,463
0.54,464
0.54,465
0.55,466
0.55,467
0.56,468
0.58,469
0.57,470
0.57,471
0.56,472
0.58,473
0.59,474
0.59,475
0.59,476
0.59,477
0.6,478
0.59,479
0.59,480
0.6,481
0.61,482
0.61,483
0.61,484
0.61,485
0.61,486
0.61,487
0.61,488
0.61,489
0.61,490
0.61,491
0.61,492
0.62,493
0.62,494
0.62,495
0.61,496
0.6,497
0.59,498
0.59,499
0.58,500
0.58,501
0.59,502
0.59,503
0.59,504
0.59,505
0.6,506
0.61,507
0.6,508
0.61,509
0.62,510
0.63,511
0.63,512
0.62,513
0.62,514
0.63,515
0.64,516
0.63,517
0.62,518
0.61,519
0.61,520
0.59,521
0.61,522
0.62,523
0.63,524
0.63,525
0.63,526
0.63,527
0.67,528
0.68,529
0.69,530
0.68,531
0.68,532
0.68,533
0.67,534
0.67,535
0.7,536
0.69,537
0.68,538
0.67,539
0.67,540
0.66,541
0.65,542
0.64,543
0.63,544
0.63,545
0.62,546
0.62,547
0.61,548
0.61,549
0.6,550
0.6,551
0.6,552
0.6,553
0.6,554
0.6,555
0.6,556
0.6,557
0.6,558
0.6,559
0.6,560
0.6,561
0.6,562
0.6,563
0.6,564
0.6,565
0.6,566
0.6,567
0.6,568
0.61,569
0.6,570
0.6,571
0.6,572
0.6,573
0.6,574
0.6,575
0.6,576
0.6,577
0.6,578
0.6,579
0.6,580
0.6,581
0.6,582
0.6,583
0.6,584
0.6,585
0.6,586
0.6,587
0.6,588
0.6,589
0.6,590
0.6,591
0.6,592
0.6,593
0.61,594
0.61,595
0.62,596
0.63,597
0.64,598
0.65,599
0.66,600
0.67,601
0.66,602
0.65,603
0.65,604
0.64,605
0.64,606
0.63,607
0.63,608
0.63,609
0.64,610
0.63,611
0.63,612
0.63,613
0.63,614
0.63,615
0.63,616
0.64,617
0.65,618
0.66,619
0.67,620
0.68,621
0.68,622
0.69,623
0.7,624
0.71,625
0.72,626
0.72,627
0.73,628
0.74,629
0.75,630
0.76,631
0.76,632
0.74,633
0.74,634
0.73,635
0.72,636
0.73,637
0.72,638
0.71,639
0.71,640
0.7,641
0.69,642
0.69,643
0.68,644
0.69,645
0.7,646
0.71,647
0.7,648
0.66,649
0.65,650
0.63,651
0.6,652
0.61,653
0.6,654
0.59,655
0.58,656
0.57,657
0.58,658
0.57,659
0.55,660
0.56,661
0.54,662
0.53,663
0.54,664
0.54,665
0.55,666
0.55,667
0.56,668
0.57,669
0.58,670
0.57,671
0.58,672
0.59,673
0.59,674
0.59,675
0.58,676
0.59,677
0.58,678
0.59,679
0.59,680
0.6,681
0.59,682
0.6,683
0.58,684
0.59,685
0.59,686
0.6,687
0.59,688
0.59,689
0.6,690
0.6,691
0.6,692
0.6,693
0.6,694
0.6,695
0.61,696
0.61,697
0.62,698
0.62,699
0.63,700
0.63,701
0.63,702
0.63,703
0.63,704
0.63,705
0.63,706
0.63,707
0.63,708
0.63,709
0.63,710
0.63,711
0.63,712
0.63,713
0.63,714
0.63,715
0.64,716
0.63,717
0.64,718
0.65,719
0.69,720
0.69,721
0.71,722
0.71,723
0.72,724
0.73,725
0.75,726
0.74,727
0.73,728
0.72,729
0.71,730
0.7,731
0.69,732
0.68,733
0.67,734
0.66,735
0.66,736
0.67,737
0.67,738
0.67,739
0.68,740
0.69,741
0.7,742
0.7,743
0.72,744
0.74,745
0.74,746
0.73,747
0.73,748
0.73,749
0.73,750
0.72,751
0.71,752
0.7,753
0.69,754
0.69,755
0.68,756
0.67,757
0.66,758
0.66,759
0.66,760
0.65,761
0.65,762
0.65,763
0.65,764
0.65,765
0.64,766
0.64,767
0.63,768
0.62,769
0.61,770
0.63,771
0.62,772
0.64,773
0.64,774
0.64,775
0.64,776
0.63,777
0.62,778
0.61,779
0.6,780
0.59,781
0.58,782
0.57,783
0.58,784
0.58,785
0.58,786
0.58,787
0.58,788
0.58,789
0.58,790
0.58,791
0.58,792
0.58,793
0.59,794
0.59,795
0.59,796
0.59,797
0.59,798
0.59,799
0.59,800
0.61,801
0.6,802
0.59,803
0.59,804
0.59,805
0.58,806
0.59,807
0.58,808
0.58,809
0.57,810
0.56,811
0.55,812
0.55,813
0.55,814
0.56,815
0.56,816
0.58,817
0.58,818
0.57,819
0.57,820
0.58,821
0.59,822
0.59,823
0.6,824
0.6,825
0.6,826
0.6,827
0.6,828
0.6,829
0.6,830
0.6,831
0.6,832
0.6,833
0.6,834
0.6,835
0.6,836
0.61,837
0.61,838
0.61,839
0.62,840
0.61,841
0.62,842
0.63,843
0.63,844
0.64,845
0.65,846
0.65,847
0.65,848
0.65,849
0.66,850
0.67,851
0.67,852
0.68,853
0.68,854
0.68,855
0.68,856
0.68,857
0.68,858
0.68,859
0.68,860
0.68,861
0.68,862
0.68,863
0.68,864
0.67,865
0.67,866
0.68,867
0.68,868
0.66,869
0.67,870
0.66,871
0.64,872
0.61,873
0.61,874
0.61,875
0.62,876
0.6,877
0.59,878
0.6,879
0.59,880
0.6,881
0.6,882
0.61,883
0.62,884
0.63,885
0.63,886
0.63,887
0.63,888
0.63,889
0.63,890
0.63,891
0.62,892
0.61,893
0.61,894
0.6,895
0.6,896
0.59,897
0.6,898
0.59,899
0.59,900
0.59,901
0.58,902
0.59,903
0.57,904
0.57,905
0.56,906
0.56,907
0.56,908
0.56,909
0.56,910
0.56,911
0.56,912
0.56,913
0.56,914
0.56,915
0.56,916
0.56,917
0.56,918
0.57,919
0.58,920
0.58,921
0.59,922
0.6,923
0.61,924
0.62,925
0.62,926
0.63,927
0.64,928
0.65,929
0.66,930
0.66,931
0.67,932
0.68,933
0.68,934
0.67,935
0.67,936
0.67,937
0.68,938
0.67,939
0.66,940
0.65,941
0.64,942
0.63,943
0.62,944
0.61,945
0.6,946
0.59,947
0.6,948
0.61,949
0.62,950
0.62,951
0.62,952
0.62,953
0.62,954
0.62,955
0.62,956
0.62,957
0.62,958
0.62,959
0.62,960
0.62,961
0.62,962
0.62,963
0.62,964
0.62,965
0.62,966
0.62,967
0.62,968
0.62,969
0.62,970
0.62,971
0.62,972
0.62,973
0.62,974
0.62,975
0.62,976
0.62,977
0.62,978
0.62,979
0.62,980
0.62,981
0.62,982
0.62,983
0.62,984
0.62,985
0.62,986
0.62,987
0.62,988
0.62,989
0.62,990
0.61,991
0.61,992
0.61,993
0.61,994
0.6,995
0.6,996
0.6,997
0.6,998
0.6,999
0.6,1000
0.61,1001
0.62,1002
0.63,1003
0.63,1004
0.63,1005
0.63,1006
0.61,1007
0.61,1008
0.61,1009
0.61,1010
0.61,1011
0.61,1012
0.61,1013
0.62,1014
0.62,1015
0.62,1016
0.63,1017
0.64,1018
0.64,1019
0.63,1020
0.63,1021
0.63,1022
0.63,1023
0.63,1024
0.63,1025
0.63,1026
0.62,1027
0.64,1028
0.64,1029
0.64,1030
0.64,1031
0.63,1032
0.62,1033
0.62,1034
0.61,1035
0.6,1036
0.61,1037
0.6,1038
0.6,1039
0.6,1040
0.6,1041
0.6,1042
0.6,1043
0.6,1044
0.6,1045
0.61,1046
0.62,1047
0.63,1048
0.63,1049
0.63,1050
0.63,1051
0.63,1052
0.63,1053
0.63,1054
0.63,1055
0.63,1056
0.63,1057
0.64,1058
0.65,1059
0.64,1060
0.64,1061
0.63,1062
0.62,1063
0.62,1064
0.63,1065
0.63,1066
0.62,1067
0.62,1068
0.62,1069
0.63,1070
0.62,1071
0.63,1072
0.63,1073
0.66,1074
0.68,1075
0.69,1076
0.69,1077
0.69,1078
0.68,1079
0.67,1080
0.67,1081
0.66,1082
0.67,1083
0.67,1084
0.67,1085
0.67,1086
0.66,1087
0.66,1088
0.65,1089
0.65,1090
0.65,1091
0.64,1092
0.63,1093
0.62,1094
0.62,1095
0.61,1096
0.6,1097
0.59,1098
0.58,1099
0.57,1100
0.56,1101
0.56,1102
0.57,1103
0.56,1104
0.55,1105
0.54,1106
0.53,1107
0.52,1108
0.52,1109
0.51,1110
0.5,1111
0.5,1112
0.49,1113
0.48,1114
0.47,1115
0.47,1116
0.47,1117
0.48,1118
0.48,1119
0.49,1120
0.49,1121
0.5,1122
0.51,1123
0.51,1124
0.51,1125
0.51,1126
0.51,1127
0.51,1128
0.52,1129
0.51,1130
0.51,1131
0.52,1132
0.51,1133
0.51,1134
0.51,1135
0.51,1136
0.51,1137
0.51,1138
0.51,1139
0.51,1140
0.51,1141
0.51,1142
0.51,1143
0.51,1144
0.52,1145
0.52,1146
0.52,1147
0.53,1148
0.53,1149
0.53,1150
0.54,1151
0.54,1152
0.54,1153
0.54,1154
0.54,1155
0.55,1156
0.56,1157
0.56,1158
0.56,1159
0.56,1160
0.58,1161
0.59,1162
0.59,1163
0.59,1164
0.59,1165
0.58,1166
0.57,1167
0.56,1168
0.55,1169
0.55,1170
0.56,1171
0.55,1172
0.55,1173
0.55,1174
0.55,1175
0.55,1176
0.55,1177
0.55,1178
0.55,1179
0.54,1180
0.54,1181
0.54,1182
0.54,1183
0.53,1184
0.53,1185
0.54,1186
0.55,1187
0.55,1188
0.56,1189
0.57,1190
0.57,1191
0.57,1192
0.57,1193
0.57,1194
0.57,1195
0.56,1196
0.56,1197
0.56,1198
0.56,1199
0.57,1200
0.57,1201
0.58,1202
0.59,1203
0.59,1204
0.6,1205
0.61,1206
0.61,1207
0.62,1208
0.62,1209
0.63,1210
0.63,1211
0.64,1212
0.65,1213
0.66,1214
0.66,1215
0.67,1216
0.65,1217
0.65,1218
0.65,1219
0.64,1220
0.65,1221
0.64,1222
0.64,1223
0.64,1224
0.64,1225
0.64,1226
0.64,1227
0.64,1228
0.64,1229
0.64,1230
0.64,1231
0.64,1232
0.63,1233
0.62,1234
0.62,1235
0.62,1236
0.61,1237
0.61,1238
0.61,1239
0.61,1240
0.61,1241
0.61,1242
0.61,1243
0.61,1244
0.6,1245
0.61,1246
0.61,1247
0.6,1248
0.59,1249
0.59,1250
0.59,1251
0.59,1252
0.59,1253
0.59,1254
0.59,1255
0.59,1256
0.6,1257
0.6,1258
0.61,1259
0.61,1260
0.58,1261
0.55,1262
0.55,1263
0.54,1264
0.55,1265
0.55,1266
0.53,1267
0.52,1268
0.52,1269
0.51,1270
0.5,1271
0.5,1272
0.5,1273
0.49,1274
0.5,1275
0.51,1276
0.52,1277
0.52,1278
0.53,1279
0.53,1280
0.54,1281
0.55,1282
0.55,1283
0.55,1284
0.56,1285
0.56,1286
0.57,1287
0.58,1288
0.58,1289
0.59,1290
0.57,1291
0.58,1292
0.59,1293
0.59,1294
0.59,1295
0.59,1296
0.59,1297
0.59,1298
0.59,1299
0.59,1300
0.59,1301
0.59,1302
0.6,1303
0.6,1304
0.6,1305
0.58,1306
0.57,1307
0.57,1308
0.57,1309
0.56,1310
0.56,1311
0.56,1312
0.56,1313
0.56,1314
0.56,1315
0.56,1316
0.55,1317
0.54,1318
0.54,1319
0.54,1320
0.55,1321
0.56,1322
0.56,1323
0.56,1324
0.54,1325
0.55,1326
0.56,1327
0.56,1328
0.56,1329
0.55,1330
0.55,1331
0.56,1332
0.57,1333
0.56,1334
0.56,1335
0.57,1336
0.56,1337
0.56,1338
0.57,1339
0.57,1340
0.58,1341
0.58,1342
0.59,1343
0.6,1344
0.61,1345
0.62,1346
0.63,1347
0.63,1348
0.64,1349
0.65,1350
0.65,1351
0.66,1352
0.67,1353
0.66,1354
0.67,1355
0.67,1356
0.67,1357
0.66,1358
0.65,1359
0.63,1360
0.63,1361
0.61,1362
0.61,1363
0.62,1364
0.61,1365
0.61,1366
0.6,1367
0.59,1368
0.59,1369
0.58,1370
0.58,1371
0.57,1372
0.57,1373
0.58,1374
0.58,1375
0.58,1376
0.58,1377
0.56,1378
0.56,1379
0.56,1380
0.56,1381
0.54,1382
0.54,1383
0.55,1384
0.56,1385
0.56,1386
0.55,1387
0.56,1388
0.56,1389
0.56,1390
0.57,1391
0.55,1392
0.54,1393
0.54,1394
0.54,1395
0.53,1396
0.53,1397
0.52,1398
0.5,1399
0.5,1400
0.51,1401
0.51,1402
0.51,1403
0.52,1404
0.53,1405
0.52,1406
0.52,1407
0.52,1408
0.51,1409
0.5,1410
0.5,1411
0.51,1412
0.52,1413
0.53,1414
0.54,1415
0.55,1416
0.56,1417
0.56,1418
0.54,1419
0.54,1420
0.54,1421
0.55,1422
0.54,1423
0.55,1424
0.55,1425
0.56,1426
0.57,1427
0.57,1428
0.58,1429
0.58,1430
0.59,1431
0.6,1432
0.61,1433
0.62,1434
0.62,1435
0.63,1436
0.65,1437
0.68,1438
0.73,1439
0.74,1440
0.74,1441
0.74,1442
0.74,1443
0.75,1444
0.76,1445
0.77,1446
0.77,1447
0.77,1448
0.77,1449
0.77,1450
0.8,1451
0.82,1452
0.81,1453
0.82,1454
0.81,1455
0.8,1456
0.79,1457
0.78,1458
0.77,1459
0.78,1460
0.78,1461
0.79,1462
0.78,1463
0.77,1464
0.76,1465
0.75,1466
0.74,1467
0.73,1468
0.72,1469
0.71,1470
0.7,1471
0.69,1472
0.68,1473
0.7,1474
0.69,1475
0.68,1476
0.67,1477
0.66,1478
0.65,1479
0.64,1480
0.64,1481
0.64,1482
0.63,1483
0.62,1484
0.62,1485
0.62,1486
0.61,1487
0.61,1488
0.6,1489
0.6,1490
0.59,1491
0.59,1492
0.59,1493
0.58,1494
0.57,1495
0.57,1496
0.56,1497
0.57,1498
0.58,1499
0.57,1500
0.58,1501
0.58,1502
0.58,1503
0.58,1504
0.59,1505
0.58,1506
0.57,1507
0.56,1508
0.56,1509
0.57,1510
0.56,1511
0.56,1512
0.57,1513
0.58,1514
0.58,1515
0.58,1516
0.58,1517
0.58,1518
0.58,1519
0.58,1520
0.58,1521
0.58,1522
0.58,1523
0.58,1524
0.58,1525
0.58,1526
0.58,1527
0.59,1528
0.59,1529
0.59,1530
0.61,1531
0.6,1532
0.59,1533
0.58,1534
0.58,1535
0.57,1536
0.57,1537
0.57,1538
0.57,1539
0.56,1540
0.55,1541
0.55,1542
0.55,1543
0.55,1544
0.55,1545
0.56,1546
0.57,1547
0.58,1548
0.58,1549
0.57,1550
0.57,1551
0.57,1552
0.58,1553
0.57,1554
0.57,1555
0.58,1556
0.59,1557
0.59,1558
0.58,1559
0.59,1560
0.58,1561
0.58,1562
0.58,1563
0.57,1564
0.57,1565
0.58,1566
0.58,1567
0.58,1568
0.58,1569
0.59,1570
0.58,1571
0.54,1572
0.55,1573
0.55,1574
0.56,1575
0.57,1576
0.58,1577
0.58,1578
0.57,1579
0.57,1580
0.57,1581
0.56,1582
0.55,1583
0.54,1584
0.54,1585
0.54,1586
0.54,1587
0.55,1588
0.56,1589
0.56,1590
0.56,1591
0.57,1592
0.57,1593
0.57,1594
0.57,1595
0.57,1596
0.57,1597
0.57,1598
0.58,1599
0.58,1600
0.58,1601
0.58,1602
0.58,1603
0.57,1604
0.57,1605
0.57,1606
0.57,1607
0.57,1608
0.57,1609
0.57,1610
0.57,1611
0.58,1612
0.59,1613
0.59,1614
0.59,1615
0.59,1616
0.59,1617
0.59,1618
0.61,1619
0.61,1620
0.61,1621
0.61,1622
0.61,1623
0.61,1624
0.61,1625
0.62,1626
0.61,1627
0.6,1628
0.59,1629
0.59,1630
0.6,1631
0.6,1632
0.6,1633
0.61,1634
0.62,1635
0.62,1636
0.63,1637
0.61,1638
0.61,1639
0.61,1640
0.62,1641
0.63,1642
0.62,1643
0.61,1644
0.61,1645
0.61,1646
0.61,1647
0.6,1648
0.61,1649
0.61,1650
0.61,1651
0.62,1652
0.62,1653
0.62,1654
0.62,1655
0.62,1656
0.62,1657
0.62,1658
0.62,1659
0.62,1660
0.62,1661
0.62,1662
0.62,1663
0.62,1664
0.61,1665
0.6,1666
0.59,1667
0.58,1668
0.58,1669
0.59,1670
0.59,1671
0.59,1672
0.59,1673
0.59,1674
0.6,1675
0.6,1676
0.6,1677
0.61,1678
0.61,1679
0.61,1680
0.62,1681
0.63,1682
0.64,1683
0.65,1684
0.66,1685
0.65,1686
0.65,1687
0.64,1688
0.64,1689
0.64,1690
0.64,1691
0.64,1692
0.63,1693
0.62,1694
0.62,1695
0.62,1696
0.64,1697
0.66,1698
0.66,1699
0.66,1700
0.66,1701
0.66,1702
0.66,1703
0.66,1704
0.67,1705
0.68,1706
0.67,1707
0.65,1708
0.64,1709
0.64,1710
0.64,1711
0.63,1712
0.63,1713
0.63,1714
0.63,1715
0.63,1716
0.62,1717
0.63,1718
0.63,1719
0.63,1720
0.63,1721
0.63,1722
0.63,1723
0.63,1724
0.63,1725
0.63,1726
0.62,1727
0.63,1728
0.64,1729
0.64,1730
0.63,1731
0.63,1732
0.62,1733
0.62,1734
0.61,1735
0.61,1736
0.61,1737
0.61,1738
0.62,1739
0.62,1740
0.63,1741
0.64,1742
0.65,1743
0.66,1744
0.67,1745
0.67,1746
0.67,1747
0.68,1748
0.67,1749
0.66,1750
0.67,1751
0.66,1752
0.64,1753
0.65,1754
0.66,1755
0.67,1756
0.67,1757
0.66,1758
0.66,1759
0.66,1760
0.64,1761
0.64,1762
0.64,1763
0.62,1764
0.63,1765
0.63,1766
0.63,1767
0.63,1768
0.63,1769
0.64,1770
0.62,1771
0.63,1772
0.63,1773
0.62,1774
0.62,1775
0.63,1776
0.62,1777
0.62,1778
0.63,1779
0.61,1780
0.61,1781
0.62,1782
0.62,1783
0.62,1784
0.64,1785
0.65,1786
0.67,1787
0.67,1788
0.67,1789
0.66,1790
0.66,1791
0.66,1792
0.66,1793
0.66,1794
0.67,1795
0.65,1796
0.64,1797
0.64,1798
0.64,1799
0.65,1800
0.68,1801
0.68,1802
0.69,1803
0.69,1804
0.69,1805
0.7,1806
0.7,1807
0.71,1808
0.71,1809
0.71,1810
0.7,1811
0.69,1812
0.68,1813
0.67,1814
0.67,1815
0.66,1816
0.67,1817
0.69,1818
0.72,1819
0.73,1820
0.72,1821
0.73,1822
0.72,1823
0.71,1824
0.7,1825
0.7,1826
0.69,1827
0.68,1828
0.67,1829
0.67,1830
0.66,1831
0.65,1832
0.64,1833
0.64,1834
0.63,1835
0.62,1836
0.63,1837
0.62,1838
0.61,1839
0.6,1840
0.59,1841
0.58,1842
0.57,1843
0.56,1844
0.56,1845
0.55,1846
0.54,1847
0.53,1848
0.52,1849
0.52,1850
0.51,1851
0.51,1852
0.5,1853
0.49,1854
0.49,1855
0.49,1856
0.49,1857
0.49,1858
0.49,1859
0.49,1860
0.49,1861
0.49,1862
0.49,1863
0.5,1864
0.49,1865
0.49,1866
0.49,1867
0.49,1868
0.49,1869
0.49,1870
0.49,1871
0.5,1872
0.51,1873
0.51,1874
0.51,1875
0.51,1876
0.51,1877
0.53,1878
0.53,1879
0.53,1880
0.53,1881
0.53,1882
0.53,1883
0.53,1884
0.53,1885
0.54,1886
0.55,1887
0.54,1888
0.53,1889
0.53,1890
0.53,1891
0.55,1892
0.55,1893
0.55,1894
0.55,1895
0.54,1896
0.53,1897
0.55,1898
0.56,1899
0.56,1900
0.56,1901
0.56,1902
0.56,1903
0.55,1904
0.55,1905
0.54,1906
0.55,1907
0.56,1908
0.56,1909
0.57,1910
0.56,1911
0.56,1912
0.56,1913
0.55,1914
0.56,1915
0.57,1916
0.57,1917
0.55,1918
0.53,1919
0.51,1920
0.5,1921
0.51,1922
0.51,1923
0.5,1924
0.51,1925
0.49,1926
0.49,1927
0.48,1928
0.45,1929
0.46,1930
0.47,1931
0.47,1932
0.48,1933
0.49,1934
0.49,1935
0.49,1936
0.48,1937
0.49,1938
0.49,1939
0.49,1940
0.49,1941
0.5,1942
0.5,1943
0.5,1944
0.5,1945
0.5,1946
0.51,1947
0.52,1948
0.53,1949
0.54,1950
0.54,1951
0.53,1952
0.53,1953
0.54,1954
0.54,1955
0.54,1956
0.53,1957
0.52,1958
0.51,1959
0.5,1960
0.5,1961
0.5,1962
0.52,1963
0.52,1964
0.54,1965
0.54,1966
0.53,1967
0.54,1968
0.53,1969
0.52,1970
0.52,1971
0.52,1972
0.51,1973
0.52,1974
0.53,1975
0.54,1976
0.54,1977
0.54,1978
0.56,1979
0.57,1980
0.57,1981
0.58,1982
0.58,1983
0.58,1984
0.58,1985
0.6,1986
0.59,1987
0.58,1988
0.6,1989
0.6,1990
0.6,1991
0.6,1992
0.6,1993
0.6,1994
0.59,1995
0.59,1996
0.59,1997
0.6,1998
0.61,1999
0.62,2000
0.63,2001
0.64,2002
0.64,2003
0.63,2004
0.62,2005
0.62,2006
0.62,2007
0.62,2008
0.61,2009
0.6,2010
0.6,2011
0.6,2012
0.61,2013
0.62,2014
0.63,2015
0.63,2016
0.63,2017
0.63,2018
0.62,2019
0.61,2020
0.62,2021
0.61,2022
0.6,2023
0.57,2024
0.57,2025
0.58,2026
0.58,2027
0.58,2028
0.57,2029
0.57,2030
0.56,2031
0.56,2032
0.56,2033
0.56,2034
0.56,2035
0.56,2036
0.55,2037
0.53,2038
0.52,2039
0.51,2040
0.48,2041
0.48,2042
0.49,2043
0.49,2044
0.49,2045
0.49,2046
0.49,2047
0.49,2048
0.49,2049
0.49,2050
0.5,2051
0.51,2052
0.51,2053
0.5,2054
0.5,2055
0.51,2056
0.52,2057
0.53,2058
0.54,2059
0.54,2060
0.55,2061
0.56,2062
0.55,2063
0.55,2064
0.56,2065
0.56,2066
0.56,2067
0.55,2068
0.55,2069
0.55,2070
0.54,2071
0.55,2072
0.56,2073
0.57,2074
0.56,2075
0.57,2076
0.57,2077
0.55,2078
0.55,2079
0.56,2080
0.56,2081
0.57,2082
0.58,2083
0.59,2084
0.6,2085
0.61,2086
0.62,2087
0.62,2088
0.63,2089
0.64,2090
0.65,2091
0.65,2092
0.66,2093
0.67,2094
0.67,2095
0.68,2096
0.66,2097
0.67,2098
0.68,2099
0.67,2100
0.68,2101
0.69,2102
0.68,2103
0.68,2104
0.65,2105
0.63,2106
0.62,2107
0.62,2108
0.59,2109
0.57,2110
0.57,2111
0.57,2112
0.57,2113
0.58,2114
0.59,2115
0.58,2116
0.58,2117
0.56,2118
0.57,2119
0.58,2120
0.59,2121
0.6,2122
0.6,2123
0.61,2124
0.61,2125
0.61,2126
0.62,2127
0.62,2128
0.63,2129
0.63,2130
0.64,2131
0.64,2132
0.64,2133
0.64,2134
0.64,2135
0.64,2136
0.64,2137
0.64,2138
0.64,2139
0.64,2140
0.64,2141
0.64,2142
0.64,2143
0.65,2144
0.64,2145
0.65,2146
0.66,2147
0.65,2148
0.66,2149
0.64,2150
0.64,2151
0.66,2152
0.66,2153
0.66,2154
0.67,2155
0.69,2156
0.69,2157
0.69,2158
0.69,2159
0.68,2160
0.67,2161
0.66,2162
0.65,2163
0.65,2164
0.65,2165
0.65,2166
0.65,2167
0.64,2168
0.65,2169
0.64,2170
0.66,2171
0.66,2172
0.66,2173
0.67,2174
0.67,2175
0.68,2176
0.68,2177
0.68,2178
0.7,2179
0.7,2180
0.71,2181
0.72,2182
0.72,2183
0.73,2184
0.72,2185
0.72,2186
0.72,2187
0.71,2188
0.71,2189
0.71,2190
0.71,2191
0.71,2192
0.71,2193
0.71,2194
0.71,2195
0.71,2196
0.71,2197
0.71,2198
0.71,2199
0.7,2200
0.69,2201
0.69,2202
0.71,2203
0.71,2204
0.7,2205
0.69,2206
0.68,2207
0.68,2208
0.68,2209
0.67,2210
0.66,2211
0.66,2212
0.65,2213
0.64,2214
0.63,2215
0.63,2216
0.62,2217
0.61,2218
0.61,2219
0.6,2220
0.6,2221
0.6,2222
0.6,2223
0.59,2224
0.59,2225
0.6,2226
0.6,2227
0.59,2228
0.6,2229
0.6,2230
0.59,2231
0.59,2232
0.6,2233
0.59,2234
0.59,2235
0.58,2236
0.58,2237
0.58,2238
0.57,2239
0.56,2240
0.56,2241
0.57,2242
0.6,2243
0.6,2244
0.6,2245
0.6,2246
0.6,2247
0.6,2248
0.6,2249
0.62,2250
0.67,2251
0.69,2252
0.7,2253
0.7,2254
0.72,2255
0.72,2256
0.72,2257
0.72,2258
0.72,2259
0.72,2260
0.71,2261
0.71,2262
0.7,2263
0.69,2264
0.69,2265
0.69,2266
0.7,2267
0.7,2268
0.71,2269
0.72,2270
0.73,2271
0.73,2272
0.73,2273
0.73,2274
0.73,2275
0.74,2276
0.73,2277
0.72,2278
0.73,2279
0.74,2280
0.75,2281
0.76,2282
0.75,2283
0.74,2284
0.74,2285
0.74,2286
0.74,2287
0.73,2288
0.73,2289
0.73,2290
0.72,2291
0.72,2292
0.73,2293
0.75,2294
0.75,2295
0.75,2296
0.75,2297
0.74,2298
0.73,2299
0.73,2300
0.73,2301
0.73,2302
0.73,2303
0.73,2304
0.73,2305
0.74,2306
0.74,2307
0.75,2308
0.74,2309
0.74,2310
0.73,2311
0.72,2312
0.72,2313
0.71,2314
0.7,2315
0.69,2316
0.68,2317
0.67,2318
0.66,2319
0.65,2320
0.64,2321
0.64,2322
0.63,2323
0.62,2324
0.61,2325
0.61,2326
0.6,2327
0.59,2328
0.59,2329
0.6,2330
0.6,2331
0.6,2332
0.6,2333
0.6,2334
0.6,2335
0.6,2336
0.6,2337
0.6,2338
0.6,2339
0.6,2340
0.6,2341
0.6,2342
0.6,2343
0.6,2344
0.6,2345
0.6,2346
0.6,2347
0.6,2348
0.6,2349
0.6,2350
0.59,2351
0.59,2352
0.58,2353
0.58,2354
0.58,2355
0.59,2356
0.58,2357
0.57,2358
0.57,2359
0.57,2360
0.57,2361
0.57,2362
0.57,2363
0.56,2364
0.55,2365
0.54,2366
0.53,2367
0.53,2368
0.53,2369
0.53,2370
0.53,2371
0.53,2372
0.53,2373
0.53,2374
0.53,2375
0.54,2376
0.54,2377
0.54,2378
0.54,2379
0.54,2380
0.54,2381
0.54,2382
0.54,2383
0.54,2384
0.54,2385
0.54,2386
0.54,2387
0.54,2388
0.54,2389
0.54,2390
0.54,2391
0.54,2392
0.53,2393
0.54,2394
0.55,2395
0.56,2396
0.57,2397
0.58,2398
0.59,2399
0.6,2400
0.6,2401
0.6,2402
0.59,2403
0.59,2404
0.59,2405
0.58,2406
0.58,2407
0.57,2408
0.57,2409
0.58,2410
0.59,2411
0.6,2412
0.61,2413
0.61,2414
0.61,2415
0.62,2416
0.62,2417
0.63,2418
0.64,2419
0.64,2420
0.65,2421
0.65,2422
0.66,2423
0.67,2424
0.67,2425
0.66,2426
0.65,2427
0.65,2428
0.65,2429
0.67,2430
0.66,2431
0.65,2432
0.64,2433
0.63,2434
0.63,2435
0.62,2436
0.61,2437
0.6,2438
0.59,2439
0.58,2440
0.59,2441
0.58,2442
0.57,2443
0.57,2444
0.57,2445
0.56,2446
0.57,2447
0.58,2448
0.59,2449
0.59,2450
0.6,2451
0.61,2452
0.62,2453
0.62,2454
0.62,2455
0.62,2456
0.63,2457
0.64,2458
0.65,2459
0.64,2460
0.65,2461
0.65,2462
0.66,2463
0.66,2464
0.66,2465
0.67,2466
0.66,2467
0.68,2468
0.68,2469
0.69,2470
0.7,2471
0.69,2472
0.69,2473
0.68,2474
0.68,2475
0.67,2476
0.66,2477
0.65,2478
0.64,2479
0.65,2480
0.64,2481
0.63,2482
0.63,2483
0.63,2484
0.62,2485
0.63,2486
0.65,2487
0.64,2488
0.64,2489
0.65,2490
0.65,2491
0.64,2492
0.64,2493
0.65,2494
0.66,2495
0.65,2496
0.64,2497
0.65,2498
0.64,2499
0.63,2500
0.62,2501
0.65,2502
0.65,2503
0.68,2504
0.68,2505
0.69,2506
0.68,2507
0.68,2508
0.68,2509
0.68,2510
0.68,2511
0.68,2512
0.68,2513
0.68,2514
0.68,2515
0.68,2516
0.68,2517
0.68,2518
0.68,2519
0.68,2520
0.67,2521
0.67,2522
0.68,2523
0.68,2524
0.68,2525
0.68,2526
0.68,2527
0.68,2528
0.67,2529
0.67,2530
0.67,2531
0.67,2532
0.67,2533
0.67,2534
0.67,2535
0.67,2536
0.67,2537
0.67,2538
0.67,2539
0.67,2540
0.67,2541
0.66,2542
0.66,2543
0.66,2544
0.66,2545
0.65,2546
0.65,2547
0.64,2548
0.64,2549
0.64,2550
0.63,2551
0.62,2552
0.62,2553
0.61,2554
0.61,2555
0.62,2556
0.63,2557
0.63,2558
0.63,2559
0.63,2560
0.63,2561
0.63,2562
0.63,2563
0.62,2564
0.61,2565
0.6,2566
0.6,2567
0.6,2568
0.61,2569
0.61,2570
0.61,2571
0.61,2572
0.61,2573
0.6,2574
0.59,2575
0.58,2576
0.58,2577
0.58,2578
0.59,2579
0.59,2580
0.58,2581
0.58,2582
0.57,2583
0.57,2584
0.56,2585
0.54,2586
0.54,2587
0.54,2588
0.54,2589
0.54,2590
0.54,2591
0.54,2592
0.54,2593
0.54,2594
0.54,2595
0.54,2596
0.54,2597
0.54,2598
0.54,2599
0.54,2600
0.53,2601
0.53,2602
0.52,2603
0.51,2604
0.51,2605
0.5,2606
0.5,2607
0.49,2608
0.5,2609
0.5,2610
0.5,2611
0.51,2612
0.51,2613
0.51,2614
0.51,2615
0.51,2616
0.51,2617
0.51,2618
0.51,2619
0.51,2620
0.51,2621
0.51,2622
0.5,2623
0.5,2624
0.49,2625
0.49,2626
0.5,2627
0.5,2628
0.5,2629
0.51,2630
0.51,2631
0.51,2632
0.52,2633
0.55,2634
0.55,2635
0.55,2636
0.56,2637
0.55,2638
0.54,2639
0.53,2640
0.56,2641
0.55,2642
0.55,2643
0.56,2644
0.57,2645
0.55,2646
0.56,2647
0.56,2648
0.56,2649
0.56,2650
0.55,2651
0.56,2652
0.56,2653
0.56,2654
0.57,2655
0.57,2656
0.57,2657
0.61,2658
0.61,2659
0.61,2660
0.61,2661
0.61,2662
0.62,2663
0.62,2664
0.62,2665
0.62,2666
0.62,2667
0.62,2668
0.62,2669
0.62,2670
0.62,2671
0.62,2672
0.62,2673
0.59,2674
0.59,2675
0.6,2676
0.61,2677
0.6,2678
0.58,2679
0.55,2680
0.55,2681
0.56,2682
0.56,2683
0.56,2684
0.57,2685
0.57,2686
0.57,2687
0.58,2688
0.58,2689
0.58,2690
0.57,2691
0.57,2692
0.57,2693
0.56,2694
0.55,2695
0.55,2696
0.54,2697
0.55,2698
0.56,2699
0.57,2700
0.58,2701
0.58,2702
0.58,2703
0.59,2704
0.58,2705
0.58,2706
0.59,2707
0.58,2708
0.57,2709
0.56,2710
0.56,2711
0.56,2712
0.56,2713
0.56,2714
0.56,2715
0.57,2716
0.58,2717
0.58,2718
0.58,2719
0.57,2720
0.6,2721
0.6,2722
0.6,2723
0.6,2724
0.59,2725
0.58,2726
0.58,2727
0.58,2728
0.57,2729
0.57,2730
0.58,2731
0.56,2732
0.55,2733
0.5,2734
0.5,2735
0.49,2736
0.49,2737
0.49,2738
0.49,2739
0.49,2740
0.49,2741
0.48,2742
0.49,2743
0.49,2744
0.48,2745
0.48,2746
0.49,2747
0.48,2748
0.49,2749
0.49,2750
0.5,2751
0.5,2752
0.51,2753
0.5,2754
0.51,2755
0.52,2756
0.52,2757
0.52,2758
0.53,2759
0.53,2760
0.52,2761
0.52,2762
0.52,2763
0.53,2764
0.53,2765
0.53,2766
0.52,2767
0.51,2768
0.51,2769
0.51,2770
0.51,2771
0.51,2772
0.5,2773
0.53,2774
0.56,2775
0.56,2776
0.59,2777
0.58,2778
0.59,2779
0.59,2780
0.6,2781
0.61,2782
0.62,2783
0.63,2784
0.62,2785
0.61,2786
0.61,2787
0.61,2788
0.61,2789
0.61,2790
0.62,2791
0.62,2792
0.63,2793
0.64,2794
0.63,2795
0.62,2796
0.62,2797
0.62,2798
0.62,2799
0.62,2800
0.64,2801
0.64,2802
0.64,2803
0.64,2804
0.64,2805
0.63,2806
0.64,2807
0.65,2808
0.64,2809
0.64,2810
0.65,2811
0.65,2812
0.65,2813
0.66,2814
0.65,2815
0.65,2816
0.65,2817
0.66,2818
0.66,2819
0.66,2820
0.66,2821
0.66,2822
0.66,2823
0.66,2824
0.66,2825
0.66,2826
0.66,2827
0.66,2828
0.65,2829
0.65,2830
0.64,2831
0.64,2832
0.64,2833
0.64,2834
0.65,2835
0.66,2836
0.64,2837
0.65,2838
0.66,2839
0.66,2840
0.66,2841
0.66,2842
0.66,2843
0.66,2844
0.66,2845
0.64,2846
0.64,2847
0.64,2848
0.64,2849
0.61,2850
0.61,2851
0.6,2852
0.6,2853
0.6,2854
0.6,2855
0.6,2856
0.6,2857
0.6,2858
0.6,2859
0.6,2860
0.6,2861
0.6,2862
0.6,2863
0.59,2864
0.59,2865
0.6,2866
0.59,2867
0.6,2868
0.59,2869
0.6,2870
0.6,2871
0.61,2872
0.62,2873
0.63,2874
0.63,2875
0.6,2876
0.61,2877
0.6,2878
0.6,2879
0.58,2880
0.57,2881
0.55,2882
0.54,2883
0.55,2884
0.56,2885
0.57,2886
0.58,2887
0.58,2888
0.58,2889
0.59,2890
0.59,2891
0.6,2892
0.61,2893
0.59,2894
0.6,2895
0.61,2896
0.6,2897
0.61,2898
0.62,2899
0.63,2900
0.63,2901
0.64,2902
0.65,2903
0.66,2904
0.66,2905
0.65,2906
0.64,2907
0.64,2908
0.63,2909
0.64,2910
0.64,2911
0.63,2912
0.63,2913
0.63,2914
0.64,2915
0.64,2916
0.63,2917
0.62,2918
0.62,2919
0.62,2920
0.62,2921
0.63,2922
0.63,2923
0.63,2924
0.63,2925
0.59,2926
0.59,2927
0.6,2928
0.6,2929
0.59,2930
0.6,2931
0.61,2932
0.6,2933
0.6,2934
0.6,2935
0.61,2936
0.61,2937
0.6,2938
0.58,2939
0.57,2940
0.52,2941
0.53,2942
0.51,2943
0.48,2944
0.46,2945
0.47,2946
0.47,2947
0.45,2948
0.44,2949
0.44,2950
0.43,2951
0.44,2952
0.44,2953
0.45,2954
0.46,2955
0.45,2956
0.45,2957
0.45,2958
0.46,2959
0.46,2960
0.46,2961
0.47,2962
0.47,2963
0.47,2964
0.47,2965
0.47,2966
0.48,2967
0.49,2968
0.5,2969
0.51,2970
0.52,2971
0.51,2972
0.52,2973
0.53,2974
0.54,2975
0.54,2976
0.55,2977
0.56,2978
0.57,2979
0.58,2980
0.58,2981
0.59,2982
0.59,2983
0.6,2984
0.61,2985
0.62,2986
0.63,2987
0.64,2988
0.65,2989
0.66,2990
0.67,2991
0.68,2992
0.68,2993
0.69,2994
0.69,2995
0.7,2996
0.7,2997
0.71,2998
0.71,2999
0.7,3000
0.7,3001
0.68,3002
0.64,3003
0.62,3004
0.62,3005
0.6,3006
0.6,3007
0.6,3008
0.6,3009
0.61,3010
0.61,3011
0.62,3012
0.61,3013
0.56,3014
0.57,3015
0.58,3016
0.55,3017
0.56,3018
0.54,3019
0.52,3020
0.52,3021
0.52,3022
0.52,3023
0.52,3024
0.52,3025
0.52,3026
0.52,3027
0.52,3028
0.52,3029
0.52,3030
0.52,3031
0.52,3032
0.51,3033
0.51,3034
0.52,3035
0.52,3036
0.52,3037
0.52,3038
0.52,3039
0.52,3040
0.52,3041
0.52,3042
0.51,3043
0.51,3044
0.51,3045
0.51,3046
0.51,3047
0.51,3048
0.51,3049
0.51,3050
0.51,3051
0.5,3052
0.51,3053
0.51,3054
0.51,3055
0.51,3056
0.5,3057
0.49,3058
0.51,3059
0.5,3060
0.49,3061
0.48,3062
0.47,3063
0.46,3064
0.46,3065
0.47,3066
0.47,3067
0.47,3068
0.47,3069
0.47,3070
0.48,3071
0.48,3072
0.48,3073
0.48,3074
0.48,3075
0.48,3076
0.48,3077
0.48,3078
0.48,3079
0.47,3080
0.47,3081
0.47,3082
0.46,3083
0.46,3084
0.47,3085
0.48,3086
0.48,3087
0.47,3088
0.47,3089
0.48,3090
0.49,3091
0.5,3092
0.51,3093
0.52,3094
0.53,3095
0.54,3096
0.55,3097
0.56,3098
0.57,3099
0.57,3100
0.57,3101
0.58,3102
0.59,3103
0.6,3104
0.61,3105
0.61,3106
0.62,3107
0.63,3108
0.64,3109
0.64,3110
0.64,3111
0.64,3112
0.63,3113
0.63,3114
0.63,3115
0.63,3116
0.63,3117
0.63,3118
0.64,3119
0.63,3120
0.63,3121
0.63,3122
0.63,3123
0.64,3124
0.64,3125
0.65,3126
0.65,3127
0.65,3128
0.65,3129
0.62,3130
0.62,3131
0.63,3132
0.64,3133
0.64,3134
0.65,3135
0.65,3136
0.65,3137
0.65,3138
0.65,3139
0.65,3140
0.66,3141
0.66,3142
0.66,3143
0.66,3144
0.66,3145
0.66,3146
0.66,3147
0.66,3148
0.66,3149
0.66,3150
0.66,3151
0.66,3152
0.66,3153
0.66,3154
0.67,3155
0.65,3156
0.65,3157
0.63,3158
0.63,3159
0.59,3160
0.58,3161
0.56,3162
0.56,3163
0.55,3164
0.55,3165
0.54,3166
0.54,3167
0.54,3168
0.54,3169
0.54,3170
0.54,3171
0.54,3172
0.54,3173
0.54,3174
0.55,3175
0.55,3176
0.54,3177
0.55,3178
0.54,3179
0.53,3180
0.51,3181
0.52,3182
0.52,3183
0.53,3184
0.54,3185
0.53,3186
0.53,3187
0.53,3188
0.53,3189
0.53,3190
0.53,3191
0.53,3192
0.53,3193
0.53,3194
0.52,3195
0.51,3196
0.5,3197
0.5,3198
0.49,3199
0.49,3200
0.5,3201
0.5,3202
0.51,3203
0.52,3204
0.52,3205
0.53,3206
0.54,3207
0.55,3208
0.54,3209
0.54,3210
0.54,3211
0.54,3212
0.54,3213
0.54,3214
0.54,3215
0.53,3216
0.53,3217
0.53,3218
0.53,3219
0.52,3220
0.54,3221
0.54,3222
0.55,3223
0.58,3224
0.59,3225
0.59,3226
0.58,3227
0.57,3228
0.57,3229
0.57,3230
0.57,3231
0.57,3232
0.56,3233
0.57,3234
0.57,3235
0.57,3236
0.57,3237
0.57,3238
0.55,3239
0.56,3240
0.56,3241
0.56,3242
0.56,3243
0.56,3244
0.56,3245
0.56,3246
0.55,3247
0.55,3248
0.55,3249
0.55,3250
0.55,3251
0.56,3252
0.56,3253
0.56,3254
0.56,3255
0.56,3256
0.56,3257
0.56,3258
0.56,3259
0.56,3260
0.56,3261
0.57,3262
0.57,3263
0.57,3264
0.57,3265
0.57,3266
0.57,3267
0.57,3268
0.57,3269
0.57,3270
0.57,3271
0.57,3272
0.57,3273
0.57,3274
0.57,3275
0.57,3276
0.57,3277
0.57,3278
0.57,3279
0.57,3280
0.56,3281
0.55,3282
0.54,3283
0.53,3284
0.53,3285
0.54,3286
0.55,3287
0.55,3288
0.56,3289
0.56,3290
0.56,3291
0.56,3292
0.56,3293
0.56,3294
0.56,3295
0.56,3296
0.56,3297
0.55,3298
0.55,3299
0.54,3300
0.53,3301
0.54,3302
0.54,3303
0.53,3304
0.52,3305
0.52,3306
0.53,3307
0.52,3308
0.51,3309
0.51,3310
0.51,3311
0.51,3312
0.53,3313
0.53,3314
0.53,3315
0.52,3316
0.52,3317
0.51,3318
0.51,3319
0.51,3320
0.5,3321
0.49,3322
0.48,3323
0.47,3324
0.46,3325
0.45,3326
0.46,3327
0.46,3328
0.47,3329
0.48,3330
0.48,3331
0.47,3332
0.46,3333
0.46,3334
0.45,3335
0.45,3336
0.45,3337
0.45,3338
0.46,3339
0.47,3340
0.49,3341
0.48,3342
0.48,3343
0.47,3344
0.47,3345
0.46,3346
0.46,3347
0.46,3348
0.45,3349
0.44,3350
0.44,3351
0.46,3352
0.45,3353
0.44,3354
0.45,3355
0.45,3356
0.47,3357
0.47,3358
0.49,3359
0.49,3360
0.49,3361
0.51,3362
0.51,3363
0.51,3364
0.51,3365
0.53,3366
0.53,3367
0.53,3368
0.53,3369
0.53,3370
0.54,3371
0.55,3372
0.55,3373
0.55,3374
0.55,3375
0.54,3376
0.56,3377
0.58,3378
0.62,3379
0.66,3380
0.67,3381
0.67,3382
0.69,3383
0.74,3384
0.76,3385
0.75,3386
0.75,3387
0.74,3388
0.74,3389
0.75,3390
0.74,3391
0.74,3392
0.73,3393
0.75,3394
0.75,3395
0.74,3396
0.74,3397
0.75,3398
0.74,3399
0.74,3400
0.74,3401
0.74,3402
0.74,3403
0.73,3404
0.72,3405
0.71,3406
0.71,3407
0.7,3408
0.69,3409
0.68,3410
0.68,3411
0.67,3412
0.67,3413
0.66,3414
0.65,3415
0.64,3416
0.64,3417
0.63,3418
0.62,3419
0.61,3420
0.61,3421
0.6,3422
0.59,3423
0.58,3424
0.57,3425
0.56,3426
0.56,3427
0.56,3428
0.56,3429
0.56,3430
0.56,3431
0.56,3432
0.56,3433
0.57,3434
0.59,3435
0.62,3436
0.62,3437
0.61,3438
0.62,3439
0.61,3440
0.62,3441
0.62,3442
0.61,3443
0.61,3444
0.6,3445
0.59,3446
0.58,3447
0.57,3448
0.57,3449
0.57,3450
0.57,3451
0.56,3452
0.56,3453
0.58,3454
0.57,3455
0.56,3456
0.55,3457
0.56,3458
0.56,3459
0.56,3460
0.57,3461
0.59,3462
0.61,3463
0.62,3464
0.63,3465
0.63,3466
0.63,3467
0.63,3468
0.63,3469
0.63,3470
0.64,3471
0.64,3472
0.64,3473
0.65,3474
0.65,3475
0.65,3476
0.65,3477
0.65,3478
0.66,3479
0.66,3480
0.67,3481
0.67,3482
0.67,3483
0.66,3484
0.66,3485
0.66,3486
0.66,3487
0.66,3488
0.66,3489
0.66,3490
0.66,3491
0.66,3492
0.66,3493
0.66,3494
0.66,3495
0.66,3496
0.66,3497
0.67,3498
0.67,3499
0.67,3500
0.67,3501
0.66,3502
0.65,3503
0.64,3504
0.63,3505
0.63,3506
0.63,3507
0.63,3508
0.63,3509
0.62,3510
0.63,3511
0.64,3512
0.64,3513
0.64,3514
0.62,3515
0.63,3516
0.64,3517
0.65,3518
0.64,3519
0.65,3520
0.66,3521
0.66,3522
0.67,3523
0.68,3524
0.68,3525
0.68,3526
0.68,3527
0.68,3528
0.68,3529
0.68,3530
0.68,3531
0.68,3532
0.66,3533
0.61,3534
0.6,3535
0.6,3536
0.6,3537
0.61,3538
0.61,3539
0.6,3540
0.58,3541
0.58,3542
0.57,3543
0.56,3544
0.55,3545
0.55,3546
0.56,3547
0.57,3548
0.58,3549
0.59,3550
0.6,3551
0.61,3552
0.6,3553
0.61,3554
0.6,3555
0.61,3556
0.61,3557
0.61,3558
0.62,3559
0.63,3560
0.64,3561
0.64,3562
0.65,3563
0.63,3564
0.64,3565
0.68,3566
0.72,3567
0.73,3568
0.78,3569
0.83,3570
0.83,3571
0.84,3572
0.84,3573
0.85,3574
0.85,3575
0.84,3576
0.83,3577
0.83,3578
0.82,3579
0.81,3580
0.8,3581
0.8,3582
0.79,3583
0.79,3584
0.79,3585
0.78,3586
0.77,3587
0.76,3588
0.76,3589
0.75,3590
0.74,3591
0.73,3592
0.72,3593
0.71,3594
0.7,3595
0.69,3596
0.69,3597
0.68,3598
0.67,3599
0.67,3600
0.66,3601
0.66,3602
0.65,3603
0.64,3604
0.63,3605
0.62,3606
0.61,3607
0.61,3608
0.63,3609
0.65,3610
0.67,3611
0.67,3612
0.69,3613
0.72,3614
0.72,3615
0.71,3616
0.7,3617
0.69,3618
0.68,3619
0.67,3620
0.68,3621
0.68,3622
0.67,3623
0.66,3624
0.66,3625
0.65,3626
0.64,3627
0.64,3628
0.64,3629
0.63,3630
0.64,3631
0.63,3632
0.63,3633
0.62,3634
0.62,3635
0.61,3636
0.61,3637
0.6,3638
0.59,3639
0.59,3640
0.58,3641
0.57,3642
0.56,3643
0.55,3644
0.54,3645
0.53,3646
0.53,3647
0.53,3648
0.54,3649
0.54,3650
0.55,3651
0.56,3652
0.56,3653
0.57,3654
0.57,3655
0.57,3656
0.57,3657
0.57,3658
0.57,3659
0.57,3660
0.57,3661
0.58,3662
0.59,3663
0.59,3664
0.59,3665
0.58,3666
0.58,3667
0.56,3668
0.57,3669
0.58,3670
0.59,3671
0.6,3672
0.6,3673
0.6,3674
0.6,3675
0.6,3676
0.6,3677
0.6,3678
0.6,3679
0.6,3680
0.6,3681
0.6,3682
0.6,3683
0.6,3684
0.59,3685
0.59,3686
0.58,3687
0.57,3688
0.56,3689
0.55,3690
0.54,3691
0.53,3692
0.52,3693
0.52,3694
0.53,3695
0.52,3696
0.53,3697
0.52,3698
0.52,3699
0.52,3700
0.52,3701
0.52,3702
0.52,3703
0.52,3704
0.52,3705
0.51,3706
0.51,3707
0.5,3708
0.51,3709
0.51,3710
0.52,3711
0.52,3712
0.53,3713
0.52,3714
0.51,3715
0.49,3716
0.5,3717
0.51,3718
0.51,3719
0.52,3720
0.52,3721
0.51,3722
0.52,3723
0.53,3724
0.54,3725
0.55,3726
0.56,3727
0.56,3728
0.57,3729
0.57,3730
0.57,3731
0.58,3732
0.59,3733
0.6,3734
0.61,3735
0.61,3736
0.61,3737
0.62,3738
0.62,3739
0.61,3740
0.62,3741
0.62,3742
0.63,3743
0.64,3744
0.62,3745
0.61,3746
0.6,3747
0.61,3748
0.62,3749
0.63,3750
0.63,3751
0.63,3752
0.63,3753
0.63,3754
0.64,3755
0.64,3756
0.65,3757
0.65,3758
0.66,3759
0.66,3760
0.67,3761
0.67,3762
0.67,3763
0.67,3764
0.66,3765
0.67,3766
0.67,3767
0.65,3768
0.66,3769
0.65,3770
0.65,3771
0.66,3772
0.67,3773
0.67,3774
0.68,3775
0.69,3776
0.67,3777
0.68,3778
0.66,3779
0.66,3780
0.66,3781
0.67,3782
0.68,3783
0.69,3784
0.67,3785
0.68,3786
0.68,3787
0.66,3788
0.65,3789
0.64,3790
0.64,3791
0.64,3792
0.62,3793
0.63,3794
0.64,3795
0.64,3796
0.63,3797
0.61,3798
0.61,3799
0.61,3800
0.61,3801
0.6,3802
0.61,3803
0.61,3804
0.62,3805
0.61,3806
0.61,3807
0.61,3808
0.6,3809
0.59,3810
0.59,3811
0.59,3812
0.59,3813
0.6,3814
0.6,3815
0.61,3816
0.62,3817
0.62,3818
0.62,3819
0.62,3820
0.63,3821
0.63,3822
0.63,3823
0.63,3824
0.61,3825
0.6,3826
0.61,3827
0.6,3828
0.6,3829
0.6,3830
0.61,3831
0.62,3832
0.62,3833
0.6,3834
0.6,3835
0.61,3836
0.62,3837
0.62,3838
0.62,3839
0.62,3840
0.62,3841
0.62,3842
0.62,3843
0.62,3844
0.62,3845
0.62,3846
0.62,3847
0.61,3848
0.62,3849
0.59,3850
0.56,3851
0.55,3852
0.54,3853
0.52,3854
0.52,3855
0.52,3856
0.52,3857
0.53,3858
0.52,3859
0.52,3860
0.5,3861
0.51,3862
0.52,3863
0.53,3864
0.54,3865
0.53,3866
0.52,3867
0.53,3868
0.53,3869
0.53,3870
0.53,3871
0.54,3872
0.54,3873
0.53,3874
0.53,3875
0.54,3876
0.55,3877
0.56,3878
0.57,3879
0.58,3880
0.59,3881
0.6,3882
0.6,3883
0.59,3884
0.6,3885
0.61,3886
0.59,3887
0.6,3888
0.58,3889
0.59,3890
0.59,3891
0.54,3892
0.54,3893
0.55,3894
0.55,3895
0.56,3896
0.56,3897
0.56,3898
0.55,3899
0.56,3900
0.57,3901
0.57,3902
0.57,3903
0.57,3904
0.58,3905
0.57,3906
0.58,3907
0.59,3908
0.59,3909
0.59,3910
0.59,3911
0.59,3912
0.59,3913
0.59,3914
0.58,3915
0.57,3916
0.57,3917
0.57,3918
0.56,3919
0.55,3920
0.55,3921
0.55,3922
0.54,3923
0.54,3924
0.54,3925
0.54,3926
0.54,3927
0.54,3928
0.54,3929
0.54,3930
0.54,3931
0.53,3932
0.52,3933
0.52,3934
0.54,3935
0.54,3936
0.53,3937
0.54,3938
0.53,3939
0.53,3940
0.53,3941
0.53,3942
0.51,3943
0.5,3944
0.49,3945
0.48,3946
0.48,3947
0.49,3948
0.48,3949
0.48,3950
0.49,3951
0.47,3952
0.49,3953
0.49,3954
0.49,3955
0.49,3956
0.49,3957
0.51,3958
0.51,3959
0.51,3960
0.51,3961
0.51,3962
0.51,3963
0.51,3964
0.51,3965
0.5,3966
0.5,3967
0.49,3968
0.5,3969
0.5,3970
0.51,3971
0.52,3972
0.53,3973
0.54,3974
0.53,3975
0.54,3976
0.54,3977
0.54,3978
0.55,3979
0.55,3980
0.55,3981
0.54,3982
0.54,3983
0.54,3984
0.55,3985
0.55,3986
0.54,3987
0.54,3988
0.54,3989
0.55,3990
0.56,3991
0.57,3992
0.56,3993
0.56,3994
0.57,3995
0.57,3996
0.56,3997
0.55,3998
0.55,3999
0.55,4000
0.54,4001
0.54,4002
0.55,4003
0.55,4004
0.53,4005
0.54,4006
0.54,4007
0.52,4008
0.52,4009
0.52,4010
0.52,4011
0.51,4012
0.5,4013
0.5,4014
0.51,4015
0.49,4016
0.48,4017
0.47,4018
0.47,4019
0.47,4020
0.48,4021
0.52,4022
0.55,4023
0.55,4024
0.57,4025
0.58,4026
0.58,4027
0.58,4028
0.6,4029
0.59,4030
0.58,4031
0.58,4032
0.58,4033
0.58,4034
0.58,4035
0.58,4036
0.58,4037
0.58,4038
0.58,4039
0.58,4040
0.58,4041
0.59,4042
0.59,4043
0.6,4044
0.58,4045
0.59,4046
0.59,4047
0.6,4048
0.61,4049
0.61,4050
0.61,4051
0.6,4052
0.62,4053
0.62,4054
0.61,4055
0.61,4056
0.61,4057
0.61,4058
0.59,4059
0.59,4060
0.59,4061
0.59,4062
0.59,4063
0.59,4064
0.59,4065
0.6,4066
0.6,4067
0.6,4068
0.62,4069
0.68,4070
0.71,4071
0.71,4072
0.72,4073
0.73,4074
0.74,4075
0.74,4076
0.73,4077
0.72,4078
0.71,4079
0.7,4080
0.7,4081
0.69,4082
0.68,4083
0.67,4084
0.66,4085
0.65,4086
0.64,4087
0.63,4088
0.62,4089
0.62,4090
0.61,4091
0.61,4092
0.62,4093
0.63,4094
0.64,4095
0.64,4096
0.64,4097
0.64,4098
0.64,4099
0.66,4100
0.66,4101
0.66,4102
0.66,4103
0.69,4104
0.68,4105
0.67,4106
0.66,4107
0.66,4108
0.66,4109
0.66,4110
0.66,4111
0.65,4112
0.64,4113
0.64,4114
0.64,4115
0.65,4116
0.67,4117
0.66,4118
0.65,4119
0.64,4120
0.63,4121
0.63,4122
0.62,4123
0.61,4124
0.6,4125
0.59,4126
0.58,4127
0.57,4128
0.57,4129
0.57,4130
0.56,4131
0.56,4132
0.56,4133
0.56,4134
0.56,4135
0.56,4136
0.56,4137
0.57,4138
0.57,4139
0.57,4140
0.57,4141
0.57,4142
0.57,4143
0.57,4144
0.57,4145
0.58,4146
0.58,4147
0.58,4148
0.58,4149
0.58,4150
0.58,4151
0.58,4152
0.58,4153
0.58,4154
0.58,4155
0.58,4156
0.58,4157
0.58,4158
0.58,4159
0.58,4160
0.58,4161
0.58,4162
0.58,4163
0.58,4164
0.61,4165
0.61,4166
0.61,4167
0.61,4168
0.62,4169
0.6,4170
0.6,4171
0.61,4172
0.62,4173
0.63,4174
0.63,4175
0.63,4176
0.63,4177
0.63,4178
0.63,4179
0.63,4180
0.63,4181
0.63,4182
0.63,4183
0.63,4184
0.63,4185
0.63,4186
0.63,4187
0.63,4188
0.63,4189
0.64,4190
0.64,4191
0.63,4192
0.63,4193
0.63,4194
0.63,4195
0.64,4196
0.64,4197
0.64,4198
0.64,4199
0.64,4200
0.64,4201
0.64,4202
0.64,4203
0.63,4204
0.64,4205
0.63,4206
0.64,4207
0.64,4208
0.64,4209
0.65,4210
0.66,4211
0.67,4212
0.68,4213
0.69,4214
0.68,4215
0.68,4216
0.67,4217
0.67,4218
0.67,4219
0.67,4220
0.67,4221
0.67,4222
0.66,4223
0.66,4224
0.66,4225
0.65,4226
0.65,4227
0.66,4228
0.68,4229
0.71,4230
0.75,4231
0.76,4232
0.77,4233
0.76,4234
0.77,4235
0.76,4236
0.75,4237
0.74,4238
0.74,4239
0.76,4240
0.75,4241
0.74,4242
0.73,4243
0.73,4244
0.73,4245
0.73,4246
0.74,4247
0.75,4248
0.74,4249
0.73,4250
0.73,4251
0.72,4252
0.71,4253
0.71,4254
0.71,4255
0.71,4256
0.71,4257
0.71,4258
0.72,4259
0.71,4260
0.7,4261
0.69,4262
0.7,4263
0.69,4264
0.68,4265
0.68,4266
0.68,4267
0.67,4268
0.66,4269
0.65,4270
0.64,4271
0.63,4272
0.62,4273
0.61,4274
0.6,4275
0.59,4276
0.59,4277
0.61,4278
0.6,4279
0.6,4280
0.6,4281
0.6,4282
0.6,4283
0.6,4284
0.6,4285
0.6,4286
0.6,4287
0.6,4288
0.6,4289
0.6,4290
0.6,4291
0.6,4292
0.6,4293
0.61,4294
0.61,4295
0.62,4296
0.63,4297
0.64,4298
0.65,4299
0.65,4300
0.65,4301
0.65,4302
0.65,4303
0.65,4304
0.65,4305
0.65,4306
0.65,4307
0.65,4308
0.65,4309
0.65,4310
0.65,4311
0.64,4312
0.65,4313
0.65,4314
0.65,4315
0.65,4316
0.65,4317
0.65,4318
0.65,4319
0.66,4320
0.66,4321
0.66,4322
0.67,4323
0.67,4324
0.67,4325
0.68,4326
0.68,4327
0.68,4328
0.69,4329
0.69,4330
0.68,4331
0.67,4332
0.66,4333
0.66,4334
0.65,4335
0.65,4336
0.64,4337
0.64,4338
0.63,4339
0.64,4340
0.69,4341
0.71,4342
0.74,4343
0.74,4344
0.73,4345
0.73,4346
0.73,4347
0.72,4348
0.73,4349
0.73,4350
0.73,4351
0.73,4352
0.73,4353
0.73,4354
0.73,4355
0.73,4356
0.73,4357
0.73,4358
0.73,4359
0.73,4360
0.74,4361
0.75,4362
0.76,4363
0.76,4364
0.77,4365
0.77,4366
0.78,4367
0.79,4368
0.79,4369
0.79,4370
0.79,4371
0.79,4372
0.79,4373
0.78,4374
0.78,4375
0.78,4376
0.79,4377
0.79,4378
0.79,4379
0.79,4380
0.79,4381
0.79,4382
0.79,4383
0.79,4384
0.79,4385
0.79,4386
0.78,4387
0.78,4388
0.78,4389
0.78,4390
0.78,4391
0.78,4392
0.78,4393
0.78,4394
0.78,4395
0.78,4396
0.78,4397
0.77,4398
0.76,4399
0.76,4400
0.77,4401
0.77,4402
0.77,4403
0.77,4404
0.78,4405
0.78,4406
0.78,4407
0.78,4408
0.78,4409
0.77,4410
0.77,4411
0.76,4412
0.76,4413
0.76,4414
0.75,4415
0.74,4416
0.73,4417
0.72,4418
0.72,4419
0.73,4420
0.74,4421
0.74,4422
0.74,4423
0.74,4424
0.74,4425
0.74,4426
0.74,4427
0.74,4428
0.74,4429
0.74,4430
0.74,4431
0.74,4432
0.74,4433
0.74,4434
0.74,4435
0.74,4436
0.72,4437
0.72,4438
0.72,4439
0.73,4440
0.7,4441
0.69,4442
0.68,4443
0.68,4444
0.68,4445
0.66,4446
0.67,4447
0.64,4448
0.63,4449
0.61,4450
0.59,4451
0.59,4452
0.58,4453
0.55,4454
0.54,4455
0.54,4456
0.53,4457
0.52,4458
0.52,4459
0.53,4460
0.54,4461
0.55,4462
0.54,4463
0.54,4464
0.55,4465
0.56,4466
0.56,4467
0.56,4468
0.57,4469
0.57,4470
0.56,4471
0.56,4472
0.56,4473
0.56,4474
0.56,4475
0.57,4476
0.58,4477
0.58,4478
0.58,4479
0.58,4480
0.59,4481
0.59,4482
0.59,4483
0.58,4484
0.58,4485
0.58,4486
0.57,4487
0.58,4488
0.58,4489
0.59,4490
0.59,4491
0.57,4492
0.57,4493
0.57,4494
0.58,4495
0.58,4496
0.58,4497
0.57,4498
0.58,4499
0.58,4500
0.59,4501
0.59,4502
0.59,4503
0.6,4504
0.61,4505
0.6,4506
0.6,4507
0.6,4508
0.59,4509
0.57,4510
0.57,4511
0.56,4512
0.55,4513
0.52,4514
0.51,4515
0.46,4516
0.45,4517
0.44,4518
0.43,4519
0.44,4520
0.44,4521
0.43,4522
0.44,4523
0.45,4524
0.46,4525
0.47,4526
0.48,4527
0.48,4528
0.49,4529
0.49,4530
0.5,4531
0.51,4532
0.52,4533
0.51,4534
0.52,4535
0.53,4536
0.53,4537
0.54,4538
0.55,4539
0.53,4540
0.54,4541
0.53,4542
0.53,4543
0.53,4544
0.54,4545
0.55,4546
0.53,4547
0.53,4548
0.54,4549
0.55,4550
0.55,4551
0.55,4552
0.55,4553
0.56,4554
0.57,4555
0.58,4556
0.59,4557
0.6,4558
0.61,4559
0.62,4560
0.62,4561
0.63,4562
0.63,4563
0.64,4564
0.65,4565
0.64,4566
0.64,4567
0.64,4568
0.63,4569
0.63,4570
0.63,4571
0.64,4572
0.62,4573
0.62,4574
0.62,4575
0.61,4576
0.62,4577
0.63,4578
0.63,4579
0.61,4580
0.61,4581
0.61,4582
0.6,4583
0.6,4584
0.6,4585
0.6,4586
0.6,4587
0.6,4588
0.6,4589
0.6,4590
0.6,4591
0.58,4592
0.58,4593
0.58,4594
0.58,4595
0.56,4596
0.56,4597
0.56,4598
0.56,4599
0.55,4600
0.56,4601
0.56,4602
0.57,4603
0.57,4604
0.58,4605
0.57,4606
0.58,4607
0.58,4608
0.57,4609
0.56,4610
0.55,4611
0.54,4612
0.53,4613
0.53,4614
0.53,4615
0.52,4616
0.51,4617
0.51,4618
0.5,4619
0.5,4620
0.5,4621
0.5,4622
0.49,4623
0.48,4624
0.48,4625
0.47,4626
0.48,4627
0.48,4628
0.47,4629
0.46,4630
0.45,4631
0.46,4632
0.45,4633
0.45,4634
0.45,4635
0.45,4636
0.45,4637
0.45,4638
0.44,4639
0.44,4640
0.45,4641
0.46,4642
0.45,4643
0.45,4644
0.46,4645
0.45,4646
0.45,4647
0.44,4648
0.45,4649
0.46,4650
0.46,4651
0.47,4652
0.47,4653
0.48,4654
0.5,4655
0.51,4656
0.5,4657
0.52,4658
0.52,4659
0.57,4660
0.57,4661
0.62,4662
0.63,4663
0.63,4664
0.66,4665
0.65,4666
0.65,4667
0.65,4668
0.66,4669
0.67,4670
0.67,4671
0.67,4672
0.67,4673
0.67,4674
0.68,4675
0.68,4676
0.71,4677
0.72,4678
0.71,4679
0.71,4680
0.7,4681
0.69,4682
0.69,4683
0.68,4684
0.67,4685
0.66,4686
0.65,4687
0.64,4688
0.63,4689
0.62,4690
0.62,4691
0.61,4692
0.62,4693
0.63,4694
0.66,4695
0.65,4696
0.66,4697
0.67,4698
0.66,4699
0.67,4700
0.67,4701
0.66,4702
0.65,4703
0.64,4704
0.64,4705
0.63,4706
0.62,4707
0.61,4708
0.61,4709
0.61,4710
0.6,4711
0.59,4712
0.59,4713
0.59,4714
0.59,4715
0.59,4716
0.59,4717
0.59,4718
0.6,4719
0.62,4720
0.62,4721
0.62,4722
0.63,4723
0.63,4724
0.63,4725
0.63,4726
0.63,4727
0.63,4728
0.63,4729
0.63,4730
0.63,4731
0.63,4732
0.63,4733
0.63,4734
0.63,4735
0.63,4736
0.63,4737
0.63,4738
0.63,4739
0.63,4740
0.63,4741
0.63,4742
0.63,4743
0.63,4744
0.63,4745
0.63,4746
0.63,4747
0.63,4748
0.63,4749
0.63,4750
0.63,4751
0.63,4752
0.63,4753
0.63,4754
0.63,4755
0.63,4756
0.63,4757
0.63,4758
0.64,4759
0.64,4760
0.65,4761
0.64,4762
0.64,4763
0.65,4764
0.65,4765
0.65,4766
0.65,4767
0.65,4768
0.65,4769
0.65,4770
0.65,4771
0.65,4772
0.66,4773
0.67,4774
0.67,4775
0.68,4776
0.69,4777
0.7,4778
0.71,4779
0.72,4780
0.73,4781
0.74,4782
0.75,4783
0.76,4784
0.77,4785
0.78,4786
0.78,4787
0.78,4788
0.78,4789
0.78,4790
0.78,4791
0.78,4792
0.78,4793
0.79,4794
0.78,4795
0.78,4796
0.77,4797
0.73,4798
0.71,4799
0.7,4800
0.69,4801
0.69,4802
0.68,4803
0.66,4804
0.66,4805
0.65,4806
0.65,4807
0.65,4808
0.65,4809
0.65,4810
0.65,4811
0.65,4812
0.65,4813
0.65,4814
0.65,4815
0.65,4816
0.65,4817
0.65,4818
0.64,4819
0.64,4820
0.68,4821
0.73,4822
0.76,4823
0.77,4824
0.77,4825
0.77,4826
0.77,4827
0.78,4828
0.77,4829
0.77,4830
0.78,4831
0.77,4832
0.76,4833
0.76,4834
0.75,4835
0.75,4836
0.75,4837
0.74,4838
0.73,4839
0.72,4840
0.71,4841
0.72,4842
0.72,4843
0.71,4844
0.7,4845
0.7,4846
0.69,4847
0.69,4848
0.68,4849
0.68,4850
0.67,4851
0.67,4852
0.66,4853
0.66,4854
0.66,4855
0.65,4856
0.67,4857
0.67,4858
0.67,4859
0.69,4860
0.7,4861
0.7,4862
0.69,4863
0.68,4864
0.67,4865
0.68,4866
0.69,4867
0.71,4868
0.71,4869
0.73,4870
0.72,4871
0.72,4872
0.72,4873
0.73,4874
0.72,4875
0.72,4876
0.72,4877
0.71,4878
0.7,4879
0.7,4880
0.69,4881
0.68,4882
0.68,4883
0.68,4884
0.68,4885
0.68,4886
0.68,4887
0.68,4888
0.68,4889
0.68,4890
0.68,4891
0.67,4892
0.66,4893
0.66,4894
0.65,4895
0.64,4896
0.64,4897
0.64,4898
0.64,4899
0.63,4900
0.63,4901
0.63,4902
0.64,4903
0.64,4904
0.63,4905
0.62,4906
0.63,4907
0.63,4908
0.63,4909
0.63,4910
0.64,4911
0.64,4912
0.64,4913
0.64,4914
0.64,4915
0.65,4916
0.65,4917
0.65,4918
0.65,4919
0.65,4920
0.65,4921
0.64,4922
0.64,4923
0.63,4924
0.62,4925
0.63,4926
0.64,4927
0.64,4928
0.64,4929
0.65,4930
0.66,4931
0.67,4932
0.68,4933
0.68,4934
0.68,4935
0.68,4936
0.67,4937
0.67,4938
0.66,4939
0.66,4940
0.66,4941
0.67,4942
0.66,4943
0.65,4944
0.65,4945
0.64,4946
0.63,4947
0.63,4948
0.63,4949
0.62,4950
0.63,4951
0.62,4952
0.61,4953
0.61,4954
0.6,4955
0.6,4956
0.6,4957
0.6,4958
0.59,4959
0.58,4960
0.57,4961
0.57,4962
0.57,4963
0.57,4964
0.57,4965
0.58,4966
0.59,4967
0.6,4968
0.6,4969
0.6,4970
0.6,4971
0.58,4972
0.59,4973
0.59,4974
0.6,4975
0.61,4976
0.61,4977
0.61,4978
0.62,4979
0.63,4980
0.63,4981
0.62,4982
0.62,4983
0.63,4984
0.62,4985
0.62,4986
0.62,4987
0.62,4988
0.62,4989
0.62,4990
0.62,4991
0.62,4992
0.62,4993
0.63,4994
0.64,4995
0.64,4996
0.65,4997
0.66,4998
0.67,4999
0.68,5000
0.68,5001
0.68,5002
0.68,5003
0.69,5004
0.69,5005
0.7,5006
0.7,5007
0.7,5008
0.69,5009
0.69,5010
0.69,5011
0.69,5012
0.69,5013
0.69,5014
0.69,5015
0.69,5016
0.69,5017
0.69,5018
0.69,5019
0.69,5020
0.69,5021
0.68,5022
0.68,5023
0.68,5024
0.67,5025
0.67,5026
0.67,5027
0.67,5028
0.67,5029
0.67,5030
0.67,5031
0.67,5032
0.66,5033
0.67,5034
0.68,5035
0.67,5036
0.67,5037
0.64,5038
0.63,5039
0.63,5040
0.63,5041
0.62,5042
0.61,5043
0.61,5044
0.61,5045
0.6,5046
0.59,5047
0.57,5048
0.54,5049
0.53,5050
0.53,5051
0.49,5052
0.48,5053
0.47,5054
0.46,5055
0.47,5056
0.47,5057
0.47,5058
0.48,5059
0.47,5060
0.45,5061
0.46,5062
0.47,5063
0.48,5064
0.49,5065
0.5,5066
0.51,5067
0.51,5068
0.51,5069
0.52,5070
0.52,5071
0.52,5072
0.53,5073
0.54,5074
0.55,5075
0.56,5076
0.57,5077
0.57,5078
0.58,5079
0.59,5080
0.6,5081
0.61,5082
0.61,5083
0.62,5084
0.63,5085
0.64,5086
0.65,5087
0.66,5088
0.67,5089
0.68,5090
0.68,5091
0.68,5092
0.68,5093
0.67,5094
0.66,5095
0.66,5096
0.66,5097
0.66,5098
0.66,5099
0.66,5100
0.67,5101
0.68,5102
0.68,5103
0.67,5104
0.67,5105
0.68,5106
0.69,5107
0.7,5108
0.7,5109
0.7,5110
0.7,5111
0.71,5112
0.7,5113
0.68,5114
0.67,5115
0.65,5116
0.62,5117
0.6,5118
0.6,5119
0.6,5120
0.58,5121
0.59,5122
0.6,5123
0.61,5124
0.6,5125
0.61,5126
0.62,5127
0.61,5128
0.62,5129
0.62,5130
0.62,5131
0.62,5132
0.62,5133
0.61,5134
0.6,5135
0.6,5136
0.6,5137
0.6,5138
0.6,5139
0.6,5140
0.6,5141
0.61,5142
0.61,5143
0.62,5144
0.62,5145
0.63,5146
0.64,5147
0.65,5148
0.64,5149
0.65,5150
0.65,5151
0.65,5152
0.64,5153
0.64,5154
0.64,5155
0.64,5156
0.64,5157
0.64,5158
0.66,5159
0.66,5160
0.66,5161
0.65,5162
0.65,5163
0.66,5164
0.66,5165
0.67,5166
0.67,5167
0.67,5168
0.67,5169
0.67,5170
0.67,5171
0.67,5172
0.68,5173
0.68,5174
0.67,5175
0.67,5176
0.67,5177
0.67,5178
0.67,5179
0.66,5180
0.66,5181
0.66,5182
0.66,5183
0.66,5184
0.66,5185
0.66,5186
0.66,5187
0.66,5188
0.65,5189
0.66,5190
0.66,5191
0.63,5192
0.63,5193
0.62,5194
0.58,5195
0.56,5196
0.55,5197
0.53,5198
0.51,5199
0.52,5200
0.53,5201
0.52,5202
0.52,5203
0.52,5204
0.52,5205
0.52,5206
0.53,5207
0.53,5208
0.53,5209
0.52,5210
0.51,5211
0.51,5212
0.51,5213
0.5,5214
0.49,5215
0.5,5216
0.5,5217
0.51,5218
0.5,5219
0.51,5220
0.51,5221
0.51,5222
0.52,5223
0.53,5224
0.52,5225
0.53,5226
0.53,5227
0.53,5228
0.53,5229
0.54,5230
0.54,5231
0.55,5232
0.52,5233
0.52,5234
0.51,5235
0.52,5236
0.53,5237
0.54,5238
0.54,5239
0.54,5240
0.54,5241
0.54,5242
0.55,5243
0.56,5244
0.56,5245
0.55,5246
0.54,5247
0.54,5248
0.54,5249
0.53,5250
0.52,5251
0.52,5252
0.48,5253
0.48,5254
0.48,5255
0.49,5256
0.5,5257
0.5,5258
0.49,5259
0.48,5260
0.49,5261
0.48,5262
0.45,5263
0.46,5264
0.46,5265
0.47,5266
0.48,5267
0.48,5268
0.48,5269
0.48,5270
0.48,5271
0.49,5272
0.5,5273
0.51,5274
0.51,5275
0.51,5276
0.51,5277
0.51,5278
0.51,5279
0.5,5280
0.51,5281
0.51,5282
0.52,5283
0.53,5284
0.53,5285
0.53,5286
0.53,5287
0.53,5288
0.54,5289
0.55,5290
0.55,5291
0.56,5292
0.57,5293
0.58,5294
0.58,5295
0.58,5296
0.58,5297
0.59,5298
0.58,5299
0.58,5300
0.59,5301
0.58,5302
0.58,5303
0.58,5304
0.58,5305
0.58,5306
0.58,5307
0.59,5308
0.6,5309
0.62,5310
0.66,5311
0.69,5312
0.71,5313
0.73,5314
0.75,5315
0.74,5316
0.74,5317
0.74,5318
0.73,5319
0.72,5320
0.72,5321
0.72,5322
0.71,5323
0.7,5324
0.7,5325
0.69,5326
0.68,5327
0.67,5328
0.66,5329
0.65,5330
0.64,5331
0.65,5332
0.64,5333
0.64,5334
0.63,5335
0.63,5336
0.62,5337
0.61,5338
0.61,5339
0.6,5340
0.6,5341
0.6,5342
0.61,5343
0.61,5344
0.6,5345
0.59,5346
0.59,5347
0.59,5348
0.58,5349
0.57,5350
0.57,5351
0.56,5352
0.55,5353
0.54,5354
0.54,5355
0.56,5356
0.57,5357
0.57,5358
0.58,5359
0.58,5360
0.58,5361
0.57,5362
0.56,5363
0.55,5364
0.55,5365
0.54,5366
0.55,5367
0.56,5368
0.56,5369
0.56,5370
0.56,5371
0.56,5372
0.56,5373
0.55,5374
0.55,5375
0.55,5376
0.55,5377
0.55,5378
0.56,5379
0.56,5380
0.56,5381
0.57,5382
0.57,5383
0.57,5384
0.57,5385
0.57,5386
0.57,5387
0.58,5388
0.58,5389
0.59,5390
0.59,5391
0.58,5392
0.57,5393
0.57,5394
0.56,5395
0.55,5396
0.55,5397
0.55,5398
0.54,5399
0.54,5400
0.55,5401
0.55,5402
0.55,5403
0.56,5404
0.57,5405
0.57,5406
0.57,5407
0.57,5408
0.57,5409
0.58,5410
0.57,5411
0.58,5412
0.58,5413
0.59,5414
0.6,5415
0.6,5416
0.6,5417
0.6,5418
0.6,5419
0.6,5420
0.6,5421
0.6,5422
0.6,5423
0.6,5424
0.6,5425
0.6,5426
0.6,5427
0.59,5428
0.59,5429
0.59,5430
0.59,5431
0.6,5432
0.6,5433
0.6,5434
0.61,5435
0.61,5436
0.61,5437
0.61,5438
0.61,5439
0.61,5440
0.62,5441
0.62,5442
0.63,5443
0.64,5444
0.63,5445
0.64,5446
0.65,5447
0.66,5448
0.66,5449
0.66,5450
0.65,5451
0.65,5452
0.66,5453
0.65,5454
0.65,5455
0.64,5456
0.6,5457
0.59,5458
0.6,5459
0.61,5460
0.58,5461
0.57,5462
0.56,5463
0.57,5464
0.57,5465
0.56,5466
0.57,5467
0.56,5468
0.55,5469
0.52,5470
0.53,5471
0.54,5472
0.54,5473
0.53,5474
0.53,5475
0.58,5476
0.62,5477
0.64,5478
0.67,5479
0.66,5480
0.66,5481
0.66,5482
0.65,5483
0.64,5484
0.64,5485
0.65,5486
0.64,5487
0.64,5488
0.64,5489
0.64,5490
0.63,5491
0.64,5492
0.65,5493
0.66,5494
0.67,5495
0.68,5496
0.68,5497
0.68,5498
0.7,5499
0.7,5500
0.7,5501
0.7,5502
0.71,5503
0.71,5504
0.7,5505
0.7,5506
0.69,5507
0.71,5508
0.71,5509
0.7,5510
0.69,5511
0.69,5512
0.68,5513
0.67,5514
0.66,5515
0.65,5516
0.64,5517
0.64,5518
0.63,5519
0.63,5520
0.62,5521
0.61,5522
0.6,5523
0.59,5524
0.59,5525
0.61,5526
0.6,5527
0.6,5528
0.61,5529
0.6,5530
0.6,5531
0.6,5532
0.59,5533
0.58,5534
0.6,5535
0.59,5536
0.59,5537
0.61,5538
0.6,5539
0.59,5540
0.58,5541
0.57,5542
0.56,5543
0.55,5544
0.54,5545
0.54,5546
0.53,5547
0.53,5548
0.52,5549
0.51,5550
0.5,5551
0.5,5552
0.5,5553
0.5,5554
0.5,5555
0.51,5556
0.51,5557
0.5,5558
0.5,5559
0.49,5560
0.48,5561
0.47,5562
0.47,5563
0.46,5564
0.47,5565
0.46,5566
0.46,5567
0.45,5568
0.46,5569
0.45,5570
0.44,5571
0.43,5572
0.44,5573
0.45,5574
0.45,5575
0.45,5576
0.45,5577
0.45,5578
0.45,5579
0.45,5580
0.45,5581
0.45,5582
0.44,5583
0.45,5584
0.44,5585
0.45,5586
0.46,5587
0.46,5588
0.45,5589
0.47,5590
0.46,5591
0.45,5592
0.49,5593
0.48,5594
0.47,5595
0.47,5596
0.54,5597
0.57,5598
0.59,5599
0.62,5600
0.63,5601
0.64,5602
0.64,5603
0.64,5604
0.64,5605
0.67,5606
0.66,5607
0.67,5608
0.67,5609
0.68,5610
0.67,5611
0.67,5612
0.66,5613
0.66,5614
0.68,5615
0.69,5616
0.7,5617
0.71,5618
0.71,5619
0.72,5620
0.72,5621
0.72,5622
0.73,5623
0.73,5624
0.73,5625
0.74,5626
0.74,5627
0.75,5628
0.75,5629
0.75,5630
0.75,5631
0.76,5632
0.76,5633
0.76,5634
0.76,5635
0.75,5636
0.75,5637
0.75,5638
0.75,5639
0.75,5640
0.75,5641
0.75,5642
0.75,5643
0.75,5644
0.76,5645
0.76,5646
0.76,5647
0.76,5648
0.76,5649
0.76,5650
0.77,5651
0.76,5652
0.75,5653
0.75,5654
0.75,5655
0.75,5656
0.76,5657
0.76,5658
0.76,5659
0.76,5660
0.76,5661
0.76,5662
0.75,5663
0.75,5664
0.74,5665
0.73,5666
0.72,5667
0.73,5668
0.72,5669
0.72,5670
0.72,5671
0.72,5672
0.72,5673
0.72,5674
0.72,5675
0.72,5676
0.72,5677
0.72,5678
0.72,5679
0.72,5680
0.72,5681
0.72,5682
0.73,5683
0.72,5684
0.71,5685
0.72,5686
0.72,5687
0.72,5688
0.73,5689
0.74,5690
0.73,5691
0.73,5692
0.74,5693
0.74,5694
0.74,5695
0.74,5696
0.72,5697
0.7,5698
0.7,5699
0.68,5700
0.66,5701
0.65,5702
0.63,5703
0.6,5704
0.58,5705
0.58,5706
0.58,5707
0.57,5708
0.56,5709
0.54,5710
0.55,5711
0.55,5712
0.56,5713
0.57,5714
0.58,5715
0.59,5716
0.58,5717
0.58,5718
0.57,5719
0.57,5720
0.58,5721
0.58,5722
0.59,5723
0.6,5724
0.6,5725
0.6,5726
0.6,5727
0.57,5728
0.57,5729
0.57,5730
0.57,5731
0.57,5732
0.57,5733
0.58,5734
0.58,5735
0.59,5736
0.6,5737
0.6,5738
0.6,5739
0.61,5740
0.62,5741
0.62,5742
0.62,5743
0.63,5744
0.63,5745
0.63,5746
0.62,5747
0.62,5748
0.62,5749
0.61,5750
0.62,5751
0.62,5752
0.62,5753
0.59,5754
0.6,5755
0.61,5756
0.62,5757
0.63,5758
0.63,5759
0.63,5760
0.63,5761
0.64,5762
0.65,5763
0.65,5764
0.64,5765
0.62,5766
0.58,5767
0.57,5768
0.55,5769
0.53,5770
0.53,5771
0.53,5772
0.53,5773
0.53,5774
0.53,5775
0.53,5776
0.53,5777
0.53,5778
0.53,5779
0.53,5780
0.52,5781
0.52,5782
0.53,5783
0.52,5784
0.53,5785
0.53,5786
0.52,5787
0.52,5788
0.53,5789
0.53,5790
0.53,5791
0.54,5792
0.54,5793
0.54,5794
0.54,5795
0.54,5796
0.54,5797
0.54,5798
0.53,5799
0.53,5800
0.52,5801
0.53,5802
0.55,5803
0.58,5804
0.58,5805
0.61,5806
0.61,5807
0.63,5808
0.62,5809
0.61,5810
0.61,5811
0.61,5812
0.6,5813
0.6,5814
0.6,5815
0.59,5816
0.58,5817
0.58,5818
0.59,5819
0.59,5820
0.58,5821
0.58,5822
0.59,5823
0.58,5824
0.58,5825
0.57,5826
0.56,5827
0.56,5828
0.55,5829
0.55,5830
0.54,5831
0.54,5832
0.54,5833
0.54,5834
0.54,5835
0.53,5836
0.54,5837
0.55,5838
0.56,5839
0.56,5840
0.57,5841
0.58,5842
0.57,5843
0.57,5844
0.57,5845
0.57,5846
0.57,5847
0.57,5848
0.58,5849
0.59,5850
0.59,5851
0.59,5852
0.59,5853
0.59,5854
0.59,5855
0.6,5856
0.61,5857
0.61,5858
0.61,5859
0.61,5860
0.61,5861
0.61,5862
0.62,5863
0.62,5864
0.62,5865
0.62,5866
0.63,5867
0.63,5868
0.64,5869
0.64,5870
0.68,5871
0.68,5872
0.67,5873
0.67,5874
0.67,5875
0.68,5876
0.67,5877
0.67,5878
0.67,5879
0.67,5880
0.67,5881
0.67,5882
0.67,5883
0.67,5884
0.67,5885
0.67,5886
0.67,5887
0.67,5888
0.67,5889
0.67,5890
0.67,5891
0.67,5892
0.66,5893
0.66,5894
0.66,5895
0.67,5896
0.69,5897
0.68,5898
0.67,5899
0.69,5900
0.68,5901
0.68,5902
0.68,5903
0.68,5904
0.68,5905
0.68,5906
0.68,5907
0.68,5908
0.68,5909
0.68,5910
0.68,5911
0.69,5912
0.69,5913
0.7,5914
0.71,5915
0.71,5916
0.7,5917
0.69,5918
0.7,5919
0.72,5920
0.71,5921
0.7,5922
0.69,5923
0.68,5924
0.67,5925
0.66,5926
0.65,5927
0.64,5928
0.63,5929
0.62,5930
0.62,5931
0.61,5932
0.6,5933
0.59,5934
0.58,5935
0.57,5936
0.56,5937
0.55,5938
0.55,5939
0.54,5940
0.53,5941
0.53,5942
0.52,5943
0.52,5944
0.52,5945
0.52,5946
0.52,5947
0.52,5948
0.52,5949
0.53,5950
0.53,5951
0.53,5952
0.53,5953
0.53,5954
0.53,5955
0.53,5956
0.53,5957
0.53,5958
0.53,5959
0.53,5960
0.53,5961
0.53,5962
0.53,5963
0.53,5964
0.53,5965
0.53,5966
0.53,5967
0.53,5968
0.54,5969
0.55,5970
0.55,5971
0.55,5972
0.56,5973
0.56,5974
0.56,5975
0.56,5976
0.56,5977
0.56,5978
0.55,5979
0.55,5980
0.55,5981
0.56,5982
0.55,5983
0.55,5984
0.55,5985
0.54,5986
0.53,5987
0.52,5988
0.51,5989
0.5,5990
0.5,5991
0.5,5992
0.5,5993
0.5,5994
0.5,5995
0.51,5996
0.52,5997
0.53,5998
0.54,5999
0.55,6000
0.56,6001
0.56,6002
0.57,6003
0.58,6004
0.58,6005
0.58,6006
0.58,6007
0.58,6008
0.58,6009
0.59,6010
0.59,6011
0.59,6012
0.59,6013
0.59,6014
0.59,6015
0.6,6016
0.61,6017
0.61,6018
0.61,6019
0.61,6020
0.62,6021
0.63,6022
0.64,6023
0.64,6024
0.64,6025
0.64,6026
0.64,6027
0.64,6028
0.64,6029
0.63,6030
0.63,6031
0.63,6032
0.64,6033
0.61,6034
0.61,6035
0.61,6036
0.6,6037
0.61,6038
0.59,6039
0.58,6040
0.58,6041
0.59,6042
0.59,6043
0.59,6044
0.59,6045
0.59,6046
0.59,6047
0.6,6048
0.59,6049
0.61,6050
0.6,6051
0.62,6052
0.61,6053
0.62,6054
0.64,6055
0.64,6056
0.63,6057
0.62,6058
0.62,6059
0.62,6060
0.62,6061
0.61,6062
0.61,6063
0.61,6064
0.6,6065
0.59,6066
0.58,6067
0.57,6068
0.56,6069
0.56,6070
0.55,6071
0.55,6072
0.55,6073
0.55,6074
0.55,6075
0.55,6076
0.56,6077
0.56,6078
0.56,6079
0.57,6080
0.58,6081
0.59,6082
0.59,6083
0.6,6084
0.6,6085
0.6,6086
0.59,6087
0.59,6088
0.57,6089
0.58,6090
0.59,6091
0.59,6092
0.6,6093
0.59,6094
0.6,6095
0.6,6096
0.6,6097
0.6,6098
0.59,6099
0.59,6100
0.59,6101
0.59,6102
0.58,6103
0.58,6104
0.58,6105
0.58,6106
0.59,6107
0.59,6108
0.6,6109
0.6,6110
0.6,6111
0.6,6112
0.59,6113
0.58,6114
0.58,6115
0.57,6116
0.57,6117
0.56,6118
0.56,6119
0.57,6120
0.56,6121
0.56,6122
0.56,6123
0.57,6124
0.56,6125
0.55,6126
0.55,6127
0.56,6128
0.57,6129
0.58,6130
0.59,6131
0.59,6132
0.58,6133
0.57,6134
0.57,6135
0.57,6136
0.58,6137
0.57,6138
0.56,6139
0.56,6140
0.57,6141
0.55,6142
0.55,6143
0.56,6144
0.56,6145
0.55,6146
0.54,6147
0.54,6148
0.55,6149
0.55,6150
0.56,6151
0.57,6152
0.56,6153
0.56,6154
0.54,6155
0.55,6156
0.56,6157
0.55,6158
0.54,6159
0.54,6160
0.53,6161
0.53,6162
0.54,6163
0.55,6164
0.55,6165
0.54,6166
0.55,6167
0.55,6168
0.54,6169
0.53,6170
0.53,6171
0.54,6172
0.54,6173
0.55,6174
0.54,6175
0.55,6176
0.56,6177
0.56,6178
0.56,6179
0.56,6180
0.56,6181
0.56,6182
0.56,6183
0.56,6184
0.56,6185
0.55,6186
0.55,6187
0.55,6188
0.54,6189
0.54,6190
0.54,6191
0.54,6192
0.54,6193
0.54,6194
0.54,6195
0.55,6196
0.56,6197
0.56,6198
0.57,6199
0.58,6200
0.59,6201
0.59,6202
0.57,6203
0.58,6204
0.57,6205
0.57,6206
0.56,6207
0.55,6208
0.56,6209
0.55,6210
0.56,6211
0.57,6212
0.56,6213
0.57,6214
0.57,6215
0.58,6216
0.59,6217
0.6,6218
0.61,6219
0.62,6220
0.63,6221
0.64,6222
0.65,6223
0.66,6224
0.67,6225
0.68,6226
0.69,6227
0.7,6228
0.71,6229
0.71,6230
0.7,6231
0.7,6232
0.69,6233
0.67,6234
0.65,6235
0.63,6236
0.62,6237
0.63,6238
0.6,6239
0.61,6240
0.59,6241
0.6,6242
0.6,6243
0.57,6244
0.58,6245
0.57,6246
0.55,6247
0.51,6248
0.51,6249
0.5,6250
0.5,6251
0.5,6252
0.5,6253
0.51,6254
0.52,6255
0.53,6256
0.54,6257
0.54,6258
0.55,6259
0.55,6260
0.56,6261
0.56,6262
0.57,6263
0.57,6264
0.58,6265
0.59,6266
0.6,6267
0.61,6268
0.62,6269
0.63,6270
0.64,6271
0.63,6272
0.63,6273
0.64,6274
0.64,6275
0.65,6276
0.65,6277
0.66,6278
0.66,6279
0.67,6280
0.65,6281
0.65,6282
0.64,6283
0.64,6284
0.64,6285
0.63,6286
0.64,6287
0.64,6288
0.63,6289
0.63,6290
0.62,6291
0.62,6292
0.62,6293
0.6,6294
0.6,6295
0.57,6296
0.57,6297
0.58,6298
0.58,6299
0.58,6300
0.56,6301
0.55,6302
0.54,6303
0.51,6304
0.49,6305
0.48,6306
0.48,6307
0.48,6308
0.49,6309
0.5,6310
0.51,6311
0.52,6312
0.52,6313
0.52,6314
0.52,6315
0.52,6316
0.52,6317
0.52,6318
0.52,6319
0.52,6320
0.52,6321
0.52,6322
0.53,6323
0.53,6324
0.53,6325
0.52,6326
0.53,6327
0.53,6328
0.54,6329
0.54,6330
0.54,6331
0.53,6332
0.53,6333
0.53,6334
0.54,6335
0.54,6336
0.54,6337
0.54,6338
0.54,6339
0.55,6340
0.55,6341
0.56,6342
0.57,6343
0.58,6344
0.58,6345
0.59,6346
0.59,6347
0.6,6348
0.6,6349
0.6,6350
0.6,6351
0.59,6352
0.6,6353
0.59,6354
0.6,6355
0.61,6356
0.61,6357
0.62,6358
0.62,6359
0.61,6360
0.61,6361
0.61,6362
0.6,6363
0.6,6364
0.6,6365
0.6,6366
0.6,6367
0.6,6368
0.61,6369
0.61,6370
0.61,6371
0.62,6372
0.61,6373
0.61,6374
0.61,6375
0.62,6376
0.61,6377
0.61,6378
0.6,6379
0.59,6380
0.59,6381
0.59,6382
0.59,6383
0.59,6384
0.59,6385
0.59,6386
0.59,6387
0.6,6388
0.61,6389
0.61,6390
0.61,6391
0.61,6392
0.58,6393
0.57,6394
0.58,6395
0.58,6396
0.58,6397
0.55,6398
0.56,6399
0.57,6400
0.56,6401
0.56,6402
0.56,6403
0.57,6404
0.57,6405
0.58,6406
0.59,6407
0.58,6408
0.58,6409
0.57,6410
0.57,6411
0.56,6412
0.57,6413
0.56,6414
0.56,6415
0.56,6416
0.56,6417
0.56,6418
0.56,6419
0.56,6420
0.57,6421
0.57,6422
0.57,6423
0.58,6424
0.59,6425
0.6,6426
0.61,6427
0.62,6428
0.61,6429
0.61,6430
0.61,6431
0.58,6432
0.56,6433
0.56,6434
0.56,6435
0.57,6436
0.54,6437
0.53,6438
0.52,6439
0.51,6440
0.49,6441
0.5,6442
0.51,6443
0.52,6444
0.53,6445
0.51,6446
0.5,6447
0.51,6448
0.5,6449
0.49,6450
0.48,6451
0.49,6452
0.49,6453
0.49,6454
0.48,6455
0.49,6456
0.5,6457
0.5,6458
0.5,6459
0.51,6460
0.52,6461
0.53,6462
0.51,6463
0.51,6464
0.52,6465
0.52,6466
0.53,6467
0.54,6468
0.54,6469
0.54,6470
0.51,6471
0.51,6472
0.51,6473
0.5,6474
0.5,6475
0.52,6476
0.54,6477
0.54,6478
0.54,6479
0.54,6480
0.54,6481
0.54,6482
0.54,6483
0.54,6484
0.54,6485
0.55,6486
0.56,6487
0.56,6488
0.56,6489
0.57,6490
0.58,6491
0.58,6492
0.59,6493
0.59,6494
0.6,6495
0.6,6496
0.61,6497
0.62,6498
0.61,6499
0.62,6500
0.63,6501
0.64,6502
0.65,6503
0.65,6504
0.65,6505
0.65,6506
0.65,6507
0.65,6508
0.65,6509
0.65,6510
0.65,6511
0.64,6512
0.64,6513
0.64,6514
0.65,6515
0.65,6516
0.66,6517
0.66,6518
0.67,6519
0.7,6520
0.73,6521
0.74,6522
0.76,6523
0.76,6524
0.76,6525
0.76,6526
0.75,6527
0.74,6528
0.73,6529
0.73,6530
0.72,6531
0.72,6532
0.71,6533
0.7,6534
0.69,6535
0.69,6536
0.68,6537
0.67,6538
0.66,6539
0.65,6540
0.64,6541
0.63,6542
0.62,6543
0.61,6544
0.61,6545
0.6,6546
0.6,6547
0.59,6548
0.58,6549
0.57,6550
0.57,6551
0.56,6552
0.57,6553
0.57,6554
0.57,6555
0.57,6556
0.56,6557
0.55,6558
0.54,6559
0.53,6560
0.53,6561
0.52,6562
0.53,6563
0.53,6564
0.52,6565
0.52,6566
0.51,6567
0.51,6568
0.5,6569
0.5,6570
0.49,6571
0.48,6572
0.47,6573
0.46,6574
0.45,6575
0.46,6576
0.47,6577
0.47,6578
0.48,6579
0.47,6580
0.47,6581
0.47,6582
0.47,6583
0.47,6584
0.47,6585
0.47,6586
0.47,6587
0.47,6588
0.47,6589
0.46,6590
0.46,6591
0.46,6592
0.45,6593
0.46,6594
0.47,6595
0.47,6596
0.5,6597
0.5,6598
0.5,6599
0.49,6600
0.48,6601
0.5,6602
0.51,6603
0.52,6604
0.51,6605
0.51,6606
0.51,6607
0.51,6608
0.51,6609
0.53,6610
0.53,6611
0.52,6612
0.54,6613
0.54,6614
0.54,6615
0.55,6616
0.55,6617
0.56,6618
0.56,6619
0.56,6620
0.55,6621
0.55,6622
0.54,6623
0.55,6624
0.56,6625
0.56,6626
0.56,6627
0.56,6628
0.56,6629
0.55,6630
0.55,6631
0.54,6632
0.54,6633
0.54,6634
0.54,6635
0.54,6636
0.55,6637
0.54,6638
0.55,6639
0.54,6640
0.54,6641
0.55,6642
0.52,6643
0.51,6644
0.51,6645
0.49,6646
0.5,6647
0.49,6648
0.49,6649
0.49,6650
0.5,6651
0.5,6652
0.5,6653
0.49,6654
0.5,6655
0.49,6656
0.49,6657
0.47,6658
0.48,6659
0.48,6660
0.47,6661
0.48,6662
0.47,6663
0.45,6664
0.45,6665
0.46,6666
0.44,6667
0.45,6668
0.45,6669
0.46,6670
0.46,6671
0.46,6672
0.47,6673
0.48,6674
0.48,6675
0.49,6676
0.5,6677
0.51,6678
0.52,6679
0.52,6680
0.53,6681
0.54,6682
0.54,6683
0.54,6684
0.53,6685
0.52,6686
0.52,6687
0.53,6688
0.52,6689
0.52,6690
0.52,6691
0.52,6692
0.52,6693
0.52,6694
0.52,6695
0.52,6696
0.52,6697
0.52,6698
0.52,6699
0.52,6700
0.52,6701
0.52,6702
0.54,6703
0.54,6704
0.55,6705
0.57,6706
0.56,6707
0.57,6708
0.59,6709
0.58,6710
0.62,6711
0.64,6712
0.64,6713
0.65,6714
0.66,6715
0.66,6716
0.66,6717
0.65,6718
0.65,6719
0.64,6720
0.63,6721
0.63,6722
0.62,6723
0.62,6724
0.61,6725
0.61,6726
0.61,6727
0.61,6728
0.61,6729
0.6,6730
0.6,6731
0.6,6732
0.6,6733
0.6,6734
0.6,6735
0.6,6736
0.61,6737
0.61,6738
0.61,6739
0.61,6740
0.61,6741
0.61,6742
0.61,6743
0.61,6744
0.62,6745
0.63,6746
0.64,6747
0.64,6748
0.64,6749
0.64,6750
0.64,6751
0.64,6752
0.64,6753
0.64,6754
0.64,6755
0.63,6756
0.63,6757
0.63,6758
0.64,6759
0.64,6760
0.64,6761
0.65,6762
0.65,6763
0.66,6764
0.66,6765
0.66,6766
0.66,6767
0.66,6768
0.66,6769
0.66,6770
0.66,6771
0.67,6772
0.67,6773
0.67,6774
0.67,6775
0.67,6776
0.68,6777
0.67,6778
0.66,6779
0.66,6780
0.66,6781
0.66,6782
0.67,6783
0.67,6784
0.67,6785
0.67,6786
0.67,6787
0.67,6788
0.67,6789
0.67,6790
0.67,6791
0.68,6792
0.67,6793
0.7,6794
0.7,6795
0.71,6796
0.72,6797
0.73,6798
0.72,6799
0.71,6800
0.7,6801
0.7,6802
0.7,6803
0.7,6804
0.7,6805
0.7,6806
0.7,6807
0.7,6808
0.7,6809
0.7,6810
0.7,6811
0.7,6812
0.71,6813
0.72,6814
0.73,6815
0.74,6816
0.75,6817
0.76,6818
0.77,6819
0.78,6820
0.78,6821
0.79,6822
0.79,6823
0.79,6824
0.8,6825
0.8,6826
0.8,6827
0.8,6828
0.8,6829
0.79,6830
0.79,6831
0.79,6832
0.79,6833
0.79,6834
0.79,6835
0.79,6836
0.79,6837
0.78,6838
0.78,6839
0.77,6840
0.76,6841
0.75,6842
0.74,6843
0.76,6844
0.76,6845
0.75,6846
0.75,6847
0.75,6848
0.75,6849
0.75,6850
0.75,6851
0.75,6852
0.74,6853
0.74,6854
0.74,6855
0.74,6856
0.74,6857
0.74,6858
0.74,6859
0.76,6860
0.76,6861
0.76,6862
0.76,6863
0.76,6864
0.77,6865
0.77,6866
0.77,6867
0.77,6868
0.76,6869
0.77,6870
0.76,6871
0.77,6872
0.76,6873
0.76,6874
0.76,6875
0.75,6876
0.75,6877
0.74,6878
0.73,6879
0.72,6880
0.71,6881
0.71,6882
0.7,6883
0.7,6884
0.71,6885
0.71,6886
0.71,6887
0.71,6888
0.71,6889
0.71,6890
0.7,6891
0.7,6892
0.71,6893
0.71,6894
0.71,6895
0.71,6896
0.71,6897
0.71,6898
0.72,6899
0.71,6900
0.71,6901
0.72,6902
0.72,6903
0.73,6904
0.74,6905
0.73,6906
0.74,6907
0.75,6908
0.76,6909
0.76,6910
0.76,6911
0.75,6912
0.74,6913
0.74,6914
0.73,6915
0.72,6916
0.71,6917
0.72,6918
0.72,6919
0.71,6920
0.71,6921
0.71,6922
0.71,6923
0.71,6924
0.71,6925
0.71,6926
0.71,6927
0.71,6928
0.7,6929
0.7,6930
0.7,6931
0.71,6932
0.7,6933
0.69,6934
0.7,6935
0.69,6936
0.69,6937
0.69,6938
0.68,6939
0.69,6940
0.69,6941
0.69,6942
0.69,6943
0.69,6944
0.7,6945
0.69,6946
0.7,6947
0.7,6948
0.69,6949
0.68,6950
0.68,6951
0.68,6952
0.68,6953
0.67,6954
0.67,6955
0.66,6956
0.65,6957
0.64,6958
0.63,6959
0.62,6960
0.63,6961
0.63,6962
0.63,6963
0.63,6964
0.64,6965
0.64,6966
0.64,6967
0.64,6968
0.65,6969
0.65,6970
0.64,6971
0.64,6972
0.64,6973
0.64,6974
0.64,6975
0.62,6976
0.62,6977
0.62,6978
0.62,6979
0.62,6980
0.62,6981
0.64,6982
0.63,6983
0.62,6984
0.61,6985
0.61,6986
0.6,6987
0.6,6988
0.59,6989
0.58,6990
0.59,6991
0.58,6992
0.57,6993
0.57,6994
0.56,6995
0.56,6996
0.57,6997
0.56,6998
0.55,6999
0.54,7000
0.54,7001
0.54,7002
0.55,7003
0.56,7004
0.57,7005
0.56,7006
0.58,7007
0.59,7008
0.62,7009
0.62,7010
0.61,7011
0.63,7012
0.64,7013
0.64,7014
0.63,7015
0.63,7016
0.63,7017
0.63,7018
0.62,7019
0.62,7020
0.61,7021
0.61,7022
0.62,7023
0.62,7024
0.62,7025
0.61,7026
0.62,7027
0.61,7028
0.61,7029
0.61,7030
0.6,7031
0.6,7032
0.59,7033
0.59,7034
0.6,7035
0.61,7036
0.63,7037
0.64,7038
0.64,7039
0.64,7040
0.64,7041
0.65,7042
0.65,7043
0.63,7044
0.62,7045
0.61,7046
0.61,7047
0.61,7048
0.62,7049
0.62,7050
0.63,7051
0.63,7052
0.63,7053
0.64,7054
0.64,7055
0.64,7056
0.63,7057
0.62,7058
0.62,7059
0.62,7060
0.63,7061
0.65,7062
0.64,7063
0.64,7064
0.65,7065
0.68,7066
0.68,7067
0.67,7068
0.67,7069
0.67,7070
0.67,7071
0.67,7072
0.67,7073
0.67,7074
0.67,7075
0.67,7076
0.67,7077
0.66,7078
0.67,7079
0.67,7080
0.66,7081
0.66,7082
0.66,7083
0.66,7084
0.66,7085
0.66,7086
0.66,7087
0.66,7088
0.66,7089
0.66,7090
0.66,7091
0.65,7092
0.65,7093
0.65,7094
0.66,7095
0.65,7096
0.64,7097
0.64,7098
0.63,7099
0.62,7100
0.61,7101
0.6,7102
0.6,7103
0.59,7104
0.6,7105
0.6,7106
0.59,7107
0.58,7108
0.58,7109
0.59,7110
0.58,7111
0.59,7112
0.59,7113
0.59,7114
0.59,7115
0.6,7116
0.59,7117
0.58,7118
0.57,7119
0.57,7120
0.57,7121
0.57,7122
0.56,7123
0.55,7124
0.54,7125
0.53,7126
0.52,7127
0.52,7128
0.52,7129
0.51,7130
0.5,7131
0.51,7132
0.5,7133
0.49,7134
0.49,7135
0.49,7136
0.49,7137
0.49,7138
0.49,7139
0.49,7140
0.49,7141
0.49,7142
0.49,7143
0.5,7144
0.49,7145
0.49,7146
0.49,7147
0.49,7148
0.49,7149
0.49,7150
0.49,7151
0.49,7152
0.49,7153
0.49,7154
0.49,7155
0.5,7156
0.51,7157
0.52,7158
0.53,7159
0.54,7160
0.53,7161
0.53,7162
0.53,7163
0.53,7164
0.52,7165
0.52,7166
0.52,7167
0.51,7168
0.51,7169
0.52,7170
0.53,7171
0.53,7172
0.54,7173
0.55,7174
0.54,7175
0.54,7176
0.54,7177
0.53,7178
0.52,7179
0.51,7180
0.5,7181
0.51,7182
0.51,7183
0.51,7184
0.53,7185
0.53,7186
0.53,7187
0.53,7188
0.53,7189
0.53,7190
0.53,7191
0.54,7192
0.55,7193
0.56,7194
0.57,7195
0.57,7196
0.57,7197
0.57,7198
0.58,7199
0.58,7200
0.58,7201
0.58,7202
0.58,7203
0.59,7204
0.58,7205
0.58,7206
0.59,7207
0.59,7208
0.59,7209
0.59,7210
0.59,7211
0.58,7212
0.59,7213
0.59,7214
0.57,7215
0.58,7216
0.59,7217
0.59,7218
0.58,7219
0.58,7220
0.59,7221
0.59,7222
0.6,7223
0.6,7224
0.59,7225
0.6,7226
0.61,7227
0.61,7228
0.6,7229
0.6,7230
0.6,7231
0.59,7232
0.59,7233
0.58,7234
0.58,7235
0.58,7236
0.58,7237
0.57,7238
0.57,7239
0.59,7240
0.58,7241
0.57,7242
0.56,7243
0.56,7244
0.56,7245
0.57,7246
0.56,7247
0.57,7248
0.58,7249
0.57,7250
0.58,7251
0.58,7252
0.58,7253
0.58,7254
0.59,7255
0.58,7256
0.58,7257
0.58,7258
0.59,7259
0.59,7260
0.59,7261
0.59,7262
0.58,7263
0.58,7264
0.59,7265
0.59,7266
0.58,7267
0.58,7268
0.58,7269
0.58,7270
0.56,7271
0.55,7272
0.55,7273
0.54,7274
0.54,7275
0.55,7276
0.55,7277
0.56,7278
0.54,7279
0.55,7280
0.56,7281
0.57,7282
0.57,7283
0.57,7284
0.57,7285
0.56,7286
0.55,7287
0.55,7288
0.56,7289
0.56,7290
0.55,7291
0.55,7292
0.55,7293
0.54,7294
0.54,7295
0.54,7296
0.55,7297
0.55,7298
0.54,7299
0.55,7300
0.56,7301
0.57,7302
0.58,7303
0.58,7304
0.59,7305
0.59,7306
0.6,7307
0.61,7308
0.61,7309
0.61,7310
0.61,7311
0.61,7312
0.59,7313
0.6,7314
0.61,7315
0.62,7316
0.63,7317
0.64,7318
0.64,7319
0.65,7320
0.65,7321
0.65,7322
0.64,7323
0.63,7324
0.63,7325
0.63,7326
0.62,7327
0.62,7328
0.6,7329
0.6,7330
0.6,7331
0.61,7332
0.62,7333
0.62,7334
0.62,7335
0.63,7336
0.64,7337
0.64,7338
0.63,7339
0.63,7340
0.6,7341
0.6,7342
0.59,7343
0.58,7344
0.59,7345
0.58,7346
0.59,7347
0.59,7348
0.58,7349
0.59,7350
0.6,7351
0.6,7352
0.59,7353
0.56,7354
0.56,7355
0.54,7356
0.55,7357
0.55,7358
0.56,7359
0.57,7360
0.57,7361
0.58,7362
0.59,7363
0.59,7364
0.6,7365
0.61,7366
0.62,7367
0.62,7368
0.62,7369
0.62,7370
0.62,7371
0.62,7372
0.62,7373
0.62,7374
0.61,7375
0.61,7376
0.62,7377
0.62,7378
0.62,7379
0.62,7380
0.63,7381
0.64,7382
0.64,7383
0.64,7384
0.65,7385
0.65,7386
0.64,7387
0.64,7388
0.63,7389
0.64,7390
0.65,7391
0.64,7392
0.64,7393
0.65,7394
0.64,7395
0.65,7396
0.66,7397
0.67,7398
0.67,7399
0.68,7400
0.69,7401
0.7,7402
0.7,7403
0.71,7404
0.71,7405
0.72,7406
0.72,7407
0.71,7408
0.72,7409
0.71,7410
0.71,7411
0.72,7412
0.73,7413
0.74,7414
0.75,7415
0.76,7416
0.76,7417
0.77,7418
0.78,7419
0.79,7420
0.79,7421
0.79,7422
0.8,7423
0.8,7424
0.81,7425
0.78,7426
0.76,7427
0.73,7428
0.71,7429
0.67,7430
0.63,7431
0.61,7432
0.6,7433
0.6,7434
0.59,7435
0.56,7436
0.55,7437
0.54,7438
0.55,7439
0.48,7440
0.46,7441
0.46,7442
0.46,7443
0.46,7444
0.45,7445
0.43,7446
0.41,7447
0.4,7448
0.4,7449
0.41,7450
0.4,7451
0.4,7452
0.41,7453
0.42,7454
0.42,7455
0.42,7456
0.42,7457
0.42,7458
0.42,7459
0.42,7460
0.42,7461
0.42,7462
0.42,7463
0.42,7464
0.43,7465
0.43,7466
0.43,7467
0.43,7468
0.44,7469
0.45,7470
0.45,7471
0.45,7472
0.46,7473
0.46,7474
0.44,7475
0.44,7476
0.44,7477
0.44,7478
0.45,7479
0.46,7480
0.46,7481
0.47,7482
0.47,7483
0.48,7484
0.49,7485
0.5,7486
0.5,7487
0.5,7488
0.5,7489
0.5,7490
0.51,7491
0.51,7492
0.52,7493
0.55,7494
0.56,7495
0.57,7496
0.58,7497
0.58,7498
0.58,7499
0.58,7500
0.57,7501
0.58,7502
0.59,7503
0.58,7504
0.58,7505
0.58,7506
0.58,7507
0.58,7508
0.55,7509
0.55,7510
0.55,7511
0.56,7512
0.56,7513
0.55,7514
0.55,7515
0.55,7516
0.55,7517
0.55,7518
0.55,7519
0.55,7520
0.55,7521
0.55,7522
0.55,7523
0.55,7524
0.56,7525
0.57,7526
0.58,7527
0.59,7528
0.59,7529
0.6,7530
0.59,7531
0.6,7532
0.61,7533
0.6,7534
0.6,7535
0.6,7536
0.61,7537
0.61,7538
0.59,7539
0.6,7540
0.59,7541
0.6,7542
0.61,7543
0.62,7544
0.62,7545
0.63,7546
0.64,7547
0.64,7548
0.65,7549
0.66,7550
0.67,7551
0.67,7552
0.66,7553
0.66,7554
0.65,7555
0.65,7556
0.64,7557
0.64,7558
0.63,7559
0.63,7560
0.63,7561
0.64,7562
0.64,7563
0.64,7564
0.64,7565
0.64,7566
0.65,7567
0.65,7568
0.65,7569
0.65,7570
0.65,7571
0.64,7572
0.64,7573
0.64,7574
0.64,7575
0.64,7576
0.64,7577
0.64,7578
0.64,7579
0.64,7580
0.64,7581
0.64,7582
0.64,7583
0.64,7584
0.64,7585
0.64,7586
0.64,7587
0.64,7588
0.64,7589
0.61,7590
0.58,7591
0.59,7592
0.59,7593
0.59,7594
0.57,7595
0.57,7596
0.58,7597
0.59,7598
0.57,7599
0.58,7600
0.57,7601
0.58,7602
0.58,7603
0.57,7604
0.57,7605
0.57,7606
0.56,7607
0.55,7608
0.56,7609
0.57,7610
0.57,7611
0.57,7612
0.56,7613
0.57,7614
0.58,7615
0.59,7616
0.59,7617
0.59,7618
0.59,7619
0.59,7620
0.59,7621
0.59,7622
0.59,7623
0.59,7624
0.59,7625
0.59,7626
0.59,7627
0.58,7628
0.58,7629
0.57,7630
0.56,7631
0.56,7632
0.57,7633
0.56,7634
0.56,7635
0.53,7636
0.53,7637
0.52,7638
0.53,7639
0.54,7640
0.53,7641
0.54,7642
0.53,7643
0.54,7644
0.54,7645
0.55,7646
0.54,7647
0.55,7648
0.56,7649
0.57,7650
0.58,7651
0.58,7652
0.56,7653
0.54,7654
0.54,7655
0.53,7656
0.54,7657
0.54,7658
0.55,7659
0.55,7660
0.54,7661
0.54,7662
0.54,7663
0.53,7664
0.5,7665
0.51,7666
0.53,7667
0.54,7668
0.54,7669
0.54,7670
0.54,7671
0.54,7672
0.54,7673
0.54,7674
0.55,7675
0.56,7676
0.56,7677
0.55,7678
0.54,7679
0.53,7680
0.53,7681
0.54,7682
0.55,7683
0.56,7684
0.56,7685
0.56,7686
0.56,7687
0.56,7688
0.56,7689
0.57,7690
0.57,7691
0.57,7692
0.57,7693
0.57,7694
0.57,7695
0.57,7696
0.57,7697
0.57,7698
0.57,7699
0.57,7700
0.56,7701
0.56,7702
0.57,7703
0.58,7704
0.58,7705
0.58,7706
0.66,7707
0.68,7708
0.7,7709
0.72,7710
0.74,7711
0.74,7712
0.75,7713
0.75,7714
0.75,7715
0.75,7716
0.76,7717
0.75,7718
0.74,7719
0.74,7720
0.74,7721
0.73,7722
0.72,7723
0.72,7724
0.71,7725
0.7,7726
0.69,7727
0.68,7728
0.67,7729
0.67,7730
0.66,7731
0.66,7732
0.65,7733
0.65,7734
0.64,7735
0.65,7736
0.64,7737
0.63,7738
0.62,7739
0.63,7740
0.62,7741
0.61,7742
0.6,7743
0.59,7744
0.58,7745
0.57,7746
0.57,7747
0.56,7748
0.57,7749
0.57,7750
0.57,7751
0.57,7752
0.58,7753
0.57,7754
0.56,7755
0.55,7756
0.54,7757
0.53,7758
0.52,7759
0.52,7760
0.52,7761
0.52,7762
0.54,7763
0.54,7764
0.54,7765
0.54,7766
0.54,7767
0.53,7768
0.53,7769
0.53,7770
0.53,7771
0.53,7772
0.53,7773
0.53,7774
0.53,7775
0.53,7776
0.54,7777
0.54,7778
0.54,7779
0.54,7780
0.54,7781
0.54,7782
0.54,7783
0.54,7784
0.54,7785
0.53,7786
0.52,7787
0.52,7788
0.53,7789
0.54,7790
0.53,7791
0.52,7792
0.52,7793
0.52,7794
0.52,7795
0.52,7796
0.52,7797
0.52,7798
0.53,7799
0.53,7800
0.54,7801
0.54,7802
0.54,7803
0.54,7804
0.54,7805
0.55,7806
0.55,7807
0.55,7808
0.56,7809
0.57,7810
0.58,7811
0.59,7812
0.6,7813
0.6,7814
0.61,7815
0.6,7816
0.61,7817
0.61,7818
0.61,7819
0.61,7820
0.61,7821
0.61,7822
0.61,7823
0.61,7824
0.61,7825
0.6,7826
0.61,7827
0.61,7828
0.61,7829
0.6,7830
0.6,7831
0.61,7832
0.6,7833
0.61,7834
0.61,7835
0.61,7836
0.62,7837
0.63,7838
0.61,7839
0.62,7840
0.63,7841
0.64,7842
0.62,7843
0.61,7844
0.62,7845
0.62,7846
0.62,7847
0.61,7848
0.62,7849
0.6,7850
0.61,7851
0.6,7852
0.6,7853
0.61,7854
0.62,7855
0.62,7856
0.59,7857
0.6,7858
0.6,7859
0.61,7860
0.61,7861
0.61,7862
0.65,7863
0.64,7864
0.63,7865
0.64,7866
0.65,7867
0.64,7868
0.65,7869
0.66,7870
0.66,7871
0.65,7872
0.65,7873
0.67,7874
0.66,7875
0.65,7876
0.64,7877
0.65,7878
0.64,7879
0.64,7880
0.63,7881
0.62,7882
0.62,7883
0.63,7884
0.62,7885
0.64,7886
0.64,7887
0.64,7888
0.65,7889
0.64,7890
0.66,7891
0.66,7892
0.65,7893
0.64,7894
0.64,7895
0.63,7896
0.62,7897
0.63,7898
0.62,7899
0.61,7900
0.61,7901
0.6,7902
0.6,7903
0.59,7904
0.59,7905
0.59,7906
0.58,7907
0.57,7908
0.57,7909
0.57,7910
0.56,7911
0.55,7912
0.55,7913
0.54,7914
0.54,7915
0.55,7916
0.54,7917
0.53,7918
0.53,7919
0.53,7920
0.52,7921
0.51,7922
0.5,7923
0.49,7924
0.49,7925
0.5,7926
0.51,7927
0.52,7928
0.52,7929
0.52,7930
0.52,7931
0.52,7932
0.52,7933
0.52,7934
0.52,7935
0.52,7936
0.52,7937
0.52,7938
0.52,7939
0.52,7940
0.52,7941
0.52,7942
0.53,7943
0.54,7944
0.54,7945
0.55,7946
0.55,7947
0.55,7948
0.55,7949
0.55,7950
0.55,7951
0.55,7952
0.55,7953
0.55,7954
0.55,7955
0.55,7956
0.55,7957
0.55,7958
0.55,7959
0.55,7960
0.55,7961
0.56,7962
0.57,7963
0.58,7964
0.59,7965
0.6,7966
0.6,7967
0.6,7968
0.6,7969
0.6,7970
0.59,7971
0.58,7972
0.57,7973
0.56,7974
0.55,7975
0.54,7976
0.54,7977
0.54,7978
0.53,7979
0.57,7980
0.57,7981
0.61,7982
0.61,7983
0.62,7984
0.63,7985
0.64,7986
0.66,7987
0.66,7988
0.66,7989
0.66,7990
0.66,7991
0.66,7992
0.66,7993
0.66,7994
0.66,7995
0.66,7996
0.66,7997
0.66,7998
0.66,7999
0.67,8000
0.67,8001
0.68,8002
0.69,8003
0.69,8004
0.69,8005
0.69,8006
0.69,8007
0.69,8008
0.68,8009
0.68,8010
0.68,8011
0.68,8012
0.69,8013
0.68,8014
0.67,8015
0.67,8016
0.67,8017
0.67,8018
0.66,8019
0.65,8020
0.64,8021
0.63,8022
0.63,8023
0.63,8024
0.62,8025
0.61,8026
0.61,8027
0.62,8028
0.62,8029
0.61,8030
0.61,8031
0.61,8032
0.6,8033
0.59,8034
0.6,8035
0.59,8036
0.58,8037
0.57,8038
0.57,8039
0.58,8040
0.59,8041
0.6,8042
0.6,8043
0.59,8044
0.59,8045
0.6,8046
0.6,8047
0.6,8048
0.6,8049
0.64,8050
0.65,8051
0.64,8052
0.64,8053
0.65,8054
0.66,8055
0.66,8056
0.66,8057
0.66,8058
0.65,8059
0.67,8060
0.66,8061
0.65,8062
0.64,8063
0.63,8064
0.63,8065
0.63,8066
0.65,8067
0.65,8068
0.65,8069
0.67,8070
0.67,8071
0.67,8072
0.67,8073
0.67,8074
0.67,8075
0.67,8076
0.67,8077
0.67,8078
0.67,8079
0.66,8080
0.65,8081
0.66,8082
0.67,8083
0.68,8084
0.65,8085
0.64,8086
0.65,8087
0.66,8088
0.66,8089
0.67,8090
0.67,8091
0.68,8092
0.68,8093
0.68,8094
0.68,8095
0.68,8096
0.68,8097
0.67,8098
0.67,8099
0.67,8100
0.67,8101
0.67,8102
0.67,8103
0.68,8104
0.68,8105
0.67,8106
0.67,8107
0.67,8108
0.67,8109
0.67,8110
0.67,8111
0.68,8112
0.68,8113
0.68,8114
0.68,8115
0.68,8116
0.68,8117
0.68,8118
0.68,8119
0.68,8120
0.68,8121
0.66,8122
0.66,8123
0.66,8124
0.67,8125
0.67,8126
0.68,8127
0.71,8128
0.7,8129
0.71,8130
0.74,8131
0.74,8132
0.74,8133
0.74,8134
0.74,8135
0.74,8136
0.73,8137
0.73,8138
0.72,8139
0.71,8140
0.7,8141
0.69,8142
0.68,8143
0.67,8144
0.66,8145
0.66,8146
0.66,8147
0.66,8148
0.66,8149
0.66,8150
0.67,8151
0.68,8152
0.69,8153
0.7,8154
0.71,8155
0.72,8156
0.73,8157
0.73,8158
0.74,8159
0.73,8160
0.74,8161
0.74,8162
0.74,8163
0.74,8164
0.74,8165
0.74,8166
0.73,8167
0.72,8168
0.72,8169
0.72,8170
0.71,8171
0.71,8172
0.7,8173
0.7,8174
0.7,8175
0.71,8176
0.7,8177
0.7,8178
0.7,8179
0.7,8180
0.69,8181
0.68,8182
0.69,8183
0.68,8184
0.69,8185
0.68,8186
0.68,8187
0.68,8188
0.67,8189
0.66,8190
0.66,8191
0.66,8192
0.66,8193
0.67,8194
0.66,8195
0.66,8196
0.65,8197
0.64,8198
0.63,8199
0.62,8200
0.62,8201
0.61,8202
0.6,8203
0.6,8204
0.6,8205
0.61,8206
0.6,8207
0.6,8208
0.6,8209
0.6,8210
0.6,8211
0.59,8212
0.59,8213
0.59,8214
0.59,8215
0.59,8216
0.59,8217
0.59,8218
0.59,8219
0.6,8220
0.6,8221
0.6,8222
0.6,8223
0.6,8224
0.6,8225
0.6,8226
0.6,8227
0.6,8228
0.61,8229
0.62,8230
0.62,8231
0.61,8232
0.6,8233
0.59,8234
0.59,8235
0.58,8236
0.58,8237
0.58,8238
0.59,8239
0.59,8240
0.6,8241
0.6,8242
0.6,8243
0.6,8244
0.6,8245
0.6,8246
0.6,8247
0.6,8248
0.6,8249
0.6,8250
0.6,8251
0.6,8252
0.6,8253
0.6,8254
0.6,8255
0.59,8256
0.58,8257
0.58,8258
0.57,8259
0.58,8260
0.58,8261
0.58,8262
0.59,8263
0.58,8264
0.57,8265
0.56,8266
0.55,8267
0.55,8268
0.55,8269
0.55,8270
0.55,8271
0.55,8272
0.55,8273
0.55,8274
0.56,8275
0.55,8276
0.54,8277
0.54,8278
0.54,8279
0.55,8280
0.56,8281
0.56,8282
0.56,8283
0.55,8284
0.55,8285
0.56,8286
0.56,8287
0.57,8288
0.57,8289
0.56,8290
0.56,8291
0.56,8292
0.56,8293
0.55,8294
0.56,8295
0.56,8296
0.57,8297
0.57,8298
0.58,8299
0.58,8300
0.59,8301
0.59,8302
0.59,8303
0.59,8304
0.59,8305
0.59,8306
0.59,8307
0.59,8308
0.59,8309
0.59,8310
0.59,8311
0.59,8312
0.59,8313
0.59,8314
0.59,8315
0.6,8316
0.6,8317
0.59,8318
0.58,8319
0.57,8320
0.56,8321
0.56,8322
0.56,8323
0.56,8324
0.56,8325
0.55,8326
0.54,8327
0.54,8328
0.53,8329
0.52,8330
0.52,8331
0.52,8332
0.51,8333
0.51,8334
0.5,8335
0.51,8336
0.52,8337
0.52,8338
0.53,8339
0.54,8340
0.53,8341
0.53,8342
0.53,8343
0.53,8344
0.54,8345
0.55,8346
0.54,8347
0.54,8348
0.54,8349
0.54,8350
0.54,8351
0.54,8352
0.54,8353
0.55,8354
0.55,8355
0.55,8356
0.56,8357
0.57,8358
0.58,8359
0.59,8360
0.6,8361
0.61,8362
0.62,8363
0.63,8364
0.64,8365
0.65,8366
0.66,8367
0.66,8368
0.66,8369
0.66,8370
0.65,8371
0.65,8372
0.65,8373
0.65,8374
0.65,8375
0.65,8376
0.66,8377
0.65,8378
0.66,8379
0.66,8380
0.65,8381
0.66,8382
0.65,8383
0.64,8384
0.63,8385
0.62,8386
0.61,8387
0.6,8388
0.59,8389
0.59,8390
0.59,8391
0.58,8392
0.58,8393
0.58,8394
0.58,8395
0.58,8396
0.58,8397
0.58,8398
0.58,8399
0.58,8400
0.58,8401
0.58,8402
0.58,8403
0.59,8404
0.59,8405
0.6,8406
0.6,8407
0.61,8408
0.62,8409
0.63,8410
0.64,8411
0.65,8412
0.66,8413
0.66,8414
0.65,8415
0.65,8416
0.65,8417
0.65,8418
0.65,8419
0.65,8420
0.66,8421
0.66,8422
0.66,8423
0.66,8424
0.67,8425
0.67,8426
0.68,8427
0.66,8428
0.66,8429
0.65,8430
0.65,8431
0.65,8432
0.65,8433
0.64,8434
0.64,8435
0.65,8436
0.65,8437
0.65,8438
0.65,8439
0.65,8440
0.64,8441
0.63,8442
0.64,8443
0.64,8444
0.63,8445
0.62,8446
0.64,8447
0.63,8448
0.62,8449
0.62,8450
0.62,8451
0.61,8452
0.6,8453
0.6,8454
0.59,8455
0.58,8456
0.57,8457
0.57,8458
0.57,8459
0.57,8460
0.57,8461
0.56,8462
0.56,8463
0.57,8464
0.56,8465
0.57,8466
0.57,8467
0.57,8468
0.57,8469
0.57,8470
0.57,8471
0.57,8472
0.56,8473
0.55,8474
0.55,8475
0.57,8476
0.57,8477
0.58,8478
0.59,8479
0.59,8480
0.58,8481
0.57,8482
0.57,8483
0.57,8484
0.56,8485
0.55,8486
0.54,8487
0.55,8488
0.55,8489
0.57,8490
0.57,8491
0.58,8492
0.58,8493
0.58,8494
0.58,8495
0.58,8496
0.58,8497
0.58,8498
0.59,8499
0.59,8500
0.59,8501
0.6,8502
0.6,8503
0.6,8504
0.59,8505
0.6,8506
0.6,8507
0.59,8508
0.59,8509
0.59,8510
0.58,8511
0.58,8512
0.57,8513
0.56,8514
0.56,8515
0.55,8516
0.54,8517
0.54,8518
0.53,8519
0.52,8520
0.51,8521
0.51,8522
0.51,8523
0.51,8524
0.51,8525
0.51,8526
0.51,8527
0.5,8528
0.52,8529
0.52,8530
0.52,8531
0.53,8532
0.53,8533
0.53,8534
0.53,8535
0.53,8536
0.53,8537
0.53,8538
0.53,8539
0.53,8540
0.53,8541
0.53,8542
0.53,8543
0.53,8544
0.53,8545
0.53,8546
0.53,8547
0.53,8548
0.53,8549
0.52,8550
0.51,8551
0.51,8552
0.51,8553
0.51,8554
0.5,8555
0.5,8556
0.49,8557
0.5,8558
0.5,8559
0.49,8560
0.49,8561
0.48,8562
0.47,8563
0.47,8564
0.48,8565
0.48,8566
0.49,8567
0.49,8568
0.49,8569
0.5,8570
0.49,8571
0.51,8572
0.5,8573
0.51,8574
0.51,8575
0.52,8576
0.52,8577
0.52,8578
0.51,8579
0.51,8580
0.51,8581
0.51,8582
0.51,8583
0.5,8584
0.5,8585
0.51,8586
0.51,8587
0.51,8588
0.5,8589
0.49,8590
0.49,8591
0.49,8592
0.49,8593
0.5,8594
0.5,8595
0.5,8596
0.5,8597
0.49,8598
0.49,8599
0.49,8600
0.49,8601
0.49,8602
0.49,8603
0.49,8604
0.49,8605
0.49,8606
0.49,8607
0.49,8608
0.49,8609
0.5,8610
0.51,8611
0.51,8612
0.52,8613
0.53,8614
0.54,8615
0.55,8616
0.56,8617
0.56,8618
0.57,8619
0.57,8620
0.58,8621
0.58,8622
0.57,8623
0.57,8624
0.56,8625
0.56,8626
0.56,8627
0.57,8628
0.58,8629
0.58,8630
0.59,8631
0.6,8632
0.59,8633
0.59,8634
0.59,8635
0.59,8636
0.59,8637
0.59,8638
0.59,8639
0.58,8640
0.59,8641
0.59,8642
0.59,8643
0.6,8644
0.61,8645
0.62,8646
0.62,8647
0.63,8648
0.64,8649
0.64,8650
0.64,8651
0.63,8652
0.64,8653
0.64,8654
0.65,8655
0.65,8656
0.64,8657
0.64,8658
0.65,8659
0.63,8660
0.61,8661
0.6,8662
0.61,8663
0.6,8664
0.58,8665
0.57,8666
0.56,8667
0.57,8668
0.55,8669
0.54,8670
0.53,8671
0.54,8672
0.53,8673
0.52,8674
0.52,8675
0.5,8676
0.5,8677
0.5,8678
0.5,8679
0.5,8680
0.5,8681
0.5,8682
0.5,8683
0.5,8684
0.5,8685
0.48,8686
0.48,8687
0.49,8688
0.5,8689
0.5,8690
0.54,8691
0.54,8692
0.54,8693
0.53,8694
0.52,8695
0.53,8696
0.53,8697
0.54,8698
0.56,8699
0.57,8700
0.57,8701
0.58,8702
0.58,8703
0.58,8704
0.59,8705
0.58,8706
0.59,8707
0.63,8708
0.65,8709
0.64,8710
0.65,8711
0.66,8712
0.66,8713
0.67,8714
0.66,8715
0.65,8716
0.64,8717
0.63,8718
0.62,8719
0.62,8720
0.62,8721
0.62,8722
0.62,8723
0.63,8724
0.63,8725
0.63,8726
0.63,8727
0.62,8728
0.62,8729
0.62,8730
0.62,8731
0.62,8732
0.62,8733
0.62,8734
0.62,8735
0.62,8736
0.62,8737
0.62,8738
0.63,8739
0.63,8740
0.64,8741
0.65,8742
0.65,8743
0.65,8744
0.64,8745
0.63,8746
0.62,8747
0.62,8748
0.62,8749
0.62,8750
0.62,8751
0.62,8752
0.62,8753
0.62,8754
0.62,8755
0.62,8756
0.62,8757
0.62,8758
0.62,8759
0.62,8760
0.62,8761
0.62,8762
0.62,8763
0.62,8764
0.61,8765
0.62,8766
0.62,8767
0.62,8768
0.62,8769
0.62,8770
0.62,8771
0.62,8772
0.62,8773
0.62,8774
0.62,8775
0.62,8776
0.62,8777
0.61,8778
0.61,8779
0.62,8780
0.61,8781
0.61,8782
0.6,8783
0.6,8784
0.6,8785
0.6,8786
0.6,8787
0.6,8788
0.6,8789
0.61,8790
0.62,8791
0.62,8792
0.61,8793
0.62,8794
0.62,8795
0.63,8796
0.63,8797
0.64,8798
0.65,8799
0.64,8800
0.65,8801
0.65,8802
0.66,8803
0.66,8804
0.66,8805
0.67,8806
0.68,8807
0.66,8808
0.64,8809
0.61,8810
0.58,8811
0.57,8812
0.54,8813
0.55,8814
0.55,8815
0.55,8816
0.55,8817
0.53,8818
0.54,8819
0.54,8820
0.55,8821
0.56,8822
0.57,8823
0.58,8824
0.59,8825
0.59,8826
0.59,8827
0.6,8828
0.61,8829
0.62,8830
0.62,8831
0.63,8832
0.63,8833
0.64,8834
0.65,8835
0.66,8836
0.67,8837
0.68,8838
0.69,8839
0.69,8840
0.68,8841
0.69,8842
0.68,8843
0.69,8844
0.66,8845
0.64,8846
0.64,8847
0.65,8848
0.66,8849
0.67,8850
0.67,8851
0.68,8852
0.68,8853
0.68,8854
0.68,8855
0.66,8856
0.64,8857
0.62,8858
0.63,8859
0.62,8860
0.6,8861
0.6,8862
0.55,8863
0.55,8864
0.55,8865
0.5,8866
0.49,8867
0.48,8868
0.48,8869
0.48,8870
0.49,8871
0.5,8872
0.51,8873
0.52,8874
0.53,8875
0.54,8876
0.53,8877
0.53,8878
0.53,8879
0.53,8880
0.53,8881
0.53,8882
0.53,8883
0.53,8884
0.53,8885
0.53,8886
0.53,8887
0.53,8888
0.53,8889
0.53,8890
0.53,8891
0.53,8892
0.53,8893
0.53,8894
0.53,8895
0.54,8896
0.54,8897
0.54,8898
0.54,8899
0.53,8900
0.53,8901
0.53,8902
0.53,8903
0.53,8904
0.53,8905
0.54,8906
0.54,8907
0.55,8908
0.56,8909
0.56,8910
0.57,8911
0.56,8912
0.56,8913
0.56,8914
0.57,8915
0.56,8916
0.57,8917
0.58,8918
0.58,8919
0.58,8920
0.58,8921
0.58,8922
0.58,8923
0.59,8924
0.59,8925
0.58,8926
0.56,8927
0.55,8928
0.56,8929
0.55,8930
0.56,8931
0.54,8932
0.52,8933
0.48,8934
0.49,8935
0.5,8936
0.5,8937
0.5,8938
0.5,8939
0.5,8940
0.55,8941
0.55,8942
0.55,8943
0.56,8944
0.58,8945
0.58,8946
0.58,8947
0.57,8948
0.57,8949
0.58,8950
0.61,8951
0.6,8952
0.6,8953
0.6,8954
0.61,8955
0.61,8956
0.61,8957
0.61,8958
0.61,8959
0.61,8960
0.61,8961
0.61,8962
0.61,8963
0.61,8964
0.61,8965
0.61,8966
0.6,8967
0.59,8968
0.58,8969
0.57,8970
0.56,8971
0.56,8972
0.57,8973
0.6,8974
0.59,8975
0.58,8976
0.57,8977
0.56,8978
0.55,8979
0.54,8980
0.53,8981
0.53,8982
0.54,8983
0.54,8984
0.54,8985
0.54,8986
0.54,8987
0.54,8988
0.54,8989
0.54,8990
0.54,8991
0.54,8992
0.54,8993
0.54,8994
0.54,8995
0.54,8996
0.54,8997
0.55,8998
0.56,8999
0.56,9000
0.57,9001
0.58,9002
0.58,9003
0.58,9004
0.58,9005
0.58,9006
0.58,9007
0.57,9008
0.56,9009
0.56,9010
0.55,9011
0.54,9012
0.54,9013
0.53,9014
0.52,9015
0.51,9016
0.5,9017
0.49,9018
0.48,9019
0.47,9020
0.46,9021
0.46,9022
0.48,9023
0.47,9024
0.46,9025
0.45,9026
0.45,9027
0.47,9028
0.47,9029
0.47,9030
0.47,9031
0.47,9032
0.47,9033
0.47,9034
0.47,9035
0.47,9036
0.47,9037
0.48,9038
0.49,9039
0.5,9040
0.51,9041
0.51,9042
0.5,9043
0.49,9044
0.49,9045
0.49,9046
0.49,9047
0.5,9048
0.5,9049
0.49,9050
0.5,9051
0.51,9052
0.51,9053
0.51,9054
0.52,9055
0.52,9056
0.53,9057
0.54,9058
0.55,9059
0.56,9060
0.57,9061
0.58,9062
0.59,9063
0.6,9064
0.61,9065
0.61,9066
0.62,9067
0.63,9068
0.64,9069
0.65,9070
0.65,9071
0.66,9072
0.67,9073
0.67,9074
0.68,9075
0.69,9076
0.69,9077
0.7,9078
0.7,9079
0.71,9080
0.68,9081
0.69,9082
0.69,9083
0.7,9084
0.69,9085
0.69,9086
0.69,9087
0.69,9088
0.68,9089
0.68,9090
0.68,9091
0.68,9092
0.68,9093
0.68,9094
0.68,9095
0.67,9096
0.67,9097
0.67,9098
0.67,9099
0.68,9100
0.69,9101
0.7,9102
0.71,9103
0.71,9104
0.72,9105
0.72,9106
0.73,9107
0.74,9108
0.75,9109
0.73,9110
0.72,9111
0.72,9112
0.7,9113
0.7,9114
0.7,9115
0.69,9116
0.67,9117
0.66,9118
0.66,9119
0.65,9120
0.66,9121
0.65,9122
0.66,9123
0.65,9124
0.64,9125
0.61,9126
0.62,9127
0.6,9128
0.6,9129
0.6,9130
0.6,9131
0.6,9132
0.6,9133
0.6,9134
0.6,9135
0.6,9136
0.6,9137
0.6,9138
0.6,9139
0.6,9140
0.59,9141
0.6,9142
0.6,9143
0.59,9144
0.59,9145
0.58,9146
0.59,9147
0.59,9148
0.59,9149
0.59,9150
0.59,9151
0.59,9152
0.59,9153
0.59,9154
0.58,9155
0.58,9156
0.58,9157
0.58,9158
0.58,9159
0.58,9160
0.58,9161
0.58,9162
0.58,9163
0.58,9164
0.59,9165
0.58,9166
0.59,9167
0.6,9168
0.61,9169
0.61,9170
0.62,9171
0.62,9172
0.62,9173
0.63,9174
0.63,9175
0.63,9176
0.63,9177
0.63,9178
0.63,9179
0.62,9180
0.63,9181
0.63,9182
0.63,9183
0.63,9184
0.63,9185
0.63,9186
0.64,9187
0.64,9188
0.64,9189
0.63,9190
0.62,9191
0.61,9192
0.61,9193
0.6,9194
0.6,9195
0.59,9196
0.58,9197
0.58,9198
0.57,9199
0.58,9200
0.58,9201
0.59,9202
0.6,9203
0.6,9204
0.6,9205
0.61,9206
0.61,9207
0.6,9208
0.6,9209
0.6,9210
0.6,9211
0.6,9212
0.61,9213
0.61,9214
0.61,9215
0.61,9216
0.62,9217
0.62,9218
0.62,9219
0.61,9220
0.6,9221
0.59,9222
0.59,9223
0.59,9224
0.6,9225
0.6,9226
0.6,9227
0.6,9228
0.61,9229
0.6,9230
0.6,9231
0.61,9232
0.61,9233
0.6,9234
0.6,9235
0.61,9236
0.6,9237
0.61,9238
0.62,9239
0.63,9240
0.64,9241
0.64,9242
0.63,9243
0.62,9244
0.63,9245
0.64,9246
0.64,9247
0.63,9248
0.63,9249
0.67,9250
0.66,9251
0.67,9252
0.67,9253
0.69,9254
0.68,9255
0.68,9256
0.69,9257
0.68,9258
0.68,9259
0.68,9260
0.68,9261
0.68,9262
0.68,9263
0.68,9264
0.67,9265
0.66,9266
0.65,9267
0.65,9268
0.64,9269
0.63,9270
0.62,9271
0.61,9272
0.61,9273
0.61,9274
0.61,9275
0.61,9276
0.62,9277
0.62,9278
0.61,9279
0.61,9280
0.61,9281
0.61,9282
0.61,9283
0.61,9284
0.61,9285
0.61,9286
0.61,9287
0.61,9288
0.62,9289
0.63,9290
0.63,9291
0.62,9292
0.63,9293
0.64,9294
0.64,9295
0.65,9296
0.66,9297
0.66,9298
0.66,9299
0.65,9300
0.65,9301
0.65,9302
0.64,9303
0.63,9304
0.63,9305
0.63,9306
0.63,9307
0.63,9308
0.63,9309
0.63,9310
0.63,9311
0.63,9312
0.63,9313
0.62,9314
0.64,9315
0.63,9316
0.62,9317
0.61,9318
0.6,9319
0.61,9320
0.62,9321
0.62,9322
0.62,9323
0.62,9324
0.62,9325
0.62,9326
0.62,9327
0.62,9328
0.6,9329
0.59,9330
0.59,9331
0.59,9332
0.59,9333
0.59,9334
0.59,9335
0.59,9336
0.59,9337
0.58,9338
0.58,9339
0.59,9340
0.59,9341
0.59,9342
0.59,9343
0.59,9344
0.59,9345
0.59,9346
0.59,9347
0.59,9348
0.59,9349
0.58,9350
0.59,9351
0.6,9352
0.61,9353
0.61,9354
0.6,9355
0.6,9356
0.61,9357
0.6,9358
0.61,9359
0.61,9360
0.6,9361
0.6,9362
0.61,9363
0.62,9364
0.62,9365
0.62,9366
0.62,9367
0.62,9368
0.62,9369
0.62,9370
0.62,9371
0.63,9372
0.64,9373
0.65,9374
0.66,9375
0.66,9376
0.66,9377
0.66,9378
0.65,9379
0.65,9380
0.65,9381
0.65,9382
0.65,9383
0.64,9384
0.65,9385
0.65,9386
0.64,9387
0.65,9388
0.64,9389
0.64,9390
0.63,9391
0.64,9392
0.64,9393
0.64,9394
0.64,9395
0.64,9396
0.63,9397
0.63,9398
0.64,9399
0.65,9400
0.64,9401
0.64,9402
0.65,9403
0.65,9404
0.64,9405
0.64,9406
0.64,9407
0.64,9408
0.62,9409
0.63,9410
0.6,9411
0.61,9412
0.62,9413
0.6,9414
0.57,9415
0.55,9416
0.56,9417
0.54,9418
0.54,9419
0.56,9420
0.56,9421
0.55,9422
0.57,9423
0.58,9424
0.58,9425
0.58,9426
0.58,9427
0.57,9428
0.57,9429
0.57,9430
0.58,9431
0.57,9432
0.57,9433
0.57,9434
0.57,9435
0.57,9436
0.57,9437
0.57,9438
0.58,9439
0.58,9440
0.58,9441
0.58,9442
0.59,9443
0.59,9444
0.58,9445
0.58,9446
0.58,9447
0.59,9448
0.6,9449
0.6,9450
0.6,9451
0.59,9452
0.58,9453
0.57,9454
0.58,9455
0.58,9456
0.59,9457
0.59,9458
0.59,9459
0.59,9460
0.59,9461
0.6,9462
0.6,9463
0.61,9464
0.6,9465
0.61,9466
0.62,9467
0.63,9468
0.63,9469
0.64,9470
0.65,9471
0.66,9472
0.66,9473
0.66,9474
0.66,9475
0.66,9476
0.66,9477
0.66,9478
0.66,9479
0.66,9480
0.66,9481
0.66,9482
0.65,9483
0.64,9484
0.64,9485
0.63,9486
0.62,9487
0.64,9488
0.65,9489
0.64,9490
0.63,9491
0.64,9492
0.64,9493
0.64,9494
0.63,9495
0.62,9496
0.61,9497
0.6,9498
0.59,9499
0.6,9500
0.6,9501
0.59,9502
0.58,9503
0.57,9504
0.57,9505
0.56,9506
0.56,9507
0.56,9508
0.56,9509
0.55,9510
0.55,9511
0.55,9512
0.56,9513
0.57,9514
0.58,9515
0.58,9516
0.58,9517
0.58,9518
0.59,9519
0.57,9520
0.58,9521
0.58,9522
0.58,9523
0.58,9524
0.59,9525
0.59,9526
0.59,9527
0.59,9528
0.6,9529
0.59,9530
0.58,9531
0.58,9532
0.59,9533
0.58,9534
0.57,9535
0.56,9536
0.56,9537
0.56,9538
0.56,9539
0.56,9540
0.56,9541
0.56,9542
0.56,9543
0.56,9544
0.56,9545
0.55,9546
0.55,9547
0.54,9548
0.54,9549
0.53,9550
0.53,9551
0.53,9552
0.52,9553
0.52,9554
0.52,9555
0.53,9556
0.53,9557
0.53,9558
0.53,9559
0.53,9560
0.53,9561
0.53,9562
0.53,9563
0.53,9564
0.53,9565
0.53,9566
0.53,9567
0.53,9568
0.53,9569
0.53,9570
0.53,9571
0.53,9572
0.53,9573
0.53,9574
0.55,9575
0.55,9576
0.55,9577
0.56,9578
0.56,9579
0.56,9580
0.56,9581
0.56,9582
0.55,9583
0.55,9584
0.54,9585
0.54,9586
0.54,9587
0.54,9588
0.54,9589
0.54,9590
0.51,9591
0.52,9592
0.52,9593
0.53,9594
0.54,9595
0.54,9596
0.55,9597
0.56,9598
0.56,9599
0.56,9600
0.56,9601
0.56,9602
0.56,9603
0.56,9604
0.56,9605
0.57,9606
0.57,9607
0.57,9608
0.57,9609
0.56,9610
0.55,9611
0.55,9612
0.55,9613
0.55,9614
0.55,9615
0.55,9616
0.55,9617
0.55,9618
0.55,9619
0.54,9620
0.53,9621
0.54,9622
0.54,9623
0.54,9624
0.53,9625
0.54,9626
0.54,9627
0.55,9628
0.54,9629
0.54,9630
0.55,9631
0.56,9632
0.57,9633
0.57,9634
0.57,9635
0.57,9636
0.56,9637
0.55,9638
0.56,9639
0.56,9640
0.55,9641
0.56,9642
0.55,9643
0.54,9644
0.54,9645
0.54,9646
0.54,9647
0.54,9648
0.54,9649
0.54,9650
0.54,9651
0.54,9652
0.55,9653
0.56,9654
0.57,9655
0.57,9656
0.57,9657
0.56,9658
0.55,9659
0.54,9660
0.53,9661
0.52,9662
0.51,9663
0.5,9664
0.49,9665
0.48,9666
0.48,9667
0.47,9668
0.46,9669
0.47,9670
0.48,9671
0.48,9672
0.48,9673
0.48,9674
0.49,9675
0.5,9676
0.5,9677
0.49,9678
0.49,9679
0.49,9680
0.5,9681
0.5,9682
0.51,9683
0.52,9684
0.53,9685
0.53,9686
0.53,9687
0.53,9688
0.53,9689
0.53,9690
0.53,9691
0.53,9692
0.53,9693
0.53,9694
0.53,9695
0.53,9696
0.53,9697
0.53,9698
0.53,9699
0.53,9700
0.53,9701
0.53,9702
0.54,9703
0.55,9704
0.56,9705
0.57,9706
0.57,9707
0.57,9708
0.58,9709
0.57,9710
0.57,9711
0.57,9712
0.56,9713
0.56,9714
0.55,9715
0.55,9716
0.55,9717
0.53,9718
0.53,9719
0.51,9720
0.5,9721
0.51,9722
0.51,9723
0.52,9724
0.53,9725
0.54,9726
0.54,9727
0.54,9728
0.54,9729
0.53,9730
0.51,9731
0.51,9732
0.51,9733
0.52,9734
0.52,9735
0.52,9736
0.52,9737
0.52,9738
0.52,9739
0.52,9740
0.52,9741
0.52,9742
0.52,9743
0.53,9744
0.54,9745
0.53,9746
0.54,9747
0.55,9748
0.56,9749
0.57,9750
0.57,9751
0.58,9752
0.59,9753
0.59,9754
0.6,9755
0.61,9756
0.62,9757
0.62,9758
0.63,9759
0.63,9760
0.62,9761
0.61,9762
0.62,9763
0.62,9764
0.64,9765
0.66,9766
0.67,9767
0.67,9768
0.68,9769
0.69,9770
0.69,9771
0.7,9772
0.7,9773
0.7,9774
0.7,9775
0.69,9776
0.68,9777
0.68,9778
0.68,9779
0.67,9780
0.66,9781
0.65,9782
0.65,9783
0.65,9784
0.65,9785
0.65,9786
0.65,9787
0.65,9788
0.66,9789
0.67,9790
0.67,9791
0.67,9792
0.67,9793
0.66,9794
0.65,9795
0.64,9796
0.64,9797
0.63,9798
0.62,9799
0.61,9800
0.61,9801
0.61,9802
0.61,9803
0.61,9804
0.6,9805
0.59,9806
0.59,9807
0.58,9808
0.58,9809
0.59,9810
0.61,9811
0.61,9812
0.61,9813
0.62,9814
0.63,9815
0.63,9816
0.62,9817
0.61,9818
0.6,9819
0.61,9820
0.62,9821
0.62,9822
0.63,9823
0.63,9824
0.62,9825
0.61,9826
0.6,9827
0.6,9828
0.6,9829
0.6,9830
0.6,9831
0.6,9832
0.6,9833
0.6,9834
0.61,9835
0.61,9836
0.61,9837
0.61,9838
0.61,9839
0.6,9840
0.59,9841
0.58,9842
0.57,9843
0.57,9844
0.58,9845
0.57,9846
0.58,9847
0.59,9848
0.6,9849
0.6,9850
0.59,9851
0.61,9852
0.6,9853
0.6,9854
0.6,9855
0.6,9856
0.62,9857
0.61,9858
0.61,9859
0.61,9860
0.61,9861
0.61,9862
0.61,9863
0.62,9864
0.63,9865
0.63,9866
0.63,9867
0.63,9868
0.63,9869
0.63,9870
0.63,9871
0.63,9872
0.63,9873
0.63,9874
0.63,9875
0.63,9876
0.62,9877
0.61,9878
0.6,9879
0.61,9880
0.61,9881
0.6,9882
0.6,9883
0.6,9884
0.6,9885
0.6,9886
0.6,9887
0.62,9888
0.62,9889
0.63,9890
0.63,9891
0.63,9892
0.65,9893
0.65,9894
0.64,9895
0.63,9896
0.62,9897
0.62,9898
0.62,9899
0.62,9900
0.62,9901
0.61,9902
0.6,9903
0.59,9904
0.58,9905
0.58,9906
0.59,9907
0.59,9908
0.59,9909
0.6,9910
0.6,9911
0.6,9912
0.6,9913
0.61,9914
0.61,9915
0.61,9916
0.62,9917
0.62,9918
0.62,9919
0.62,9920
0.62,9921
0.62,9922
0.62,9923
0.62,9924
0.62,9925
0.61,9926
0.61,9927
0.6,9928
0.6,9929
0.6,9930
0.6,9931
0.59,9932
0.59,9933
0.6,9934
0.61,9935
0.62,9936
0.61,9937
0.62,9938
0.61,9939
0.61,9940
0.61,9941
0.6,9942
0.6,9943
0.6,9944
0.6,9945
0.59,9946
0.6,9947
0.6,9948
0.6,9949
0.61,9950
0.61,9951
0.61,9952
0.61,9953
0.62,9954
0.62,9955
0.62,9956
0.62,9957
0.61,9958
0.61,9959
0.6,9960
0.6,9961
0.59,9962
0.59,9963
0.6,9964
0.6,9965
0.61,9966
0.6,9967
0.6,9968
0.6,9969
0.6,9970
0.59,9971
0.59,9972
0.58,9973
0.58,9974
0.57,9975
0.58,9976
0.57,9977
0.57,9978
0.57,9979
0.57,9980
0.57,9981
0.57,9982
0.57,9983
0.57,9984
0.57,9985
0.57,9986
0.57,9987
0.57,9988
0.57,9989
0.57,9990
0.57,9991
0.57,9992
0.57,9993
0.57,9994
0.57,9995
0.57,9996
0.57,9997
0.57,9998
0.57,9999
0.57,10000
0.57,10001
0.57,10002
0.56,10003
0.55,10004
0.55,10005
0.55,10006
0.53,10007
0.53,10008
0.53,10009
0.53,10010
0.53,10011
0.53,10012
0.53,10013
0.53,10014
0.54,10015
0.53,10016
0.53,10017
0.53,10018
0.53,10019
0.53,10020
0.53,10021
0.53,10022
0.53,10023
0.53,10024
0.54,10025
0.55,10026
0.56,10027
0.56,10028
0.56,10029
0.57,10030
0.58,10031
0.59,10032
0.6,10033
0.61,10034
0.61,10035
0.57,10036
0.58,10037
0.56,10038
0.55,10039
0.56,10040
0.56,10041
0.57,10042
0.58,10043
0.59,10044
0.6,10045
0.6,10046
0.6,10047
0.61,10048
0.61,10049
0.61,10050
0.62,10051
0.63,10052
0.63,10053
0.63,10054
0.63,10055
0.63,10056
0.62,10057
0.63,10058
0.62,10059
0.63,10060
0.64,10061
0.64,10062
0.65,10063
0.66,10064
0.65,10065
0.65,10066
0.65,10067
0.65,10068
0.64,10069
0.65,10070
0.66,10071
0.67,10072
0.68,10073
0.67,10074
0.67,10075
0.66,10076
0.67,10077
0.65,10078
0.64,10079
0.64,10080
0.62,10081
0.61,10082
0.61,10083
0.62,10084
0.61,10085
0.62,10086
0.62,10087
0.64,10088
0.65,10089
0.68,10090
0.68,10091
0.7,10092
0.7,10093
0.7,10094
0.7,10095
0.7,10096
0.7,10097
0.7,10098
0.69,10099
0.69,10100
0.69,10101
0.69,10102
0.69,10103
0.7,10104
0.7,10105
0.7,10106
0.69,10107
0.68,10108
0.68,10109
0.67,10110
0.66,10111
0.66,10112
0.65,10113
0.65,10114
0.64,10115
0.63,10116
0.62,10117
0.61,10118
0.6,10119
0.59,10120
0.58,10121
0.57,10122
0.57,10123
0.57,10124
0.58,10125
0.57,10126
0.57,10127
0.56,10128
0.55,10129
0.54,10130
0.54,10131
0.53,10132
0.52,10133
0.52,10134
0.53,10135
0.54,10136
0.54,10137
0.54,10138
0.54,10139
0.56,10140
0.57,10141
0.57,10142
0.59,10143
0.58,10144
0.58,10145
0.58,10146
0.58,10147
0.57,10148
0.57,10149
0.57,10150
0.57,10151
0.57,10152
0.57,10153
0.57,10154
0.56,10155
0.55,10156
0.55,10157
0.55,10158
0.56,10159
0.55,10160
0.55,10161
0.54,10162
0.54,10163
0.53,10164
0.52,10165
0.52,10166
0.51,10167
0.51,10168
0.51,10169
0.53,10170
0.53,10171
0.53,10172
0.53,10173
0.53,10174
0.53,10175
0.53,10176
0.53,10177
0.53,10178
0.52,10179
0.52,10180
0.51,10181
0.51,10182
0.51,10183
0.5,10184
0.49,10185
0.51,10186
0.5,10187
0.49,10188
0.5,10189
0.51,10190
0.52,10191
0.53,10192
0.54,10193
0.54,10194
0.54,10195
0.54,10196
0.54,10197
0.54,10198
0.53,10199
0.52,10200
0.53,10201
0.52,10202
0.52,10203
0.52,10204
0.53,10205
0.53,10206
0.53,10207
0.52,10208
0.52,10209
0.52,10210
0.52,10211
0.51,10212
0.52,10213
0.53,10214
0.54,10215
0.53,10216
0.52,10217
0.52,10218
0.52,10219
0.52,10220
0.52,10221
0.53,10222
0.54,10223
0.55,10224
0.54,10225
0.54,10226
0.54,10227
0.54,10228
0.54,10229
0.53,10230
0.53,10231
0.52,10232
0.53,10233
0.54,10234
0.54,10235
0.54,10236
0.54,10237
0.54,10238
0.54,10239
0.54,10240
0.55,10241
0.56,10242
0.57,10243
0.58,10244
0.57,10245
0.58,10246
0.58,10247
0.59,10248
0.59,10249
0.59,10250
0.59,10251
0.59,10252
0.59,10253
0.59,10254
0.59,10255
0.59,10256
0.59,10257
0.59,10258
0.6,10259
0.6,10260
0.6,10261
0.6,10262
0.6,10263
0.61,10264
0.58,10265
0.59,10266
0.6,10267
0.61,10268
0.62,10269
0.62,10270
0.62,10271
0.61,10272
0.6,10273
0.59,10274
0.58,10275
0.57,10276
0.57,10277
0.57,10278
0.57,10279
0.57,10280
0.55,10281
0.55,10282
0.56,10283
0.57,10284
0.58,10285
0.57,10286
0.58,10287
0.59,10288
0.6,10289
0.61,10290
0.62,10291
0.6,10292
0.61,10293
0.6,10294
0.61,10295
0.61,10296
0.62,10297
0.62,10298
0.61,10299
0.6,10300
0.6,10301
0.6,10302
0.6,10303
0.6,10304
0.6,10305
0.6,10306
0.6,10307
0.6,10308
0.6,10309
0.6,10310
0.6,10311
0.6,10312
0.6,10313
0.6,10314
0.6,10315
0.6,10316
0.6,10317
0.6,10318
0.6,10319
0.6,10320
0.6,10321
0.6,10322
0.6,10323
0.6,10324
0.61,10325
0.62,10326
0.62,10327
0.62,10328
0.63,10329
0.64,10330
0.62,10331
0.61,10332
0.6,10333
0.61,10334
0.62,10335
0.63,10336
0.61,10337
0.62,10338
0.62,10339
0.62,10340
0.62,10341
0.61,10342
0.61,10343
0.61,10344
0.62,10345
0.62,10346
0.63,10347
0.63,10348
0.63,10349
0.63,10350
0.63,10351
0.63,10352
0.63,10353
0.63,10354
0.63,10355
0.63,10356
0.63,10357
0.63,10358
0.64,10359
0.65,10360
0.65,10361
0.66,10362
0.64,10363
0.64,10364
0.65,10365
0.67,10366
0.68,10367
0.67,10368
0.68,10369
0.69,10370
0.7,10371
0.71,10372
0.71,10373
0.71,10374
0.71,10375
0.71,10376
0.72,10377
0.71,10378
0.71,10379
0.71,10380
0.71,10381
0.72,10382
0.73,10383
0.73,10384
0.73,10385
0.72,10386
0.73,10387
0.73,10388
0.73,10389
0.74,10390
0.74,10391
0.74,10392
0.74,10393
0.74,10394
0.74,10395
0.74,10396
0.74,10397
0.74,10398
0.75,10399
0.75,10400
0.74,10401
0.75,10402
0.76,10403
0.77,10404
0.76,10405
0.77,10406
0.78,10407
0.79,10408
0.79,10409
0.79,10410
0.79,10411
0.79,10412
0.78,10413
0.78,10414
0.79,10415
0.79,10416
0.79,10417
0.79,10418
0.79,10419
0.79,10420
0.79,10421
0.79,10422
0.79,10423
0.79,10424
0.79,10425
0.78,10426
0.78,10427
0.79,10428
0.79,10429
0.78,10430
0.78,10431
0.79,10432
0.79,10433
0.79,10434
0.79,10435
0.78,10436
0.77,10437
0.76,10438
0.75,10439
0.74,10440
0.75,10441
0.75,10442
0.75,10443
0.75,10444
0.76,10445
0.76,10446
0.76,10447
0.77,10448
0.76,10449
0.76,10450
0.75,10451
0.75,10452
0.74,10453
0.75,10454
0.75,10455
0.75,10456
0.74,10457
0.73,10458
0.73,10459
0.73,10460
0.74,10461
0.76,10462
0.78,10463
0.78,10464
0.78,10465
0.75,10466
0.74,10467
0.73,10468
0.73,10469
0.72,10470
0.69,10471
0.67,10472
0.67,10473
0.66,10474
0.66,10475
0.66,10476
0.66,10477
0.66,10478
0.66,10479
0.66,10480
0.67,10481
0.66,10482
0.66,10483
0.66,10484
0.65,10485
0.64,10486
0.64,10487
0.63,10488
0.64,10489
0.63,10490
0.63,10491
0.63,10492
0.63,10493
0.63,10494
0.63,10495
0.64,10496
0.64,10497
0.64,10498
0.64,10499
0.64,10500
0.64,10501
0.64,10502
0.63,10503
0.63,10504
0.62,10505
0.62,10506
0.62,10507
0.62,10508
0.62,10509
0.62,10510
0.63,10511
0.63,10512
0.64,10513
0.64,10514
0.64,10515
0.64,10516
0.64,10517
0.64,10518
0.64,10519
0.64,10520
0.64,10521
0.64,10522
0.64,10523
0.64,10524
0.64,10525
0.65,10526
0.65,10527
0.65,10528
0.64,10529
0.65,10530
0.65,10531
0.65,10532
0.65,10533
0.65,10534
0.65,10535
0.65,10536
0.65,10537
0.65,10538
0.65,10539
0.65,10540
0.64,10541
0.64,10542
0.63,10543
0.63,10544
0.63,10545
0.64,10546
0.64,10547
0.64,10548
0.64,10549
0.63,10550
0.63,10551
0.63,10552
0.64,10553
0.64,10554
0.64,10555
0.63,10556
0.62,10557
0.62,10558
0.62,10559
0.62,10560
0.63,10561
0.64,10562
0.64,10563
0.64,10564
0.65,10565
0.64,10566
0.64,10567
0.64,10568
0.63,10569
0.64,10570
0.64,10571
0.61,10572
0.58,10573
0.56,10574
0.53,10575
0.52,10576
0.52,10577
0.53,10578
0.52,10579
0.5,10580
0.48,10581
0.49,10582
0.49,10583
0.48,10584
0.49,10585
0.48,10586
0.48,10587
0.48,10588
0.49,10589
0.49,10590
0.49,10591
0.5,10592
0.5,10593
0.51,10594
0.52,10595
0.51,10596
0.52,10597
0.53,10598
0.53,10599
0.53,10600
0.54,10601
0.54,10602
0.54,10603
0.55,10604
0.55,10605
0.56,10606
0.58,10607
0.59,10608
0.6,10609
0.61,10610
0.61,10611
0.61,10612
0.61,10613
0.62,10614
0.62,10615
0.62,10616
0.62,10617
0.61,10618
0.62,10619
0.62,10620
0.62,10621
0.61,10622
0.6,10623
0.62,10624
0.62,10625
0.62,10626
0.61,10627
0.6,10628
0.61,10629
0.6,10630
0.6,10631
0.59,10632
0.58,10633
0.59,10634
0.58,10635
0.58,10636
0.57,10637
0.57,10638
0.56,10639
0.56,10640
0.56,10641
0.57,10642
0.57,10643
0.56,10644
0.56,10645
0.56,10646
0.55,10647
0.54,10648
0.55,10649
0.55,10650
0.55,10651
0.55,10652
0.55,10653
0.56,10654
0.56,10655
0.56,10656
0.56,10657
0.56,10658
0.56,10659
0.56,10660
0.55,10661
0.55,10662
0.56,10663
0.56,10664
0.56,10665
0.56,10666
0.56,10667
0.57,10668
0.57,10669
0.57,10670
0.57,10671
0.57,10672
0.58,10673
0.59,10674
0.59,10675
0.58,10676
0.58,10677
0.59,10678
0.58,10679
0.58,10680
0.59,10681
0.59,10682
0.58,10683
0.58,10684
0.57,10685
0.56,10686
0.57,10687
0.56,10688
0.56,10689
0.56,10690
0.56,10691
0.56,10692
0.57,10693
0.57,10694
0.57,10695
0.57,10696
0.57,10697
0.56,10698
0.56,10699
0.57,10700
0.57,10701
0.56,10702
0.57,10703
0.56,10704
0.53,10705
0.51,10706
0.52,10707
0.52,10708
0.52,10709
0.51,10710
0.51,10711
0.51,10712
0.51,10713
0.51,10714
0.51,10715
0.51,10716
0.52,10717
0.51,10718
0.5,10719
0.51,10720
0.52,10721
0.52,10722
0.52,10723
0.53,10724
0.53,10725
0.54,10726
0.53,10727
0.53,10728
0.51,10729
0.52,10730
0.52,10731
0.52,10732
0.52,10733
0.52,10734
0.53,10735
0.54,10736
0.54,10737
0.54,10738
0.52,10739
0.53,10740
0.54,10741
0.55,10742
0.55,10743
0.55,10744
0.56,10745
0.56,10746
0.56,10747
0.57,10748
0.57,10749
0.57,10750
0.57,10751
0.57,10752
0.58,10753
0.58,10754
0.58,10755
0.58,10756
0.58,10757
0.57,10758
0.57,10759
0.57,10760
0.57,10761
0.57,10762
0.57,10763
0.57,10764
0.58,10765
0.58,10766
0.58,10767
0.58,10768
0.58,10769
0.58,10770
0.58,10771
0.58,10772
0.59,10773
0.6,10774
0.59,10775
0.59,10776
0.59,10777
0.58,10778
0.59,10779
0.56,10780
0.56,10781
0.57,10782
0.56,10783
0.55,10784
0.54,10785
0.54,10786
0.55,10787
0.56,10788
0.56,10789
0.56,10790
0.56,10791
0.56,10792
0.56,10793
0.56,10794
0.56,10795
0.56,10796
0.56,10797
0.57,10798
0.58,10799
0.59,10800
0.6,10801
0.6,10802
0.6,10803
0.59,10804
0.58,10805
0.57,10806
0.57,10807
0.57,10808
0.57,10809
0.57,10810
0.58,10811
0.57,10812
0.58,10813
0.58,10814
0.58,10815
0.57,10816
0.58,10817
0.56,10818
0.56,10819
0.55,10820
0.56,10821
0.57,10822
0.58,10823
0.58,10824
0.59,10825
0.59,10826
0.59,10827
0.58,10828
0.57,10829
0.58,10830
0.58,10831
0.55,10832
0.52,10833
0.49,10834
0.48,10835
0.49,10836
0.46,10837
0.45,10838
0.44,10839
0.45,10840
0.46,10841
0.47,10842
0.48,10843
0.49,10844
0.47,10845
0.47,10846
0.47,10847
0.48,10848
0.48,10849
0.49,10850
0.5,10851
0.51,10852
0.52,10853
0.52,10854
0.52,10855
0.52,10856
0.53,10857
0.54,10858
0.55,10859
0.55,10860
0.56,10861
0.56,10862
0.56,10863
0.55,10864
0.55,10865
0.55,10866
0.55,10867
0.56,10868
0.56,10869
0.57,10870
0.58,10871
0.59,10872
0.59,10873
0.57,10874
0.58,10875
0.56,10876
0.57,10877
0.57,10878
0.56,10879
0.57,10880
0.57,10881
0.57,10882
0.56,10883
0.53,10884
0.53,10885
0.54,10886
0.54,10887
0.54,10888
0.54,10889
0.54,10890
0.54,10891
0.53,10892
0.53,10893
0.54,10894
0.54,10895
0.53,10896
0.53,10897
0.53,10898
0.52,10899
0.52,10900
0.53,10901
0.53,10902
0.53,10903
0.54,10904
0.55,10905
0.55,10906
0.56,10907
0.56,10908
0.57,10909
0.57,10910
0.58,10911
0.59,10912
0.59,10913
0.57,10914
0.56,10915
0.56,10916
0.54,10917
0.53,10918
0.52,10919
0.52,10920
0.52,10921
0.52,10922
0.5,10923
0.5,10924
0.51,10925
0.52,10926
0.53,10927
0.53,10928
0.54,10929
0.55,10930
0.55,10931
0.55,10932
0.55,10933
0.55,10934
0.56,10935
0.55,10936
0.56,10937
0.57,10938
0.56,10939
0.55,10940
0.56,10941
0.57,10942
0.58,10943
0.58,10944
0.57,10945
0.56,10946
0.57,10947
0.59,10948
0.62,10949
0.63,10950
0.64,10951
0.63,10952
0.63,10953
0.62,10954
0.62,10955
0.63,10956
0.62,10957
0.63,10958
0.63,10959
0.63,10960
0.63,10961
0.63,10962
0.64,10963
0.66,10964
0.66,10965
0.67,10966
0.68,10967
0.69,10968
0.69,10969
0.69,10970
0.68,10971
0.7,10972
0.7,10973
0.7,10974
0.69,10975
0.72,10976
0.71,10977
0.7,10978
0.69,10979
0.69,10980
0.68,10981
0.67,10982
0.66,10983
0.65,10984
0.65,10985
0.65,10986
0.66,10987
0.67,10988
0.68,10989
0.68,10990
0.67,10991
0.66,10992
0.65,10993
0.64,10994
0.63,10995
0.62,10996
0.61,10997
0.61,10998
0.62,10999
0.63,11000
0.62,11001
0.61,11002
0.61,11003
0.6,11004
0.61,11005
0.6,11006
0.59,11007
0.58,11008
0.57,11009
0.58,11010
0.58,11011
0.58,11012
0.6,11013
0.6,11014
0.6,11015
0.6,11016
0.6,11017
0.59,11018
0.59,11019
0.58,11020
0.59,11021
0.58,11022
0.57,11023
0.57,11024
0.56,11025
0.56,11026
0.55,11027
0.55,11028
0.55,11029
0.56,11030
0.56,11031
0.56,11032
0.56,11033
0.56,11034
0.56,11035
0.57,11036
0.58,11037
0.58,11038
0.58,11039
0.58,11040
0.58,11041
0.58,11042
0.58,11043
0.58,11044
0.58,11045
0.58,11046
0.58,11047
0.58,11048
0.59,11049
0.59,11050
0.6,11051
0.61,11052
0.61,11053
0.61,11054
0.6,11055
0.6,11056
0.59,11057
0.62,11058
0.61,11059
0.6,11060
0.59,11061
0.6,11062
0.6,11063
0.6,11064
0.6,11065
0.6,11066
0.6,11067
0.6,11068
0.6,11069
0.61,11070
0.61,11071
0.61,11072
0.61,11073
0.61,11074
0.61,11075
0.62,11076
0.63,11077
0.63,11078
0.62,11079
0.65,11080
0.65,11081
0.65,11082
0.66,11083
0.68,11084
0.68,11085
0.67,11086
0.69,11087
0.69,11088
0.69,11089
0.68,11090
0.68,11091
0.68,11092
0.68,11093
0.68,11094
0.68,11095
0.68,11096
0.68,11097
0.69,11098
0.69,11099
0.7,11100
0.71,11101
0.72,11102
0.71,11103
0.71,11104
0.71,11105
0.7,11106
0.7,11107
0.69,11108
0.68,11109
0.67,11110
0.67,11111
0.66,11112
0.65,11113
0.64,11114
0.63,11115
0.63,11116
0.62,11117
0.61,11118
0.61,11119
0.61,11120
0.61,11121
0.61,11122
0.61,11123
0.61,11124
0.61,11125
0.61,11126
0.61,11127
0.61,11128
0.61,11129
0.61,11130
0.61,11131
0.61,11132
0.6,11133
0.6,11134
0.6,11135
0.59,11136
0.59,11137
0.59,11138
0.59,11139
0.59,11140
0.6,11141
0.6,11142
0.6,11143
0.6,11144
0.6,11145
0.6,11146
0.6,11147
0.6,11148
0.6,11149
0.6,11150
0.6,11151
0.59,11152
0.58,11153
0.57,11154
0.57,11155
0.57,11156
0.56,11157
0.56,11158
0.56,11159
0.57,11160
0.58,11161
0.59,11162
0.58,11163
0.59,11164
0.59,11165
0.58,11166
0.57,11167
0.57,11168
0.56,11169
0.55,11170
0.55,11171
0.55,11172
0.54,11173
0.53,11174
0.53,11175
0.58,11176
0.6,11177
0.59,11178
0.61,11179
0.61,11180
0.61,11181
0.61,11182
0.61,11183
0.61,11184
0.61,11185
0.61,11186
0.61,11187
0.6,11188
0.59,11189
0.58,11190
0.57,11191
0.57,11192
0.57,11193
0.58,11194
0.59,11195
0.6,11196
0.61,11197
0.61,11198
0.62,11199
0.62,11200
0.62,11201
0.62,11202
0.63,11203
0.64,11204
0.64,11205
0.63,11206
0.62,11207
0.63,11208
0.64,11209
0.65,11210
0.66,11211
0.67,11212
0.68,11213
0.68,11214
0.68,11215
0.67,11216
0.66,11217
0.65,11218
0.64,11219
0.63,11220
0.64,11221
0.63,11222
0.63,11223
0.63,11224
0.63,11225
0.63,11226
0.63,11227
0.63,11228
0.63,11229
0.63,11230
0.63,11231
0.63,11232
0.63,11233
0.64,11234
0.65,11235
0.65,11236
0.65,11237
0.65,11238
0.65,11239
0.64,11240
0.64,11241
0.65,11242
0.65,11243
0.65,11244
0.65,11245
0.65,11246
0.65,11247
0.65,11248
0.65,11249
0.65,11250
0.65,11251
0.66,11252
0.66,11253
0.66,11254
0.67,11255
0.66,11256
0.66,11257
0.65,11258
0.65,11259
0.65,11260
0.65,11261
0.65,11262
0.66,11263
0.65,11264
0.66,11265
0.67,11266
0.68,11267
0.67,11268
0.68,11269
0.68,11270
0.69,11271
0.69,11272
0.69,11273
0.67,11274
0.65,11275
0.64,11276
0.64,11277
0.65,11278
0.64,11279
0.64,11280
0.65,11281
0.65,11282
0.62,11283
0.63,11284
0.62,11285
0.62,11286
0.63,11287
0.63,11288
0.61,11289
0.62,11290
0.62,11291
0.57,11292
0.57,11293
0.57,11294
0.57,11295
0.58,11296
0.59,11297
0.59,11298
0.57,11299
0.58,11300
0.59,11301
0.6,11302
0.6,11303
0.6,11304
0.6,11305
0.61,11306
0.63,11307
0.63,11308
0.62,11309
0.62,11310
0.62,11311
0.61,11312
0.61,11313
0.61,11314
0.61,11315
0.61,11316
0.61,11317
0.61,11318
0.61,11319
0.61,11320
0.61,11321
0.61,11322
0.61,11323
0.64,11324
0.7,11325
0.71,11326
0.71,11327
0.7,11328
0.69,11329
0.68,11330
0.68,11331
0.67,11332
0.66,11333
0.65,11334
0.66,11335
0.69,11336
0.71,11337
0.72,11338
0.71,11339
0.7,11340
0.7,11341
0.7,11342
0.69,11343
0.7,11344
0.69,11345
0.68,11346
0.68,11347
0.67,11348
0.66,11349
0.66,11350
0.65,11351
0.64,11352
0.63,11353
0.62,11354
0.61,11355
0.6,11356
0.59,11357
0.58,11358
0.57,11359
0.56,11360
0.55,11361
0.54,11362
0.53,11363
0.53,11364
0.54,11365
0.53,11366
0.53,11367
0.53,11368
0.54,11369
0.53,11370
0.53,11371
0.52,11372
0.51,11373
0.53,11374
0.52,11375
0.51,11376
0.5,11377
0.5,11378
0.51,11379
0.51,11380
0.51,11381
0.5,11382
0.49,11383
0.5,11384
0.51,11385
0.5,11386
0.5,11387
0.51,11388
0.52,11389
0.53,11390
0.53,11391
0.54,11392
0.54,11393
0.54,11394
0.54,11395
0.56,11396
0.56,11397
0.56,11398
0.55,11399
0.55,11400
0.55,11401
0.56,11402
0.56,11403
0.56,11404
0.55,11405
0.54,11406
0.53,11407
0.53,11408
0.53,11409
0.55,11410
0.55,11411
0.56,11412
0.57,11413
0.57,11414
0.58,11415
0.57,11416
0.57,11417
0.56,11418
0.55,11419
0.55,11420
0.55,11421
0.54,11422
0.53,11423
0.54,11424
0.55,11425
0.56,11426
0.56,11427
0.56,11428
0.56,11429
0.55,11430
0.54,11431
0.53,11432
0.53,11433
0.53,11434
0.53,11435
0.54,11436
0.53,11437
0.54,11438
0.54,11439
0.54,11440
0.54,11441
0.54,11442
0.55,11443
0.54,11444
0.54,11445
0.55,11446
0.55,11447
0.55,11448
0.54,11449
0.55,11450
0.54,11451
0.55,11452
0.55,11453
0.54,11454
0.54,11455
0.54,11456
0.54,11457
0.54,11458
0.54,11459
0.54,11460
0.54,11461
0.54,11462
0.55,11463
0.55,11464
0.53,11465
0.54,11466
0.55,11467
0.56,11468
0.56,11469
0.57,11470
0.57,11471
0.58,11472
0.59,11473
0.6,11474
0.61,11475
0.61,11476
0.6,11477
0.59,11478
0.58,11479
0.58,11480
0.58,11481
0.59,11482
0.58,11483
0.57,11484
0.57,11485
0.57,11486
0.56,11487
0.55,11488
0.55,11489
0.55,11490
0.55,11491
0.54,11492
0.54,11493
0.53,11494
0.53,11495
0.53,11496
0.53,11497
0.53,11498
0.53,11499
0.53,11500
0.52,11501
0.51,11502
0.51,11503
0.51,11504
0.52,11505
0.53,11506
0.53,11507
0.52,11508
0.51,11509
0.5,11510
0.5,11511
0.51,11512
0.5,11513
0.49,11514
0.5,11515
0.51,11516
0.51,11517
0.52,11518
0.52,11519
0.51,11520
0.5,11521
0.51,11522
0.53,11523
0.55,11524
0.56,11525
0.56,11526
0.56,11527
0.56,11528
0.55,11529
0.55,11530
0.56,11531
0.56,11532
0.56,11533
0.57,11534
0.56,11535
0.55,11536
0.56,11537
0.54,11538
0.54,11539
0.54,11540
0.52,11541
0.53,11542
0.53,11543
0.54,11544
0.54,11545
0.53,11546
0.52,11547
0.52,11548
0.52,11549
0.52,11550
0.51,11551
0.5,11552
0.5,11553
0.51,11554
0.49,11555
0.47,11556
0.47,11557
0.46,11558
0.44,11559
0.44,11560
0.44,11561
0.43,11562
0.43,11563
0.43,11564
0.42,11565
0.42,11566
0.42,11567
0.42,11568
0.41,11569
0.41,11570
0.4,11571
0.4,11572
0.4,11573
0.4,11574
0.4,11575
0.4,11576
0.41,11577
0.41,11578
0.39,11579
0.4,11580
0.41,11581
0.42,11582
0.43,11583
0.44,11584
0.44,11585
0.45,11586
0.46,11587
0.47,11588
0.48,11589
0.49,11590
0.5,11591
0.5,11592
0.51,11593
0.51,11594
0.52,11595
0.52,11596
0.52,11597
0.53,11598
0.53,11599
0.53,11600
0.54,11601
0.55,11602
0.55,11603
0.56,11604
0.55,11605
0.55,11606
0.56,11607
0.56,11608
0.57,11609
0.58,11610
0.59,11611
0.59,11612
0.59,11613
0.6,11614
0.61,11615
0.61,11616
0.62,11617
0.63,11618
0.64,11619
0.65,11620
0.66,11621
0.65,11622
0.66,11623
0.67,11624
0.68,11625
0.66,11626
0.67,11627
0.67,11628
0.68,11629
0.67,11630
0.67,11631
0.66,11632
0.67,11633
0.67,11634
0.64,11635
0.65,11636
0.64,11637
0.64,11638
0.65,11639
0.64,11640
0.65,11641
0.65,11642
0.65,11643
0.65,11644
0.63,11645
0.63,11646
0.63,11647
0.63,11648
0.64,11649
0.65,11650
0.64,11651
0.63,11652
0.63,11653
0.63,11654
0.63,11655
0.63,11656
0.63,11657
0.64,11658
0.63,11659
0.63,11660
0.62,11661
0.62,11662
0.62,11663
0.62,11664
0.62,11665
0.61,11666
0.61,11667
0.61,11668
0.6,11669
0.6,11670
0.6,11671
0.6,11672
0.6,11673
0.6,11674
0.6,11675
0.6,11676
0.6,11677
0.6,11678
0.61,11679
0.61,11680
0.6,11681
0.61,11682
0.62,11683
0.61,11684
0.6,11685
0.62,11686
0.62,11687
0.62,11688
0.63,11689
0.64,11690
0.64,11691
0.64,11692
0.64,11693
0.63,11694
0.63,11695
0.62,11696
0.62,11697
0.62,11698
0.62,11699
0.62,11700
0.61,11701
0.61,11702
0.6,11703
0.6,11704
0.6,11705
0.6,11706
0.6,11707
0.6,11708
0.63,11709
0.69,11710
0.7,11711
0.71,11712
0.72,11713
0.75,11714
0.75,11715
0.74,11716
0.73,11717
0.72,11718
0.71,11719
0.7,11720
0.7,11721
0.69,11722
0.68,11723
0.67,11724
0.68,11725
0.67,11726
0.66,11727
0.65,11728
0.64,11729
0.63,11730
0.62,11731
0.61,11732
0.62,11733
0.62,11734
0.63,11735
0.62,11736
0.64,11737
0.63,11738
0.63,11739
0.63,11740
0.63,11741
0.64,11742
0.64,11743
0.64,11744
0.64,11745
0.64,11746
0.64,11747
0.64,11748
0.64,11749
0.64,11750
0.64,11751
0.64,11752
0.64,11753
0.64,11754
0.64,11755
0.64,11756
0.64,11757
0.64,11758
0.63,11759
0.62,11760
0.62,11761
0.62,11762
0.64,11763
0.65,11764
0.65,11765
0.66,11766
0.66,11767
0.66,11768
0.66,11769
0.66,11770
0.67,11771
0.67,11772
0.67,11773
0.67,11774
0.67,11775
0.67,11776
0.67,11777
0.67,11778
0.67,11779
0.67,11780
0.67,11781
0.67,11782
0.67,11783
0.67,11784
0.68,11785
0.69,11786
0.7,11787
0.71,11788
0.71,11789
0.71,11790
0.71,11791
0.71,11792
0.7,11793
0.69,11794
0.68,11795
0.68,11796
0.68,11797
0.67,11798
0.66,11799
0.66,11800
0.65,11801
0.65,11802
0.65,11803
0.65,11804
0.65,11805
0.66,11806
0.66,11807
0.66,11808
0.67,11809
0.68,11810
0.68,11811
0.69,11812
0.7,11813
0.71,11814
0.7,11815
0.7,11816
0.7,11817
0.7,11818
0.7,11819
0.7,11820
0.7,11821
0.7,11822
0.7,11823
0.7,11824
0.69,11825
0.68,11826
0.67,11827
0.67,11828
0.67,11829
0.66,11830
0.65,11831
0.66,11832
0.65,11833
0.67,11834
0.67,11835
0.68,11836
0.69,11837
0.73,11838
0.73,11839
0.74,11840
0.74,11841
0.74,11842
0.74,11843
0.73,11844
0.73,11845
0.72,11846
0.72,11847
0.71,11848
0.71,11849
0.7,11850
0.69,11851
0.68,11852
0.67,11853
0.66,11854
0.65,11855
0.64,11856
0.63,11857
0.62,11858
0.62,11859
0.61,11860
0.62,11861
0.61,11862
0.61,11863
0.62,11864
0.62,11865
0.62,11866
0.62,11867
0.62,11868
0.62,11869
0.62,11870
0.62,11871
0.62,11872
0.62,11873
0.63,11874
0.63,11875
0.63,11876
0.64,11877
0.64,11878
0.64,11879
0.64,11880
0.63,11881
0.62,11882
0.61,11883
0.61,11884
0.6,11885
0.59,11886
0.6,11887
0.59,11888
0.58,11889
0.58,11890
0.58,11891
0.58,11892
0.57,11893
0.56,11894
0.55,11895
0.55,11896
0.54,11897
0.54,11898
0.54,11899
0.54,11900
0.54,11901
0.54,11902
0.54,11903
0.54,11904
0.54,11905
0.54,11906
0.54,11907
0.54,11908
0.55,11909
0.55,11910
0.55,11911
0.55,11912
0.55,11913
0.55,11914
0.55,11915
0.55,11916
0.56,11917
0.56,11918
0.56,11919
0.56,11920
0.56,11921
0.56,11922
0.56,11923
0.56,11924
0.55,11925
0.55,11926
0.55,11927
0.56,11928
0.56,11929
0.56,11930
0.56,11931
0.57,11932
0.57,11933
0.57,11934
0.56,11935
0.56,11936
0.57,11937
0.57,11938
0.57,11939
0.58,11940
0.59,11941
0.59,11942
0.6,11943
0.6,11944
0.61,11945
0.62,11946
0.6,11947
0.61,11948
0.61,11949
0.61,11950
0.61,11951
0.62,11952
0.62,11953
0.61,11954
0.6,11955
0.6,11956
0.6,11957
0.6,11958
0.59,11959
0.59,11960
0.6,11961
0.6,11962
0.6,11963
0.59,11964
0.59,11965
0.58,11966
0.59,11967
0.59,11968
0.59,11969
0.59,11970
0.59,11971
0.59,11972
0.59,11973
0.59,11974
0.59,11975
0.59,11976
0.59,11977
0.58,11978
0.57,11979
0.57,11980
0.58,11981
0.59,11982
0.59,11983
0.6,11984
0.59,11985
0.6,11986
0.61,11987
0.62,11988
0.62,11989
0.61,11990
0.63,11991
0.64,11992
0.64,11993
0.65,11994
0.67,11995
0.67,11996
0.67,11997
0.66,11998
0.65,11999
0.65,12000
0.66,12001
0.68,12002
0.68,12003
0.67,12004
0.66,12005
0.67,12006
0.67,12007
0.68,12008
0.68,12009
0.68,12010
0.68,12011
0.69,12012
0.68,12013
0.67,12014
0.66,12015
0.66,12016
0.67,12017
0.67,12018
0.66,12019
0.65,12020
0.64,12021
0.64,12022
0.64,12023
0.64,12024
0.63,12025
0.63,12026
0.62,12027
0.62,12028
0.62,12029
0.62,12030
0.62,12031
0.62,12032
0.63,12033
0.63,12034
0.63,12035
0.63,12036
0.64,12037
0.64,12038
0.63,12039
0.63,12040
0.63,12041
0.63,12042
0.63,12043
0.63,12044
0.63,12045
0.63,12046
0.63,12047
0.63,12048
0.63,12049
0.63,12050
0.63,12051
0.63,12052
0.63,12053
0.63,12054
0.63,12055
0.63,12056
0.63,12057
0.62,12058
0.62,12059
0.61,12060
0.61,12061
0.61,12062
0.61,12063
0.61,12064
0.61,12065
0.61,12066
0.61,12067
0.63,12068
0.64,12069
0.64,12070
0.65,12071
0.65,12072
0.65,12073
0.65,12074
0.65,12075
0.65,12076
0.64,12077
0.63,12078
0.62,12079
0.64,12080
0.64,12081
0.63,12082
0.62,12083
0.62,12084
0.62,12085
0.62,12086
0.62,12087
0.62,12088
0.62,12089
0.62,12090
0.63,12091
0.63,12092
0.63,12093
0.63,12094
0.63,12095
0.63,12096
0.63,12097
0.64,12098
0.63,12099
0.63,12100
0.64,12101
0.63,12102
0.63,12103
0.63,12104
0.62,12105
0.63,12106
0.62,12107
0.62,12108
0.6,12109
0.6,12110
0.62,12111
0.62,12112
0.62,12113
0.63,12114
0.61,12115
0.6,12116
0.59,12117
0.59,12118
0.59,12119
0.59,12120
0.6,12121
0.56,12122
0.52,12123
0.53,12124
0.5,12125
0.5,12126
0.5,12127
0.5,12128
0.5,12129
0.5,12130
0.5,12131
0.5,12132
0.5,12133
0.5,12134
0.5,12135
0.49,12136
0.5,12137
0.51,12138
0.51,12139
0.51,12140
0.51,12141
0.51,12142
0.5,12143
0.5,12144
0.5,12145
0.5,12146
0.5,12147
0.5,12148
0.5,12149
0.49,12150
0.49,12151
0.52,12152
0.52,12153
0.56,12154
0.57,12155
0.57,12156
0.61,12157
0.62,12158
0.63,12159
0.62,12160
0.61,12161
0.63,12162
0.62,12163
0.62,12164
0.62,12165
0.6,12166
0.6,12167
0.61,12168
0.61,12169
0.61,12170
0.6,12171
0.6,12172
0.6,12173
0.59,12174
0.6,12175
0.61,12176
0.62,12177
0.63,12178
0.63,12179
0.62,12180
0.63,12181
0.62,12182
0.63,12183
0.62,12184
0.62,12185
0.62,12186
0.62,12187
0.62,12188
0.62,12189
0.62,12190
0.62,12191
0.62,12192
0.6,12193
0.61,12194
0.59,12195
0.59,12196
0.59,12197
0.58,12198
0.58,12199
0.58,12200
0.57,12201
0.56,12202
0.56,12203
0.56,12204
0.57,12205
0.57,12206
0.56,12207
0.55,12208
0.54,12209
0.54,12210
0.54,12211
0.54,12212
0.54,12213
0.54,12214
0.54,12215
0.54,12216
0.54,12217
0.55,12218
0.56,12219
0.57,12220
0.57,12221
0.58,12222
0.59,12223
0.59,12224
0.58,12225
0.57,12226
0.56,12227
0.55,12228
0.54,12229
0.54,12230
0.54,12231
0.54,12232
0.54,12233
0.54,12234
0.53,12235
0.54,12236
0.54,12237
0.54,12238
0.54,12239
0.54,12240
0.54,12241
0.54,12242
0.55,12243
0.54,12244
0.53,12245
0.52,12246
0.52,12247
0.52,12248
0.52,12249
0.51,12250
0.51,12251
0.5,12252
0.5,12253
0.5,12254
0.48,12255
0.48,12256
0.48,12257
0.48,12258
0.48,12259
0.47,12260
0.48,12261
0.48,12262
0.49,12263
0.5,12264
0.5,12265
0.51,12266
0.5,12267
0.5,12268
0.51,12269
0.51,12270
0.5,12271
0.5,12272
0.49,12273
0.49,12274
0.49,12275
0.5,12276
0.51,12277
0.52,12278
0.53,12279
0.54,12280
0.53,12281
0.53,12282
0.53,12283
0.52,12284
0.52,12285
0.51,12286
0.52,12287
0.51,12288
0.51,12289
0.51,12290
0.5,12291
0.52,12292
0.57,12293
0.59,12294
0.59,12295
0.59,12296
0.6,12297
0.6,12298
0.61,12299
0.61,12300
0.62,12301
0.61,12302
0.62,12303
0.61,12304
0.62,12305
0.62,12306
0.62,12307
0.62,12308
0.61,12309
0.6,12310
0.59,12311
0.6,12312
0.6,12313
0.6,12314
0.6,12315
0.59,12316
0.59,12317
0.58,12318
0.57,12319
0.57,12320
0.58,12321
0.58,12322
0.58,12323
0.58,12324
0.58,12325
0.61,12326
0.61,12327
0.62,12328
0.62,12329
0.62,12330
0.62,12331
0.62,12332
0.62,12333
0.62,12334
0.62,12335
0.63,12336
0.61,12337
0.61,12338
0.61,12339
0.61,12340
0.6,12341
0.6,12342
0.61,12343
0.61,12344
0.62,12345
0.62,12346
0.61,12347
0.61,12348
0.61,12349
0.61,12350
0.61,12351
0.62,12352
0.62,12353
0.62,12354
0.63,12355
0.61,12356
0.62,12357
0.62,12358
0.63,12359
0.63,12360
0.63,12361
0.63,12362
0.63,12363
0.63,12364
0.63,12365
0.62,12366
0.62,12367
0.62,12368
0.61,12369
0.61,12370
0.61,12371
0.61,12372
0.61,12373
0.61,12374
0.61,12375
0.61,12376
0.61,12377
0.61,12378
0.61,12379
0.61,12380
0.61,12381
0.61,12382
0.61,12383
0.61,12384
0.62,12385
0.62,12386
0.62,12387
0.62,12388
0.61,12389
0.61,12390
0.6,12391
0.58,12392
0.59,12393
0.59,12394
0.59,12395
0.59,12396
0.58,12397
0.59,12398
0.6,12399
0.61,12400
0.62,12401
0.63,12402
0.64,12403
0.64,12404
0.64,12405
0.64,12406
0.64,12407
0.64,12408
0.65,12409
0.66,12410
0.66,12411
0.66,12412
0.67,12413
0.68,12414
0.69,12415
0.67,12416
0.68,12417
0.69,12418
0.7,12419
0.71,12420
0.71,12421
0.7,12422
0.7,12423
0.7,12424
0.7,12425
0.68,12426
0.67,12427
0.67,12428
0.66,12429
0.66,12430
0.66,12431
0.65,12432
0.65,12433
0.65,12434
0.64,12435
0.64,12436
0.64,12437
0.63,12438
0.63,12439
0.63,12440
0.63,12441
0.63,12442
0.62,12443
0.62,12444
0.63,12445
0.63,12446
0.62,12447
0.61,12448
0.6,12449
0.61,12450
0.61,12451
0.61,12452
0.61,12453
0.61,12454
0.61,12455
0.61,12456
0.61,12457
0.61,12458
0.6,12459
0.59,12460
0.59,12461
0.59,12462
0.59,12463
0.58,12464
0.55,12465
0.55,12466
0.55,12467
0.55,12468
0.56,12469
0.54,12470
0.55,12471
0.56,12472
0.56,12473
0.56,12474
0.56,12475
0.55,12476
0.55,12477
0.55,12478
0.55,12479
0.55,12480
0.56,12481
0.56,12482
0.56,12483
0.56,12484
0.56,12485
0.56,12486
0.55,12487
0.55,12488
0.55,12489
0.55,12490
0.56,12491
0.57,12492
0.57,12493
0.56,12494
0.56,12495
0.56,12496
0.57,12497
0.57,12498
0.58,12499
0.59,12500
0.6,12501
0.6,12502
0.61,12503
0.61,12504
0.62,12505
0.58,12506
0.56,12507
0.57,12508
0.57,12509
0.57,12510
0.58,12511
0.59,12512
0.6,12513
0.59,12514
0.6,12515
0.61,12516
0.62,12517
0.62,12518
0.62,12519
0.61,12520
0.61,12521
0.6,12522
0.59,12523
0.58,12524
0.57,12525
0.56,12526
0.54,12527
0.52,12528
0.52,12529
0.52,12530
0.53,12531
0.52,12532
0.53,12533
0.54,12534
0.55,12535
0.56,12536
0.57,12537
0.57,12538
0.57,12539
0.58,12540
0.58,12541
0.55,12542
0.56,12543
0.55,12544
0.54,12545
0.53,12546
0.53,12547
0.51,12548
0.51,12549
0.52,12550
0.51,12551
0.51,12552
0.51,12553
0.52,12554
0.52,12555
0.52,12556
0.53,12557
0.52,12558
0.51,12559
0.51,12560
0.51,12561
0.51,12562
0.51,12563
0.51,12564
0.51,12565
0.51,12566
0.49,12567
0.49,12568
0.49,12569
0.49,12570
0.49,12571
0.49,12572
0.49,12573
0.49,12574
0.49,12575
0.49,12576
0.49,12577
0.48,12578
0.47,12579
0.46,12580
0.45,12581
0.44,12582
0.44,12583
0.44,12584
0.44,12585
0.44,12586
0.44,12587
0.43,12588
0.42,12589
0.42,12590
0.42,12591
0.42,12592
0.42,12593
0.43,12594
0.44,12595
0.44,12596
0.45,12597
0.45,12598
0.45,12599
0.46,12600
0.46,12601
0.47,12602
0.48,12603
0.49,12604
0.48,12605
0.49,12606
0.5,12607
0.5,12608
0.51,12609
0.52,12610
0.53,12611
0.53,12612
0.53,12613
0.53,12614
0.54,12615
0.54,12616
0.54,12617
0.55,12618
0.55,12619
0.56,12620
0.56,12621
0.54,12622
0.55,12623
0.55,12624
0.56,12625
0.56,12626
0.57,12627
0.57,12628
0.58,12629
0.58,12630
0.58,12631
0.59,12632
0.6,12633
0.6,12634
0.61,12635
0.62,12636
0.63,12637
0.64,12638
0.62,12639
0.63,12640
0.64,12641
0.64,12642
0.65,12643
0.66,12644
0.66,12645
0.66,12646
0.65,12647
0.66,12648
0.67,12649
0.65,12650
0.65,12651
0.64,12652
0.62,12653
0.61,12654
0.62,12655
0.67,12656
0.69,12657
0.72,12658
0.74,12659
0.76,12660
0.76,12661
0.75,12662
0.77,12663
0.76,12664
0.75,12665
0.74,12666
0.74,12667
0.74,12668
0.73,12669
0.72,12670
0.71,12671
0.7,12672
0.69,12673
0.68,12674
0.69,12675
0.69,12676
0.69,12677
0.7,12678
0.71,12679
0.72,12680
0.73,12681
0.73,12682
0.74,12683
0.74,12684
0.74,12685
0.75,12686
0.76,12687
0.76,12688
0.76,12689
0.76,12690
0.76,12691
0.76,12692
0.76,12693
0.76,12694
0.76,12695
0.76,12696
0.76,12697
0.76,12698
0.76,12699
0.75,12700
0.74,12701
0.74,12702
0.74,12703
0.74,12704
0.74,12705
0.75,12706
0.76,12707
0.76,12708
0.76,12709
0.76,12710
0.76,12711
0.75,12712
0.75,12713
0.75,12714
0.75,12715
0.74,12716
0.74,12717
0.74,12718
0.74,12719
0.74,12720
0.74,12721
0.74,12722
0.74,12723
0.74,12724
0.74,12725
0.74,12726
0.74,12727
0.74,12728
0.74,12729
0.75,12730
0.75,12731
0.75,12732
0.75,12733
0.76,12734
0.76,12735
0.76,12736
0.76,12737
0.75,12738
0.74,12739
0.73,12740
0.73,12741
0.72,12742
0.72,12743
0.72,12744
0.72,12745
0.72,12746
0.72,12747
0.72,12748
0.72,12749
0.72,12750
0.72,12751
0.73,12752
0.73,12753
0.73,12754
0.74,12755
0.74,12756
0.74,12757
0.73,12758
0.7,12759
0.67,12760
0.66,12761
0.66,12762
0.63,12763
0.62,12764
0.61,12765
0.61,12766
0.6,12767
0.58,12768
0.57,12769
0.56,12770
0.56,12771
0.55,12772
0.54,12773
0.52,12774
0.52,12775
0.52,12776
0.52,12777
0.52,12778
0.51,12779
0.51,12780
0.51,12781
0.51,12782
0.53,12783
0.52,12784
0.54,12785
0.55,12786
0.55,12787
0.55,12788
0.56,12789
0.55,12790
0.55,12791
0.55,12792
0.55,12793
0.56,12794
0.55,12795
0.56,12796
0.56,12797
0.56,12798
0.56,12799
0.56,12800
0.56,12801
0.56,12802
0.56,12803
0.56,12804
0.56,12805
0.56,12806
0.56,12807
0.56,12808
0.55,12809
0.54,12810
0.55,12811
0.54,12812
0.55,12813
0.54,12814
0.54,12815
0.55,12816
0.55,12817
0.54,12818
0.55,12819
0.55,12820
0.54,12821
0.56,12822
0.56,12823
0.56,12824
0.57,12825
0.58,12826
0.59,12827
0.6,12828
0.59,12829
0.58,12830
0.57,12831
0.56,12832
0.56,12833
0.56,12834
0.56,12835
0.56,12836
0.57,12837
0.58,12838
0.58,12839
0.58,12840
0.58,12841
0.56,12842
0.57,12843
0.56,12844
0.57,12845
0.58,12846
0.58,12847
0.59,12848
0.58,12849
0.56,12850
0.57,12851
0.57,12852
0.6,12853
0.61,12854
0.6,12855
0.6,12856
0.6,12857
0.59,12858
0.59,12859
0.59,12860
0.58,12861
0.6,12862
0.6,12863
0.6,12864
0.6,12865
0.59,12866
0.59,12867
0.59,12868
0.58,12869
0.59,12870
0.59,12871
0.59,12872
0.58,12873
0.56,12874
0.57,12875
0.57,12876
0.57,12877
0.58,12878
0.58,12879
0.57,12880
0.57,12881
0.57,12882
0.56,12883
0.57,12884
0.58,12885
0.59,12886
0.6,12887
0.61,12888
0.6,12889
0.58,12890
0.59,12891
0.59,12892
0.6,12893
0.6,12894
0.61,12895
0.62,12896
0.63,12897
0.63,12898
0.63,12899
0.63,12900
0.62,12901
0.61,12902
0.6,12903
0.6,12904
0.61,12905
0.63,12906
0.62,12907
0.62,12908
0.61,12909
0.6,12910
0.6,12911
0.6,12912
0.6,12913
0.61,12914
0.6,12915
0.59,12916
0.58,12917
0.58,12918
0.58,12919
0.57,12920
0.57,12921
0.57,12922
0.57,12923
0.57,12924
0.57,12925
0.57,12926
0.56,12927
0.56,12928
0.54,12929
0.55,12930
0.57,12931
0.6,12932
0.59,12933
0.58,12934
0.57,12935
0.58,12936
0.57,12937
0.57,12938
0.57,12939
0.57,12940
0.56,12941
0.55,12942
0.55,12943
0.55,12944
0.54,12945
0.54,12946
0.54,12947
0.53,12948
0.53,12949
0.53,12950
0.52,12951
0.52,12952
0.52,12953
0.52,12954
0.52,12955
0.52,12956
0.52,12957
0.52,12958
0.52,12959
0.52,12960
0.52,12961
0.52,12962
0.51,12963
0.51,12964
0.51,12965
0.52,12966
0.52,12967
0.53,12968
0.54,12969
0.54,12970
0.54,12971
0.55,12972
0.55,12973
0.55,12974
0.56,12975
0.57,12976
0.58,12977
0.59,12978
0.59,12979
0.59,12980
0.59,12981
0.59,12982
0.59,12983
0.59,12984
0.59,12985
0.58,12986
0.58,12987
0.59,12988
0.58,12989
0.58,12990
0.58,12991
0.57,12992
0.58,12993
0.59,12994
0.6,12995
0.6,12996
0.6,12997
0.6,12998
0.6,12999
0.6,13000
0.6,13001
0.6,13002
0.6,13003
0.61,13004
0.61,13005
0.6,13006
0.59,13007
0.6,13008
0.6,13009
0.6,13010
0.6,13011
0.6,13012
0.59,13013
0.59,13014
0.58,13015
0.58,13016
0.57,13017
0.57,13018
0.57,13019
0.56,13020
0.56,13021
0.56,13022
0.56,13023
0.56,13024
0.56,13025
0.57,13026
0.57,13027
0.57,13028
0.57,13029
0.58,13030
0.59,13031
0.59,13032
0.6,13033
0.61,13034
0.61,13035
0.61,13036
0.61,13037
0.6,13038
0.57,13039
0.57,13040
0.57,13041
0.57,13042
0.56,13043
0.56,13044
0.56,13045
0.56,13046
0.56,13047
0.56,13048
0.57,13049
0.57,13050
0.58,13051
0.57,13052
0.57,13053
0.57,13054
0.58,13055
0.58,13056
0.57,13057
0.57,13058
0.56,13059
0.56,13060
0.56,13061
0.57,13062
0.56,13063
0.53,13064
0.52,13065
0.52,13066
0.52,13067
0.51,13068
0.52,13069
0.49,13070
0.5,13071
0.51,13072
0.52,13073
0.53,13074
0.53,13075
0.53,13076
0.53,13077
0.53,13078
0.52,13079
0.53,13080
0.52,13081
0.52,13082
0.52,13083
0.51,13084
0.52,13085
0.52,13086
0.53,13087
0.53,13088
0.53,13089
0.54,13090
0.54,13091
0.54,13092
0.54,13093
0.54,13094
0.55,13095
0.56,13096
0.57,13097
0.57,13098
0.58,13099
0.59,13100
0.59,13101
0.59,13102
0.59,13103
0.59,13104
0.59,13105
0.59,13106
0.59,13107
0.6,13108
0.61,13109
0.61,13110
0.62,13111
0.62,13112
0.62,13113
0.63,13114
0.63,13115
0.62,13116
0.61,13117
0.6,13118
0.59,13119
0.58,13120
0.57,13121
0.57,13122
0.57,13123
0.57,13124
0.56,13125
0.56,13126
0.55,13127
0.56,13128
0.57,13129
0.57,13130
0.57,13131
0.55,13132
0.56,13133
0.56,13134
0.57,13135
0.55,13136
0.55,13137
0.56,13138
0.56,13139
0.56,13140
0.56,13141
0.55,13142
0.56,13143
0.56,13144
0.56,13145
0.56,13146
0.55,13147
0.56,13148
0.57,13149
0.57,13150
0.58,13151
0.59,13152
0.6,13153
0.61,13154
0.61,13155
0.61,13156
0.62,13157
0.63,13158
0.64,13159
0.64,13160
0.64,13161
0.64,13162
0.64,13163
0.64,13164
0.64,13165
0.64,13166
0.64,13167
0.64,13168
0.64,13169
0.64,13170
0.64,13171
0.64,13172
0.64,13173
0.64,13174
0.64,13175
0.63,13176
0.63,13177
0.63,13178
0.63,13179
0.62,13180
0.61,13181
0.61,13182
0.61,13183
0.62,13184
0.62,13185
0.63,13186
0.63,13187
0.63,13188
0.64,13189
0.64,13190
0.65,13191
0.66,13192
0.68,13193
0.71,13194
0.72,13195
0.74,13196
0.74,13197
0.75,13198
0.78,13199
0.79,13200
0.78,13201
0.78,13202
0.78,13203
0.78,13204
0.78,13205
0.77,13206
0.76,13207
0.76,13208
0.76,13209
0.76,13210
0.75,13211
0.74,13212
0.73,13213
0.72,13214
0.72,13215
0.73,13216
0.72,13217
0.72,13218
0.71,13219
0.7,13220
0.69,13221
0.68,13222
0.67,13223
0.66,13224
0.65,13225
0.64,13226
0.63,13227
0.62,13228
0.61,13229
0.6,13230
0.61,13231
0.61,13232
0.6,13233
0.61,13234
0.6,13235
0.6,13236
0.59,13237
0.58,13238
0.57,13239
0.57,13240
0.57,13241
0.56,13242
0.56,13243
0.55,13244
0.54,13245
0.53,13246
0.52,13247
0.51,13248
0.52,13249
0.51,13250
0.5,13251
0.49,13252
0.49,13253
0.49,13254
0.48,13255
0.48,13256
0.51,13257
0.5,13258
0.49,13259
0.49,13260
0.48,13261
0.48,13262
0.47,13263
0.46,13264
0.47,13265
0.47,13266
0.46,13267
0.47,13268
0.51,13269
0.52,13270
0.51,13271
0.51,13272
0.5,13273
0.49,13274
0.51,13275
0.55,13276
0.55,13277
0.55,13278
0.56,13279
0.57,13280
0.58,13281
0.57,13282
0.57,13283
0.57,13284
0.56,13285
0.57,13286
0.57,13287
0.57,13288
0.58,13289
0.59,13290
0.59,13291
0.59,13292
0.59,13293
0.59,13294
0.6,13295
0.6,13296
0.59,13297
0.58,13298
0.59,13299
0.59,13300
0.58,13301
0.58,13302
0.57,13303
0.56,13304
0.56,13305
0.56,13306
0.57,13307
0.57,13308
0.59,13309
0.58,13310
0.57,13311
0.56,13312
0.55,13313
0.56,13314
0.57,13315
0.58,13316
0.57,13317
0.57,13318
0.56,13319
0.56,13320
0.55,13321
0.55,13322
0.55,13323
0.55,13324
0.56,13325
0.57,13326
0.56,13327
0.55,13328
0.55,13329
0.54,13330
0.54,13331
0.53,13332
0.52,13333
0.51,13334
0.51,13335
0.51,13336
0.5,13337
0.5,13338
0.5,13339
0.49,13340
0.5,13341
0.49,13342
0.5,13343
0.51,13344
0.51,13345
0.51,13346
0.53,13347
0.53,13348
0.53,13349
0.53,13350
0.53,13351
0.53,13352
0.53,13353
0.53,13354
0.53,13355
0.53,13356
0.53,13357
0.51,13358
0.51,13359
0.5,13360
0.5,13361
0.49,13362
0.48,13363
0.47,13364
0.47,13365
0.46,13366
0.46,13367
0.47,13368
0.47,13369
0.46,13370
0.46,13371
0.46,13372
0.45,13373
0.45,13374
0.45,13375
0.44,13376
0.42,13377
0.42,13378
0.42,13379
0.42,13380
0.42,13381
0.42,13382
0.42,13383
0.42,13384
0.42,13385
0.42,13386
0.41,13387
0.41,13388
0.41,13389
0.41,13390
0.41,13391
0.42,13392
0.43,13393
0.44,13394
0.45,13395
0.45,13396
0.43,13397
0.43,13398
0.44,13399
0.45,13400
0.46,13401
0.47,13402
0.48,13403
0.49,13404
0.49,13405
0.49,13406
0.49,13407
0.49,13408
0.49,13409
0.49,13410
0.49,13411
0.5,13412
0.51,13413
0.52,13414
0.53,13415
0.53,13416
0.53,13417
0.53,13418
0.53,13419
0.53,13420
0.53,13421
0.53,13422
0.53,13423
0.53,13424
0.53,13425
0.53,13426
0.53,13427
0.53,13428
0.54,13429
0.54,13430
0.54,13431
0.54,13432
0.54,13433
0.54,13434
0.54,13435
0.54,13436
0.54,13437
0.54,13438
0.54,13439
0.55,13440
0.56,13441
0.57,13442
0.57,13443
0.57,13444
0.57,13445
0.56,13446
0.56,13447
0.55,13448
0.54,13449
0.53,13450
0.53,13451
0.52,13452
0.52,13453
0.52,13454
0.53,13455
0.52,13456
0.52,13457
0.51,13458
0.51,13459
0.5,13460
0.5,13461
0.5,13462
0.5,13463
0.5,13464
0.51,13465
0.5,13466
0.49,13467
0.49,13468
0.49,13469
0.49,13470
0.48,13471
0.47,13472
0.47,13473
0.47,13474
0.47,13475
0.47,13476
0.47,13477
0.47,13478
0.47,13479
0.48,13480
0.48,13481
0.48,13482
0.48,13483
0.48,13484
0.48,13485
0.48,13486
0.48,13487
0.48,13488
0.48,13489
0.49,13490
0.49,13491
0.49,13492
0.49,13493
0.49,13494
0.49,13495
0.49,13496
0.49,13497
0.49,13498
0.49,13499
0.49,13500
0.49,13501
0.49,13502
0.49,13503
0.49,13504
0.49,13505
0.5,13506
0.5,13507
0.5,13508
0.5,13509
0.5,13510
0.5,13511
0.5,13512
0.5,13513
0.49,13514
0.49,13515
0.48,13516
0.48,13517
0.49,13518
0.5,13519
0.5,13520
0.51,13521
0.51,13522
0.52,13523
0.53,13524
0.52,13525
0.52,13526
0.52,13527
0.53,13528
0.53,13529
0.54,13530
0.55,13531
0.55,13532
0.55,13533
0.56,13534
0.57,13535
0.58,13536
0.59,13537
0.6,13538
0.61,13539
0.61,13540
0.62,13541
0.63,13542
0.64,13543
0.65,13544
0.66,13545
0.66,13546
0.67,13547
0.68,13548
0.68,13549
0.68,13550
0.69,13551
0.69,13552
0.69,13553
0.69,13554
0.7,13555
0.7,13556
0.68,13557
0.69,13558
0.68,13559
0.67,13560
0.67,13561
0.68,13562
0.66,13563
0.64,13564
0.61,13565
0.6,13566
0.61,13567
0.58,13568
0.55,13569
0.56,13570
0.55,13571
0.56,13572
0.55,13573
0.51,13574
0.5,13575
0.51,13576
0.52,13577
0.5,13578
0.5,13579
0.5,13580
0.51,13581
0.51,13582
0.52,13583
0.53,13584
0.54,13585
0.55,13586
0.56,13587
0.56,13588
0.57,13589
0.58,13590
0.59,13591
0.6,13592
0.6,13593
0.61,13594
0.61,13595
0.62,13596
0.63,13597
0.64,13598
0.65,13599
0.66,13600
0.67,13601
0.68,13602
0.68,13603
0.69,13604
0.68,13605
0.68,13606
0.68,13607
0.69,13608
0.7,13609
0.7,13610
0.7,13611
0.71,13612
0.71,13613
0.72,13614
0.72,13615
0.7,13616
0.68,13617
0.69,13618
0.68,13619
0.67,13620
0.67,13621
0.67,13622
0.65,13623
0.65,13624
0.65,13625
0.65,13626
0.63,13627
0.62,13628
0.63,13629
0.61,13630
0.58,13631
0.55,13632
0.55,13633
0.55,13634
0.53,13635
0.53,13636
0.51,13637
0.51,13638
0.51,13639
0.49,13640
0.5,13641
0.51,13642
0.52,13643
0.53,13644
0.51,13645
0.52,13646
0.52,13647
0.53,13648
0.54,13649
0.55,13650
0.56,13651
0.57,13652
0.57,13653
0.58,13654
0.59,13655
0.6,13656
0.61,13657
0.62,13658
0.63,13659
0.62,13660
0.61,13661
0.61,13662
0.62,13663
0.63,13664
0.62,13665
0.63,13666
0.64,13667
0.63,13668
0.64,13669
0.63,13670
0.63,13671
0.63,13672
0.63,13673
0.63,13674
0.63,13675
0.64,13676
0.63,13677
0.61,13678
0.61,13679
0.6,13680
0.6,13681
0.59,13682
0.59,13683
0.58,13684
0.59,13685
0.57,13686
0.56,13687
0.57,13688
0.57,13689
0.58,13690
0.57,13691
0.57,13692
0.57,13693
0.57,13694
0.57,13695
0.57,13696
0.57,13697
0.57,13698
0.58,13699
0.58,13700
0.59,13701
0.59,13702
0.6,13703
0.61,13704
0.62,13705
0.62,13706
0.62,13707
0.63,13708
0.63,13709
0.65,13710
0.66,13711
0.66,13712
0.67,13713
0.67,13714
0.67,13715
0.67,13716
0.68,13717
0.69,13718
0.71,13719
0.71,13720
0.72,13721
0.72,13722
0.73,13723
0.74,13724
0.73,13725
0.72,13726
0.71,13727
0.7,13728
0.69,13729
0.68,13730
0.67,13731
0.66,13732
0.65,13733
0.64,13734
0.63,13735
0.62,13736
0.61,13737
0.6,13738
0.59,13739
0.58,13740
0.57,13741
0.56,13742
0.55,13743
0.54,13744
0.53,13745
0.52,13746
0.51,13747
0.5,13748
0.49,13749
0.48,13750
0.47,13751
0.46,13752
0.45,13753
0.44,13754
0.43,13755
0.42,13756
0.41,13757
0.41,13758
0.4,13759
0.39,13760
0.38,13761
0.38,13762
0.37,13763
0.36,13764
0.35,13765
0.36,13766
0.35,13767
0.34,13768
0.36,13769
0.37,13770
0.36,13771
0.35,13772
0.35,13773
0.36,13774
0.36,13775
0.35,13776
0.35,13777
0.36,13778
0.38,13779
0.39,13780
0.39,13781
0.39,13782
0.4,13783
0.4,13784
0.4,13785
0.41,13786
0.43,13787
0.46,13788
0.47,13789
0.47,13790
0.5,13791
0.5,13792
0.54,13793
0.56,13794
0.57,13795
0.58,13796
0.6,13797
0.62,13798
0.61,13799
0.63,13800
0.65,13801
0.65,13802
0.66,13803
0.66,13804
0.66,13805
0.65,13806
0.66,13807
0.65,13808
0.65,13809
0.66,13810
0.66,13811
0.66,13812
0.66,13813
0.66,13814
0.65,13815
0.65,13816
0.64,13817
0.64,13818
0.65,13819
0.65,13820
0.66,13821
0.66,13822
0.67,13823
0.67,13824
0.67,13825
0.67,13826
0.67,13827
0.66,13828
0.66,13829
0.67,13830
0.66,13831
0.65,13832
0.65,13833
0.65,13834
0.65,13835
0.65,13836
0.65,13837
0.65,13838
0.65,13839
0.65,13840
0.65,13841
0.63,13842
0.63,13843
0.64,13844
0.61,13845
0.59,13846
0.58,13847
0.56,13848
0.55,13849
0.54,13850
0.53,13851
0.53,13852
0.52,13853
0.53,13854
0.52,13855
0.52,13856
0.51,13857
0.5,13858
0.51,13859
0.52,13860
0.53,13861
0.52,13862
0.53,13863
0.52,13864
0.52,13865
0.53,13866
0.54,13867
0.54,13868
0.54,13869
0.55,13870
0.55,13871
0.55,13872
0.55,13873
0.55,13874
0.55,13875
0.56,13876
0.56,13877
0.56,13878
0.55,13879
0.56,13880
0.56,13881
0.57,13882
0.58,13883
0.59,13884
0.6,13885
0.6,13886
0.61,13887
0.61,13888
0.61,13889
0.62,13890
0.62,13891
0.63,13892
0.62,13893
0.62,13894
0.61,13895
0.6,13896
0.58,13897
0.56,13898
0.56,13899
0.56,13900
0.53,13901
0.53,13902
0.53,13903
0.53,13904
0.52,13905
0.51,13906
0.51,13907
0.51,13908
0.5,13909
0.51,13910
0.51,13911
0.51,13912
0.51,13913
0.52,13914
0.53,13915
0.52,13916
0.53,13917
0.49,13918
0.5,13919
0.5,13920
0.5,13921
0.51,13922
0.52,13923
0.51,13924
0.52,13925
0.53,13926
0.54,13927
0.55,13928
0.56,13929
0.57,13930
0.57,13931
0.58,13932
0.59,13933
0.6,13934
0.6,13935
0.59,13936
0.59,13937
0.58,13938
0.58,13939
0.58,13940
0.58,13941
0.58,13942
0.57,13943
0.56,13944
0.55,13945
0.55,13946
0.54,13947
0.53,13948
0.52,13949
0.52,13950
0.51,13951
0.51,13952
0.51,13953
0.51,13954
0.51,13955
0.51,13956
0.51,13957
0.51,13958
0.52,13959
0.53,13960
0.54,13961
0.55,13962
0.55,13963
0.55,13964
0.55,13965
0.56,13966
0.55,13967
0.55,13968
0.56,13969
0.57,13970
0.58,13971
0.59,13972
0.58,13973
0.57,13974
0.58,13975
0.58,13976
0.58,13977
0.58,13978
0.58,13979
0.59,13980
0.59,13981
0.59,13982
0.6,13983
0.6,13984
0.6,13985
0.6,13986
0.62,13987
0.64,13988
0.64,13989
0.64,13990
0.64,13991
0.64,13992
0.64,13993
0.63,13994
0.62,13995
0.62,13996
0.61,13997
0.6,13998
0.6,13999
0.59,14000
0.59,14001
0.59,14002
0.58,14003
0.57,14004
0.56,14005
0.55,14006
0.55,14007
0.55,14008
0.54,14009
0.54,14010
0.55,14011
0.55,14012
0.54,14013
0.53,14014
0.54,14015
0.53,14016
0.54,14017
0.55,14018
0.57,14019
0.57,14020
0.56,14021
0.55,14022
0.57,14023
0.56,14024
0.56,14025
0.56,14026
0.58,14027
0.59,14028
0.6,14029
0.6,14030
0.6,14031
0.6,14032
0.59,14033
0.58,14034
0.57,14035
0.56,14036
0.55,14037
0.54,14038
0.54,14039
0.54,14040
0.55,14041
0.55,14042
0.55,14043
0.56,14044
0.56,14045
0.56,14046
0.56,14047
0.55,14048
0.54,14049
0.54,14050
0.54,14051
0.54,14052
0.54,14053
0.54,14054
0.55,14055
0.55,14056
0.55,14057
0.55,14058
0.55,14059
0.55,14060
0.55,14061
0.56,14062
0.56,14063
0.56,14064
0.56,14065
0.56,14066
0.57,14067
0.57,14068
0.57,14069
0.57,14070
0.57,14071
0.57,14072
0.57,14073
0.57,14074
0.57,14075
0.57,14076
0.57,14077
0.57,14078
0.56,14079
0.57,14080
0.58,14081
0.58,14082
0.57,14083
0.54,14084
0.54,14085
0.54,14086
0.53,14087
0.53,14088
0.52,14089
0.5,14090
0.49,14091
0.5,14092
0.5,14093
0.47,14094
0.48,14095
0.48,14096
0.48,14097
0.48,14098
0.48,14099
0.48,14100
0.48,14101
0.49,14102
0.49,14103
0.49,14104
0.5,14105
0.49,14106
0.5,14107
0.5,14108
0.51,14109
0.51,14110
0.52,14111
0.52,14112
0.53,14113
0.54,14114
0.54,14115
0.53,14116
0.53,14117
0.53,14118
0.53,14119
0.53,14120
0.53,14121
0.54,14122
0.55,14123
0.56,14124
0.57,14125
0.58,14126
0.58,14127
0.58,14128
0.59,14129
0.6,14130
0.6,14131
0.61,14132
0.62,14133
0.63,14134
0.63,14135
0.62,14136
0.63,14137
0.64,14138
0.62,14139
0.62,14140
0.63,14141
0.63,14142
0.63,14143
0.64,14144
0.63,14145
0.62,14146
0.62,14147
0.63,14148
0.64,14149
0.62,14150
0.62,14151
0.63,14152
0.6,14153
0.58,14154
0.59,14155
0.6,14156
0.56,14157
0.56,14158
0.56,14159
0.56,14160
0.56,14161
0.55,14162
0.55,14163
0.56,14164
0.55,14165
0.56,14166
0.57,14167
0.55,14168
0.55,14169
0.55,14170
0.56,14171
0.56,14172
0.56,14173
0.51,14174
0.52,14175
0.52,14176
0.51,14177
0.51,14178
0.52,14179
0.53,14180
0.54,14181
0.52,14182
0.52,14183
0.51,14184
0.5,14185
0.5,14186
0.51,14187
0.52,14188
0.52,14189
0.52,14190
0.52,14191
0.51,14192
0.52,14193
0.53,14194
0.53,14195
0.53,14196
0.53,14197
0.54,14198
0.53,14199
0.54,14200
0.54,14201
0.54,14202
0.55,14203
0.56,14204
0.56,14205
0.57,14206
0.57,14207
0.58,14208
0.58,14209
0.57,14210
0.56,14211
0.57,14212
0.55,14213
0.56,14214
0.56,14215
0.56,14216
0.55,14217
0.54,14218
0.54,14219
0.54,14220
0.55,14221
0.56,14222
0.57,14223
0.56,14224
0.57,14225
0.56,14226
0.57,14227
0.57,14228
0.57,14229
0.58,14230
0.58,14231
0.59,14232
0.59,14233
0.59,14234
0.59,14235
0.59,14236
0.59,14237
0.6,14238
0.59,14239
0.6,14240
0.59,14241
0.59,14242
0.58,14243
0.59,14244
0.58,14245
0.58,14246
0.58,14247
0.57,14248
0.57,14249
0.57,14250
0.56,14251
0.57,14252
0.57,14253
0.57,14254
0.58,14255
0.57,14256
0.57,14257
0.58,14258
0.57,14259
0.57,14260
0.57,14261
0.57,14262
0.57,14263
0.57,14264
0.57,14265
0.58,14266
0.58,14267
0.58,14268
0.59,14269
0.58,14270
0.58,14271
0.59,14272
0.59,14273
0.59,14274
0.59,14275
0.59,14276
0.59,14277
0.58,14278
0.58,14279
0.58,14280
0.58,14281
0.59,14282
0.6,14283
0.59,14284
0.59,14285
0.6,14286
0.6,14287
0.6,14288
0.61,14289
0.61,14290
0.61,14291
0.6,14292
0.59,14293
0.6,14294
0.6,14295
0.58,14296
0.57,14297
0.57,14298
0.57,14299
0.56,14300
0.54,14301
0.53,14302
0.54,14303
0.53,14304
0.53,14305
0.53,14306
0.52,14307
0.5,14308
0.5,14309
0.49,14310
0.5,14311
0.49,14312
0.49,14313
0.48,14314
0.47,14315
0.48,14316
0.48,14317
0.49,14318
0.48,14319
0.47,14320
0.46,14321
0.47,14322
0.48,14323
0.48,14324
0.49,14325
0.49,14326
0.49,14327
0.47,14328
0.47,14329
0.48,14330
0.47,14331
0.46,14332
0.46,14333
0.45,14334
0.45,14335
0.45,14336
0.46,14337
0.45,14338
0.45,14339
0.45,14340
0.45,14341
0.45,14342
0.45,14343
0.45,14344
0.43,14345
0.44,14346
0.43,14347
0.43,14348
0.43,14349
0.42,14350
0.43,14351
0.44,14352
0.45,14353
0.45,14354
0.46,14355
0.46,14356
0.44,14357
0.42,14358
0.42,14359
0.43,14360
0.44,14361
0.43,14362
0.42,14363
0.42,14364
0.43,14365
0.43,14366
0.44,14367
0.44,14368
0.44,14369
0.44,14370
0.44,14371
0.45,14372
0.46,14373
0.46,14374
0.47,14375
0.47,14376
0.44,14377
0.44,14378
0.44,14379
0.45,14380
0.46,14381
0.47,14382
0.48,14383
0.49,14384
0.49,14385
0.48,14386
0.48,14387
0.49,14388
0.49,14389
0.49,14390
0.5,14391
0.5,14392
0.5,14393
0.5,14394
0.51,14395
0.52,14396
0.53,14397
0.54,14398
0.54,14399
0.54,14400
0.53,14401
0.53,14402
0.52,14403
0.53,14404
0.54,14405
0.54,14406
0.55,14407
0.54,14408
0.54,14409
0.55,14410
0.55,14411
0.55,14412
0.55,14413
0.55,14414
0.55,14415
0.54,14416
0.54,14417
0.55,14418
0.56,14419
0.55,14420
0.56,14421
0.55,14422
0.55,14423
0.55,14424
0.55,14425
0.55,14426
0.55,14427
0.55,14428
0.55,14429
0.56,14430
0.57,14431
0.57,14432
0.56,14433
0.56,14434
0.56,14435
0.55,14436
0.56,14437
0.55,14438
0.54,14439
0.54,14440
0.54,14441
0.54,14442
0.54,14443
0.55,14444
0.55,14445
0.56,14446
0.57,14447
0.57,14448
0.57,14449
0.57,14450
0.58,14451
0.59,14452
0.6,14453
0.61,14454
0.61,14455
0.61,14456
0.61,14457
0.62,14458
0.62,14459
0.61,14460
0.61,14461
0.61,14462
0.61,14463
0.62,14464
0.6,14465
0.6,14466
0.6,14467
0.61,14468
0.61,14469
0.6,14470
0.6,14471
0.61,14472
0.61,14473
0.59,14474
0.59,14475
0.59,14476
0.59,14477
0.59,14478
0.59,14479
0.58,14480
0.58,14481
0.59,14482
0.58,14483
0.57,14484
0.57,14485
0.57,14486
0.57,14487
0.57,14488
0.57,14489
0.57,14490
0.57,14491
0.58,14492
0.59,14493
0.59,14494
0.59,14495
0.6,14496
0.6,14497
0.6,14498
0.59,14499
0.6,14500
0.59,14501
0.6,14502
0.6,14503
0.59,14504
0.58,14505
0.59,14506
0.58,14507
0.57,14508
0.56,14509
0.55,14510
0.56,14511
0.57,14512
0.58,14513
0.59,14514
0.58,14515
0.56,14516
0.56,14517
0.56,14518
0.55,14519
0.53,14520
0.53,14521
0.53,14522
0.53,14523
0.54,14524
0.54,14525
0.53,14526
0.53,14527
0.53,14528
0.53,14529
0.53,14530
0.54,14531
0.52,14532
0.52,14533
0.52,14534
0.52,14535
0.52,14536
0.52,14537
0.52,14538
0.52,14539
0.53,14540
0.53,14541
0.53,14542
0.54,14543
0.54,14544
0.54,14545
0.54,14546
0.55,14547
0.55,14548
0.55,14549
0.55,14550
0.54,14551
0.54,14552
0.53,14553
0.53,14554
0.53,14555
0.53,14556
0.53,14557
0.53,14558
0.52,14559
0.53,14560
0.53,14561
0.54,14562
0.54,14563
0.54,14564
0.54,14565
0.55,14566
0.55,14567
0.55,14568
0.56,14569
0.55,14570
0.56,14571
0.57,14572
0.56,14573
0.56,14574
0.57,14575
0.57,14576
0.57,14577
0.57,14578
0.58,14579
0.58,14580
0.59,14581
0.59,14582
0.6,14583
0.6,14584
0.61,14585
0.6,14586
0.6,14587
0.6,14588
0.6,14589
0.59,14590
0.61,14591
0.62,14592
0.61,14593
0.61,14594
0.6,14595
0.6,14596
0.59,14597
0.6,14598
0.6,14599
0.6,14600
0.59,14601
0.59,14602
0.58,14603
0.58,14604
0.58,14605
0.58,14606
0.58,14607
0.58,14608
0.59,14609
0.59,14610
0.59,14611
0.59,14612
0.59,14613
0.58,14614
0.58,14615
0.59,14616
0.59,14617
0.59,14618
0.59,14619
0.59,14620
0.6,14621
0.59,14622
0.59,14623
0.59,14624
0.59,14625
0.6,14626
0.6,14627
0.6,14628
0.6,14629
0.6,14630
0.6,14631
0.6,14632
0.6,14633
0.61,14634
0.61,14635
0.61,14636
0.61,14637
0.61,14638
0.61,14639
0.61,14640
0.61,14641
0.61,14642
0.6,14643
0.61,14644
0.61,14645
0.61,14646
0.6,14647
0.6,14648
0.6,14649
0.61,14650
0.62,14651
0.63,14652
0.64,14653
0.64,14654
0.64,14655
0.64,14656
0.64,14657
0.64,14658
0.64,14659
0.64,14660
0.64,14661
0.63,14662
0.63,14663
0.62,14664
0.61,14665
0.61,14666
0.61,14667
0.6,14668
0.6,14669
0.6,14670
0.61,14671
0.61,14672
0.62,14673
0.62,14674
0.62,14675
0.63,14676
0.63,14677
0.64,14678
0.63,14679
0.64,14680
0.63,14681
0.63,14682
0.62,14683
0.63,14684
0.63,14685
0.62,14686
0.62,14687
0.61,14688
0.61,14689
0.61,14690
0.61,14691
0.61,14692
0.62,14693
0.62,14694
0.63,14695
0.63,14696
0.63,14697
0.63,14698
0.62,14699
0.61,14700
0.61,14701
0.6,14702
0.61,14703
0.61,14704
0.61,14705
0.6,14706
0.6,14707
0.59,14708
0.59,14709
0.59,14710
0.58,14711
0.58,14712
0.58,14713
0.58,14714
0.59,14715
0.59,14716
0.59,14717
0.59,14718
0.59,14719
0.59,14720
