@RELATION 'Music feature'
%rows=1
%columns=9770
%sample_rate=22050
%window_size=512
%step_size=512

@ATTRIBUTE 'Distances in phase domain' NUMERIC
@ATTRIBUTE WindowNumber NUMERIC

@DATA
0.0,1
0.0,2
0.0,3
0.0,4
5.3119893E-6,5
1.6949916E-5,6
1.6887396E-5,7
1.798689E-5,8
1.3748034E-5,9
1.5580785E-5,10
1.6250105E-4,11
0.09986166,12
0.2829686,13
0.21129578,14
0.28763464,15
0.3590817,16
0.31998467,17
0.33714715,18
0.29373652,19
0.2680923,20
0.19507533,21
0.20334958,22
0.19931245,23
0.1684589,24
0.13281356,25
0.080826655,26
0.07277608,27
0.119416036,28
0.16993135,29
0.16113333,30
0.18685587,31
0.17345917,32
0.16871567,33
0.16324054,34
0.13125066,35
0.07654793,36
0.06886498,37
0.09816889,38
0.14202622,39
0.11774681,40
0.08277563,41
0.05672233,42
0.10794007,43
0.1549746,44
0.18223564,45
0.17654696,46
0.15979664,47
0.16863854,48
0.1742715,49
0.15722685,50
0.11432997,51
0.082462765,52
0.07815885,53
0.1275453,54
0.17933841,55
0.17532682,56
0.09882432,57
0.055016723,58
0.06437768,59
0.1158464,60
0.14955847,61
0.15778887,62
0.1641362,63
0.16053219,64
0.18452802,65
0.14722888,66
0.15595515,67
0.1264494,68
0.08140651,69
0.123257175,70
0.1592127,71
0.15019426,72
0.09646222,73
0.04898906,74
0.041940987,75
0.06293039,76
0.13200778,77
0.14367907,78
0.15776262,79
0.13950811,80
0.14027837,81
0.14714019,82
0.16958156,83
0.11079482,84
0.052979447,85
0.045681432,86
0.13126309,87
0.15570731,88
0.29090852,89
0.16071293,90
0.16890916,91
0.16466333,92
0.19153002,93
0.20988847,94
0.14971636,95
0.12285606,96
0.11126518,97
0.15656257,98
0.1773762,99
0.33394673,100
0.2431292,101
0.2751463,102
0.27751383,103
0.29433247,104
0.2812807,105
0.23774122,106
0.14929587,107
0.13135937,108
0.15196656,109
0.1738547,110
0.13600415,111
0.09614092,112
0.07452494,113
0.091301285,114
0.13624007,115
0.15303582,116
0.17208797,117
0.16137724,118
0.1872032,119
0.18810077,120
0.16991603,121
0.11398675,122
0.06383575,123
0.083248906,124
0.13924125,125
0.14395551,126
0.12633277,127
0.0663854,128
0.048443753,129
0.10899764,130
0.15012714,131
0.16193077,132
0.14854349,133
0.15891005,134
0.15423176,135
0.17239082,136
0.16284804,137
0.12222423,138
0.061863717,139
0.03072261,140
0.07020412,141
0.1356163,142
0.17411226,143
0.09008182,144
0.061759587,145
0.03470387,146
0.09517183,147
0.14072709,148
0.1530587,149
0.1742307,150
0.18503456,151
0.16389883,152
0.18120892,153
0.1551616,154
0.11853455,155
0.085953906,156
0.12242689,157
0.16609488,158
0.13207603,159
0.080972634,160
0.04566849,161
0.03991855,162
0.0681411,163
0.12660453,164
0.1615163,165
0.19387314,166
0.1889938,167
0.16325492,168
0.16746426,169
0.14022353,170
0.08555229,171
0.04035408,172
0.055718504,173
0.1046512,174
0.14794502,175
0.15457553,176
0.1560608,177
0.11607489,178
0.15986872,179
0.16368389,180
0.12905075,181
0.11195745,182
0.05200342,183
0.061958354,184
0.25792795,185
0.16596432,186
0.29369769,187
0.31189764,188
0.33731028,189
0.35707223,190
0.28849477,191
0.24549615,192
0.17667508,193
0.095951885,194
0.11275472,195
0.13284642,196
0.15861958,197
0.14509556,198
0.082208335,199
0.060667373,200
0.08222057,201
0.1338776,202
0.17142577,203
0.16814473,204
0.16304925,205
0.17708512,206
0.1816439,207
0.14872934,208
0.09464718,209
0.033983212,210
0.07002786,211
0.14539167,212
0.163058,213
0.08902719,214
0.039030444,215
0.031312454,216
0.07056587,217
0.13010311,218
0.14262898,219
0.14194055,220
0.14103757,221
0.15467545,222
0.13242896,223
0.11124021,224
0.07046795,225
0.0639665,226
0.0692773,227
0.13465314,228
0.20468278,229
0.3505119,230
0.20440772,231
0.28192338,232
0.2680149,233
0.23794056,234
0.23014836,235
0.21261555,236
0.17167862,237
0.15801878,238
0.16235235,239
0.12826031,240
0.0883978,241
0.0799074,242
0.06695974,243
0.1360397,244
0.13620704,245
0.1584056,246
0.1863503,247
0.19684103,248
0.15173161,249
0.15400474,250
0.08436276,251
0.036683623,252
0.04316338,253
0.09111373,254
0.18152092,255
0.25505775,256
0.2866867,257
0.24656104,258
0.20411366,259
0.26014572,260
0.5233681,261
0.52019656,262
0.44465715,263
0.3691268,264
0.35591158,265
0.45489633,266
0.43377817,267
0.35971722,268
0.28351635,269
0.36470172,270
0.24779637,271
0.33150488,272
0.47365758,273
0.54124266,274
0.53411466,275
0.4487633,276
0.3444657,277
0.4023431,278
0.4255131,279
0.35542536,280
0.411043,281
0.3201574,282
0.4084154,283
0.3185036,284
0.3034508,285
0.37915507,286
0.21654928,287
0.30074477,288
0.29902807,289
0.2924735,290
0.31154585,291
0.22094917,292
0.3052344,293
0.2493229,294
0.18344893,295
0.29658505,296
0.16228116,297
0.21159168,298
0.1829927,299
0.16772358,300
0.34464374,301
0.22837779,302
0.3501815,303
0.3917027,304
0.3773309,305
0.446962,306
0.26779008,307
0.35590374,308
0.2593816,309
0.22335312,310
0.22603661,311
0.31292653,312
0.20380764,313
0.23211728,314
0.15320869,315
0.16484715,316
0.26186082,317
0.1674404,318
0.1926403,319
0.27576908,320
0.24737863,321
0.23380254,322
0.36757797,323
0.27759153,324
0.35098168,325
0.32278156,326
0.31209552,327
0.34853217,328
0.18398997,329
0.22607021,330
0.19138165,331
0.18279822,332
0.33455703,333
0.16595678,334
0.27963433,335
0.29048073,336
0.2591095,337
0.3327754,338
0.22211944,339
0.21564561,340
0.161889,341
0.16439,342
0.1850697,343
0.32281917,344
0.250893,345
0.39147514,346
0.35109136,347
0.3640185,348
0.44473404,349
0.24583219,350
0.23435159,351
0.21439935,352
0.21455099,353
0.23409177,354
0.36202613,355
0.23854958,356
0.23577495,357
0.25432828,358
0.26015574,359
0.34799045,360
0.16940992,361
0.21322797,362
0.18744452,363
0.1693199,364
0.2324216,365
0.3661626,366
0.26909098,367
0.34548512,368
0.32996973,369
0.31532633,370
0.3917191,371
0.21789874,372
0.29406974,373
0.27968583,374
0.2901052,375
0.38459355,376
0.21594396,377
0.20972677,378
0.1797357,379
0.18014635,380
0.32806674,381
0.20199347,382
0.1440668,383
0.14018403,384
0.13640024,385
0.17192636,386
0.3055641,387
0.2773662,388
0.34025785,389
0.310949,390
0.36320156,391
0.47353598,392
0.19734006,393
0.24384637,394
0.23132794,395
0.19859187,396
0.21796653,397
0.36491522,398
0.20100342,399
0.19054314,400
0.1733666,401
0.20262317,402
0.22574152,403
0.29863656,404
0.20782477,405
0.2577356,406
0.26646924,407
0.2584928,408
0.3174026,409
0.2828348,410
0.24965882,411
0.33526185,412
0.35555622,413
0.3256882,414
0.2834725,415
0.19555527,416
0.17532824,417
0.21964957,418
0.23807305,419
0.347364,420
0.20698388,421
0.2621032,422
0.25833672,423
0.27408546,424
0.34519237,425
0.30032438,426
0.14427109,427
0.17547528,428
0.19589481,429
0.24875954,430
0.3740891,431
0.2226379,432
0.36340043,433
0.33286718,434
0.3570795,435
0.4059666,436
0.18867987,437
0.21888731,438
0.23310074,439
0.23117977,440
0.24890186,441
0.35838547,442
0.25025278,443
0.2981732,444
0.2939041,445
0.28552267,446
0.36551303,447
0.14450458,448
0.17865162,449
0.1799609,450
0.21602161,451
0.38052234,452
0.2261159,453
0.30293703,454
0.24432516,455
0.31949365,456
0.40693364,457
0.24923226,458
0.22222449,459
0.29149932,460
0.30625495,461
0.27349934,462
0.3704675,463
0.18040448,464
0.20841843,465
0.1977676,466
0.24157795,467
0.3504635,468
0.27938718,469
0.14590564,470
0.16449872,471
0.19165342,472
0.21231899,473
0.366924,474
0.2703137,475
0.36023402,476
0.31613272,477
0.33037457,478
0.40788192,479
0.16085656,480
0.22063239,481
0.19363222,482
0.26451334,483
0.29541132,484
0.38066313,485
0.20430455,486
0.2860939,487
0.25823057,488
0.2971816,489
0.40831813,490
0.18237962,491
0.18555902,492
0.1733969,493
0.23158076,494
0.24787916,495
0.37228608,496
0.29878327,497
0.29826412,498
0.3084276,499
0.31518936,500
0.3184724,501
0.21600522,502
0.31714803,503
0.28899807,504
0.28419077,505
0.27890867,506
0.26080036,507
0.20868213,508
0.22734645,509
0.23795502,510
0.2594311,511
0.26163948,512
0.16302009,513
0.168571,514
0.21480575,515
0.24911505,516
0.372431,517
0.31039077,518
0.40410936,519
0.36780062,520
0.3723429,521
0.4475017,522
0.23653497,523
0.20792001,524
0.21664412,525
0.22761518,526
0.2061223,527
0.38629672,528
0.2143484,529
0.26964968,530
0.26404268,531
0.2598622,532
0.3343875,533
0.16092727,534
0.19092809,535
0.14439368,536
0.16710344,537
0.35786223,538
0.2754911,539
0.34819794,540
0.31397638,541
0.33277526,542
0.39006507,543
0.273456,544
0.25400037,545
0.28497577,546
0.3083738,547
0.29351196,548
0.34716,549
0.1917975,550
0.23222038,551
0.18537828,552
0.18742763,553
0.33002055,554
0.1669607,555
0.15825747,556
0.1420661,557
0.16180497,558
0.19946562,559
0.32718185,560
0.2896926,561
0.34889144,562
0.3582689,563
0.3506609,564
0.44128534,565
0.22818677,566
0.23076834,567
0.20783642,568
0.17933075,569
0.20540708,570
0.3271038,571
0.19544627,572
0.20424145,573
0.20730948,574
0.20687628,575
0.3326997,576
0.16600166,577
0.25415498,578
0.25525436,579
0.28122005,580
0.34287468,581
0.29603335,582
0.37334907,583
0.31503385,584
0.32108432,585
0.31884456,586
0.3500246,587
0.19120373,588
0.21167937,589
0.21483707,590
0.20589559,591
0.32895598,592
0.15947706,593
0.28613123,594
0.26875752,595
0.27996367,596
0.3370975,597
0.19683836,598
0.19489981,599
0.1483682,600
0.16492145,601
0.22220843,602
0.41122547,603
0.24128811,604
0.3910082,605
0.36956736,606
0.36797807,607
0.4085669,608
0.25558278,609
0.21586207,610
0.19791502,611
0.18931726,612
0.23889504,613
0.3636208,614
0.17924908,615
0.2823031,616
0.27994388,617
0.29658937,618
0.36110273,619
0.1992448,620
0.2016526,621
0.16891131,622
0.17340209,623
0.22259328,624
0.34931546,625
0.27958223,626
0.35511696,627
0.32009336,628
0.32961994,629
0.40780297,630
0.19827224,631
0.31196207,632
0.28608882,633
0.2754378,634
0.261319,635
0.3463785,636
0.21843517,637
0.21956602,638
0.2436451,639
0.23519757,640
0.34384432,641
0.13729784,642
0.1737194,643
0.15635839,644
0.18866774,645
0.36944315,646
0.24574333,647
0.37520084,648
0.38184482,649
0.35338998,650
0.39427218,651
0.31207934,652
0.25758985,653
0.21741234,654
0.19824393,655
0.18167837,656
0.34499443,657
0.23896043,658
0.24203905,659
0.18521823,660
0.19514927,661
0.33817333,662
0.16546264,663
0.23123941,664
0.2823131,665
0.2874152,666
0.28199428,667
0.3663739,668
0.3019783,669
0.33548918,670
0.30321634,671
0.32990983,672
0.40873086,673
0.19308726,674
0.23173964,675
0.19882585,676
0.18905021,677
0.21253486,678
0.31881684,679
0.21271111,680
0.28304774,681
0.2697747,682
0.27441177,683
0.3649986,684
0.18097715,685
0.18888606,686
0.15501484,687
0.16517533,688
0.25782758,689
0.30742383,690
0.27696687,691
0.3114331,692
0.32459718,693
0.32484388,694
0.32319668,695
0.18946937,696
0.20150962,697
0.19044016,698
0.2046392,699
0.36104533,700
0.19039242,701
0.27033743,702
0.3215381,703
0.26861867,704
0.2667515,705
0.3278566,706
0.17952137,707
0.12542155,708
0.16245769,709
0.2031124,710
0.36295328,711
0.19942854,712
0.28994036,713
0.26048517,714
0.3039748,715
0.38574082,716
0.28716707,717
0.24816458,718
0.25741535,719
0.2840312,720
0.2790346,721
0.3610548,722
0.19927388,723
0.21815905,724
0.19051714,725
0.26852784,726
0.38037246,727
0.13877301,728
0.16584656,729
0.13601261,730
0.15829286,731
0.27683675,732
0.26418012,733
0.32315394,734
0.36666548,735
0.3302509,736
0.3528823,737
0.2960796,738
0.15512761,739
0.1958761,740
0.1969322,741
0.22129846,742
0.36404684,743
0.27983248,744
0.2627964,745
0.27770337,746
0.291665,747
0.39229345,748
0.23844862,749
0.16480133,750
0.16188127,751
0.18414026,752
0.23926666,753
0.3141137,754
0.30514255,755
0.33359188,756
0.30953008,757
0.32224846,758
0.38267684,759
0.24498722,760
0.29200163,761
0.3081885,762
0.29112235,763
0.37355265,764
0.20370929,765
0.29098618,766
0.22490948,767
0.21878712,768
0.27932873,769
0.4150159,770
0.18869716,771
0.26803783,772
0.24942271,773
0.449257,774
0.48688465,775
0.41276562,776
0.3310416,777
0.34311527,778
0.39376462,779
0.44903457,780
0.3808034,781
0.34883994,782
0.26816374,783
0.27037317,784
0.3686574,785
0.3307967,786
0.5415928,787
0.555413,788
0.5086431,789
0.5517226,790
0.54305905,791
0.5122449,792
0.47492447,793
0.43008173,794
0.41394565,795
0.42642975,796
0.44191098,797
0.31620273,798
0.36736158,799
0.32518068,800
0.357121,801
0.31855026,802
0.2838895,803
0.25397927,804
0.2684265,805
0.26191828,806
0.24664983,807
0.23076305,808
0.23107333,809
0.24430004,810
0.22665918,811
0.22772998,812
0.32721364,813
0.39735097,814
0.45310515,815
0.38882145,816
0.3456314,817
0.42908853,818
0.4592177,819
0.4864743,820
0.40286258,821
0.335003,822
0.33684582,823
0.40043598,824
0.3353207,825
0.34647003,826
0.33150402,827
0.2837897,828
0.43438554,829
0.2816587,830
0.38328576,831
0.4004838,832
0.54537135,833
0.5411388,834
0.3122944,835
0.46200773,836
0.56989723,837
0.54661006,838
0.50865495,839
0.50937665,840
0.35056105,841
0.41888183,842
0.36924082,843
0.4196975,844
0.34577763,845
0.3999212,846
0.54111725,847
0.4159404,848
0.49654385,849
0.3626545,850
0.19353814,851
0.27081922,852
0.23446134,853
0.2344117,854
0.34291184,855
0.18022731,856
0.24850471,857
0.19218183,858
0.16432874,859
0.21366057,860
0.37293324,861
0.30064994,862
0.40424335,863
0.3610663,864
0.30724302,865
0.39398947,866
0.23125224,867
0.27125338,868
0.22278735,869
0.22074743,870
0.33147952,871
0.17409946,872
0.18196425,873
0.17210194,874
0.16936414,875
0.291955,876
0.21215607,877
0.16761555,878
0.14084491,879
0.1433,880
0.17050563,881
0.3989724,882
0.2522596,883
0.28981486,884
0.29546446,885
0.26340145,886
0.3867303,887
0.2225869,888
0.21562892,889
0.18061312,890
0.16096671,891
0.20588595,892
0.28554106,893
0.19584718,894
0.19676903,895
0.18188308,896
0.1823406,897
0.35337883,898
0.15587768,899
0.19439156,900
0.22141817,901
0.21434487,902
0.33616295,903
0.279202,904
0.43729556,905
0.5169065,906
0.5080958,907
0.54490715,908
0.37605867,909
0.25631014,910
0.23578057,911
0.20802814,912
0.19748546,913
0.34888527,914
0.19811173,915
0.2509612,916
0.23057528,917
0.23946711,918
0.33502632,919
0.24351826,920
0.17942865,921
0.18096456,922
0.14453897,923
0.17460306,924
0.35140616,925
0.2035488,926
0.3639286,927
0.2774611,928
0.27069628,929
0.35293144,930
0.20700209,931
0.25379872,932
0.17230693,933
0.18118088,934
0.2456782,935
0.21638066,936
0.20079094,937
0.2234528,938
0.21920429,939
0.24802536,940
0.35428572,941
0.18031208,942
0.17957205,943
0.13101281,944
0.20509046,945
0.33304575,946
0.26028004,947
0.3717765,948
0.4501913,949
0.49063525,950
0.40572426,951
0.30402717,952
0.2274839,953
0.22771384,954
0.22460365,955
0.20942244,956
0.32441282,957
0.18198968,958
0.22271712,959
0.18728657,960
0.19614443,961
0.21527718,962
0.32372773,963
0.13151346,964
0.17013492,965
0.16179855,966
0.18773256,967
0.34761667,968
0.205952,969
0.27469954,970
0.27635238,971
0.34189165,972
0.32390466,973
0.36628336,974
0.21558213,975
0.2345735,976
0.20729572,977
0.26658615,978
0.38598907,979
0.22586107,980
0.2002242,981
0.17937398,982
0.21410744,983
0.2717902,984
0.3025935,985
0.1456528,986
0.14653607,987
0.18834959,988
0.2191904,989
0.34994954,990
0.29618013,991
0.31781775,992
0.27440867,993
0.33791384,994
0.41493887,995
0.21387906,996
0.2504194,997
0.23124127,998
0.45522222,999
0.48339882,1000
0.23104481,1001
0.2460892,1002
0.22912167,1003
0.26949584,1004
0.28191826,1005
0.34503764,1006
0.17409183,1007
0.19627334,1008
0.24029578,1009
0.19884363,1010
0.36647683,1011
0.31249347,1012
0.33238798,1013
0.4075974,1014
0.45682403,1015
0.57229626,1016
0.48898092,1017
0.3145146,1018
0.24830538,1019
0.20740551,1020
0.21501689,1021
0.3953739,1022
0.20290722,1023
0.24663123,1024
0.22021532,1025
0.23735777,1026
0.34066993,1027
0.21433428,1028
0.22384469,1029
0.19085304,1030
0.16564114,1031
0.23722498,1032
0.35652745,1033
0.3410382,1034
0.49909464,1035
0.6304189,1036
0.5631637,1037
0.60762197,1038
0.29030454,1039
0.29298738,1040
0.24932082,1041
0.23659894,1042
0.2691923,1043
0.3332217,1044
0.2080472,1045
0.22440864,1046
0.20248494,1047
0.22205175,1048
0.38335454,1049
0.23464036,1050
0.19766499,1051
0.20474811,1052
0.16757728,1053
0.30673605,1054
0.33428732,1055
0.39830574,1056
0.3498491,1057
0.34212428,1058
0.29266527,1059
0.39162773,1060
0.26393613,1061
0.2734057,1062
0.23979957,1063
0.21227264,1064
0.23947152,1065
0.16662428,1066
0.254604,1067
0.25927565,1068
0.29672986,1069
0.32328048,1070
0.23973851,1071
0.26453003,1072
0.26394024,1073
0.34286612,1074
0.34476322,1075
0.35816607,1076
0.26792008,1077
0.3696228,1078
0.34315926,1079
0.28717002,1080
0.32785526,1081
0.20968872,1082
0.28951147,1083
0.4133126,1084
0.5381073,1085
0.4952668,1086
0.41003978,1087
0.59407336,1088
0.5022197,1089
0.5562862,1090
0.5317372,1091
0.27258363,1092
0.36796188,1093
0.33308524,1094
0.36166325,1095
0.40738693,1096
0.37845302,1097
0.39323506,1098
0.42634988,1099
0.37344143,1100
0.41726187,1101
0.44420195,1102
0.2914711,1103
0.37073153,1104
0.4316273,1105
0.3743089,1106
0.37824664,1107
0.35819393,1108
0.2833671,1109
0.35760188,1110
0.34170786,1111
0.4070757,1112
0.4427872,1113
0.23632509,1114
0.32686538,1115
0.34263963,1116
0.33528587,1117
0.38546628,1118
0.200581,1119
0.32276943,1120
0.3378732,1121
0.3289052,1122
0.36660996,1123
0.2739706,1124
0.29500195,1125
0.33811396,1126
0.381571,1127
0.50965273,1128
0.35547164,1129
0.5634916,1130
0.5396147,1131
0.5728889,1132
0.5285833,1133
0.44407177,1134
0.41974142,1135
0.37365493,1136
0.3980113,1137
0.37823474,1138
0.39142334,1139
0.32278115,1140
0.39996982,1141
0.4113916,1142
0.3725529,1143
0.49807474,1144
0.2696236,1145
0.32469037,1146
0.3501087,1147
0.35065365,1148
0.36339834,1149
0.39093825,1150
0.23272437,1151
0.3161373,1152
0.35580832,1153
0.36972558,1154
0.42955497,1155
0.24944443,1156
0.2424637,1157
0.28173196,1158
0.30707803,1159
0.3086868,1160
0.31479317,1161
0.2985575,1162
0.42717153,1163
0.40229255,1164
0.42658556,1165
0.4675061,1166
0.30901742,1167
0.3143973,1168
0.31669787,1169
0.31648293,1170
0.38188872,1171
0.36173028,1172
0.24080001,1173
0.44221017,1174
0.45671585,1175
0.5461237,1176
0.5600957,1177
0.41559002,1178
0.38811752,1179
0.50769454,1180
0.40614605,1181
0.41819555,1182
0.37958923,1183
0.3718115,1184
0.42663002,1185
0.35030195,1186
0.40449783,1187
0.60589916,1188
0.4300699,1189
0.5743798,1190
0.32056153,1191
0.25228035,1192
0.36037448,1193
0.16875863,1194
0.24656296,1195
0.21898618,1196
0.24550028,1197
0.2633251,1198
0.30782074,1199
0.24289426,1200
0.25858805,1201
0.24128331,1202
0.22827755,1203
0.36374283,1204
0.32561263,1205
0.3533134,1206
0.2900051,1207
0.30000025,1208
0.38831943,1209
0.2545722,1210
0.30569667,1211
0.28592962,1212
0.30670002,1213
0.28968793,1214
0.3493647,1215
0.23372564,1216
0.3412694,1217
0.43224818,1218
0.3121565,1219
0.35416174,1220
0.23703806,1221
0.3459557,1222
0.3219356,1223
0.3026129,1224
0.24258494,1225
0.41868296,1226
0.22792171,1227
0.35308695,1228
0.31594345,1229
0.3228826,1230
0.37384933,1231
0.24380864,1232
0.23546648,1233
0.19904342,1234
0.20326564,1235
0.32354927,1236
0.20784265,1237
0.23152386,1238
0.20464693,1239
0.18418981,1240
0.21566181,1241
0.31009877,1242
0.12439877,1243
0.17816454,1244
0.19101207,1245
0.1935379,1246
0.3590445,1247
0.2515226,1248
0.3843327,1249
0.37575972,1250
0.39768595,1251
0.4205101,1252
0.24825868,1253
0.2488045,1254
0.21203831,1255
0.2358813,1256
0.25439268,1257
0.34255356,1258
0.21448508,1259
0.29441604,1260
0.29677245,1261
0.30900297,1262
0.37717143,1263
0.21456431,1264
0.2362463,1265
0.2341385,1266
0.2368283,1267
0.28913623,1268
0.345134,1269
0.35961574,1270
0.42044,1271
0.3978705,1272
0.3478145,1273
0.38938963,1274
0.15752184,1275
0.2424208,1276
0.22024684,1277
0.2209128,1278
0.3546019,1279
0.18779579,1280
0.24161299,1281
0.20347035,1282
0.21121317,1283
0.27517518,1284
0.34140077,1285
0.18466462,1286
0.31870824,1287
0.33945006,1288
0.36175224,1289
0.400923,1290
0.2530266,1291
0.31840685,1292
0.32156125,1293
0.3012967,1294
0.35484326,1295
0.38537732,1296
0.25274396,1297
0.27920258,1298
0.32772502,1299
0.30277464,1300
0.4058947,1301
0.24911773,1302
0.30592662,1303
0.31107447,1304
0.3502281,1305
0.3821326,1306
0.3640716,1307
0.21933892,1308
0.26520917,1309
0.23801488,1310
0.23297778,1311
0.33209178,1312
0.33321375,1313
0.37418044,1314
0.570609,1315
0.51737,1316
0.43562514,1317
0.19947626,1318
0.24811324,1319
0.21126364,1320
0.21816593,1321
0.21482494,1322
0.3783096,1323
0.19761115,1324
0.21111679,1325
0.21358754,1326
0.22952037,1327
0.37231827,1328
0.15769145,1329
0.15228246,1330
0.15241086,1331
0.16340046,1332
0.25685224,1333
0.361483,1334
0.2633944,1335
0.27298647,1336
0.30979106,1337
0.33585438,1338
0.34601763,1339
0.2105016,1340
0.19924076,1341
0.24657631,1342
0.40819523,1343
0.40667456,1344
0.24845177,1345
0.27796257,1346
0.28578553,1347
0.30694315,1348
0.38887817,1349
0.3010683,1350
0.22583438,1351
0.2579324,1352
0.24660845,1353
0.29314393,1354
0.40089265,1355
0.3396,1356
0.3707917,1357
0.3406211,1358
0.30774206,1359
0.38595077,1360
0.22943404,1361
0.2970485,1362
0.21878411,1363
0.22447225,1364
0.33002096,1365
0.31417,1366
0.21053521,1367
0.22527838,1368
0.23719965,1369
0.2409773,1370
0.38809103,1371
0.17488901,1372
0.26319572,1373
0.2279258,1374
0.26835823,1375
0.42204455,1376
0.27861512,1377
0.3541684,1378
0.28629068,1379
0.29144523,1380
0.34260908,1381
0.39518943,1382
0.25031328,1383
0.3001823,1384
0.2765972,1385
0.2897063,1386
0.38035506,1387
0.19675781,1388
0.2821323,1389
0.28862458,1390
0.29569656,1391
0.42705232,1392
0.25115296,1393
0.269298,1394
0.27638838,1395
0.25705004,1396
0.25511262,1397
0.36061725,1398
0.2993383,1399
0.330157,1400
0.32525352,1401
0.33316967,1402
0.37962472,1403
0.17466898,1404
0.25954843,1405
0.21614313,1406
0.18819383,1407
0.22565918,1408
0.29167333,1409
0.20372686,1410
0.25726995,1411
0.25599313,1412
0.27781087,1413
0.3492463,1414
0.23477352,1415
0.33110237,1416
0.31550536,1417
0.2824359,1418
0.3657386,1419
0.2430003,1420
0.41700917,1421
0.3347522,1422
0.34391904,1423
0.418403,1424
0.32899123,1425
0.35743633,1426
0.3719397,1427
0.47331083,1428
0.43853125,1429
0.40343532,1430
0.5035038,1431
0.44843692,1432
0.45878172,1433
0.48447898,1434
0.36971423,1435
0.34907183,1436
0.3441662,1437
0.3792757,1438
0.36228907,1439
0.377658,1440
0.3277392,1441
0.45136124,1442
0.42515847,1443
0.39833447,1444
0.45904356,1445
0.3024634,1446
0.29660413,1447
0.30354157,1448
0.33190444,1449
0.31159148,1450
0.36664376,1451
0.20398498,1452
0.32847792,1453
0.30068457,1454
0.32658705,1455
0.4358824,1456
0.21050225,1457
0.26515186,1458
0.2689729,1459
0.26782912,1460
0.29505846,1461
0.3655649,1462
0.28332496,1463
0.33569452,1464
0.3267306,1465
0.29143465,1466
0.34378937,1467
0.26278478,1468
0.43369156,1469
0.5517348,1470
0.52055377,1471
0.5357588,1472
0.34101716,1473
0.46723324,1474
0.47245428,1475
0.50546056,1476
0.5149949,1477
0.30664572,1478
0.4310201,1479
0.3840502,1480
0.3476465,1481
0.37043017,1482
0.40249744,1483
0.3841352,1484
0.4367534,1485
0.38722602,1486
0.39720702,1487
0.40254167,1488
0.3200667,1489
0.35666284,1490
0.31586134,1491
0.34400114,1492
0.30512327,1493
0.34616333,1494
0.21625489,1495
0.3284162,1496
0.32673067,1497
0.35890466,1498
0.3802374,1499
0.20074247,1500
0.31756702,1501
0.31448215,1502
0.31839353,1503
0.32582062,1504
0.38884276,1505
0.32613865,1506
0.34309703,1507
0.32896864,1508
0.32782614,1509
0.38983366,1510
0.3032581,1511
0.3263594,1512
0.33648938,1513
0.32044864,1514
0.32688987,1515
0.28662553,1516
0.28494754,1517
0.3200073,1518
0.33807564,1519
0.47333542,1520
0.549994,1521
0.35828117,1522
0.34411517,1523
0.44106668,1524
0.4400149,1525
0.40508154,1526
0.39922506,1527
0.25080276,1528
0.45076862,1529
0.41473582,1530
0.45956188,1531
0.41606006,1532
0.28036183,1533
0.33942074,1534
0.33098972,1535
0.32155508,1536
0.30510432,1537
0.34786162,1538
0.26614726,1539
0.35706615,1540
0.33082473,1541
0.4010932,1542
0.24763465,1543
0.26464015,1544
0.27738163,1545
0.27042714,1546
0.36349046,1547
0.20500807,1548
0.3385164,1549
0.3933233,1550
0.2493881,1551
0.30823818,1552
0.31314492,1553
0.3980751,1554
0.21532255,1555
0.34142965,1556
0.2516298,1557
0.19761908,1558
0.2877966,1559
0.43784752,1560
0.42131525,1561
0.440749,1562
0.37235832,1563
0.37434864,1564
0.37746763,1565
0.41486996,1566
0.40179765,1567
0.29222363,1568
0.24305186,1569
0.25501692,1570
0.24466518,1571
0.19506,1572
0.14094415,1573
0.1521819,1574
0.15487914,1575
0.14881429,1576
0.12216879,1577
0.1446843,1578
0.14705054,1579
0.15084551,1580
0.15423867,1581
0.16157164,1582
0.1409534,1583
0.1458921,1584
0.12055747,1585
0.10299777,1586
0.103302725,1587
0.100564115,1588
0.09958299,1589
0.13123494,1590
0.15653124,1591
0.1793956,1592
0.2061724,1593
0.22021993,1594
0.21044844,1595
0.13960527,1596
0.15096615,1597
0.20677407,1598
0.13863584,1599
0.12984405,1600
0.21949655,1601
0.3128177,1602
0.30384424,1603
0.43485633,1604
0.29414934,1605
0.42976072,1606
0.49989277,1607
0.519474,1608
0.4654695,1609
0.34502408,1610
0.3590108,1611
0.2571756,1612
0.27752417,1613
0.40654585,1614
0.27319527,1615
0.3518953,1616
0.2799892,1617
0.3961766,1618
0.347628,1619
0.28847,1620
0.3227808,1621
0.31030008,1622
0.34715238,1623
0.4016863,1624
0.2759308,1625
0.32285428,1626
0.27630594,1627
0.2860861,1628
0.33205914,1629
0.24981846,1630
0.19167046,1631
0.23839007,1632
0.21315837,1633
0.23939988,1634
0.39930493,1635
0.25620812,1636
0.35665068,1637
0.33799988,1638
0.32972658,1639
0.35602155,1640
0.24756484,1641
0.28360704,1642
0.23286834,1643
0.22209491,1644
0.34441966,1645
0.20425582,1646
0.23553869,1647
0.18522464,1648
0.2019707,1649
0.17826764,1650
0.33014482,1651
0.19208132,1652
0.2216772,1653
0.2395837,1654
0.30902123,1655
0.38130948,1656
0.23694266,1657
0.30835703,1658
0.29242182,1659
0.2565408,1660
0.36630505,1661
0.17541194,1662
0.21609658,1663
0.16193224,1664
0.20833756,1665
0.25585344,1666
0.16790809,1667
0.22016793,1668
0.25617927,1669
0.25636944,1670
0.25146452,1671
0.33580336,1672
0.13387588,1673
0.18703185,1674
0.19357756,1675
0.23574945,1676
0.4066511,1677
0.28627604,1678
0.3490708,1679
0.3179806,1680
0.30249503,1681
0.40249175,1682
0.21647501,1683
0.23584113,1684
0.2860295,1685
0.23764238,1686
0.36095038,1687
0.3627121,1688
0.27777138,1689
0.42848697,1690
0.4968365,1691
0.49540493,1692
0.52169883,1693
0.3264814,1694
0.43539616,1695
0.32273576,1696
0.35582805,1697
0.45835364,1698
0.31814998,1699
0.37186828,1700
0.39233935,1701
0.41390333,1702
0.439468,1703
0.32781443,1704
0.32551506,1705
0.33096087,1706
0.4197393,1707
0.42017043,1708
0.3552318,1709
0.27369058,1710
0.30701,1711
0.2687355,1712
0.2847775,1713
0.37839392,1714
0.19103849,1715
0.24072488,1716
0.24386548,1717
0.22803026,1718
0.35285014,1719
0.29613236,1720
0.37144288,1721
0.32035697,1722
0.325609,1723
0.33267626,1724
0.34349033,1725
0.18391462,1726
0.25845206,1727
0.23969278,1728
0.23206022,1729
0.36610195,1730
0.20457892,1731
0.21346623,1732
0.1858594,1733
0.1923545,1734
0.3223872,1735
0.1929834,1736
0.23989733,1737
0.2502826,1738
0.2515497,1739
0.3300998,1740
0.2833336,1741
0.2698523,1742
0.3358651,1743
0.31969172,1744
0.32008734,1745
0.3464328,1746
0.19305763,1747
0.22168198,1748
0.18886681,1749
0.22056279,1750
0.3304138,1751
0.17972979,1752
0.25585857,1753
0.24515185,1754
0.24787273,1755
0.25585875,1756
0.32113478,1757
0.16607945,1758
0.15819384,1759
0.14953545,1760
0.21881,1761
0.33446997,1762
0.2735689,1763
0.34059662,1764
0.3311975,1765
0.36607102,1766
0.37215763,1767
0.3596223,1768
0.18211466,1769
0.24965158,1770
0.21604821,1771
0.30621794,1772
0.4251086,1773
0.29170522,1774
0.4292147,1775
0.36253163,1776
0.3484027,1777
0.3937929,1778
0.29712173,1779
0.26225737,1780
0.28829667,1781
0.4810385,1782
0.63051254,1783
0.7159652,1784
0.37429813,1785
0.6062215,1786
0.5104661,1787
0.61271214,1788
0.38754854,1789
0.2834629,1790
0.29556412,1791
0.40226647,1792
0.36313334,1793
0.3716568,1794
0.3918966,1795
0.24254574,1796
0.3440029,1797
0.26090676,1798
0.2622778,1799
0.34847045,1800
0.17289811,1801
0.21094246,1802
0.15156998,1803
0.21351968,1804
0.3700033,1805
0.25620815,1806
0.36273408,1807
0.33924,1808
0.34199995,1809
0.28965083,1810
0.36106172,1811
0.19447468,1812
0.20974952,1813
0.2335004,1814
0.27857304,1815
0.40133235,1816
0.22521828,1817
0.30840266,1818
0.27339727,1819
0.26913297,1820
0.29074338,1821
0.33278015,1822
0.18428352,1823
0.17886037,1824
0.21157075,1825
0.21995416,1826
0.3028932,1827
0.20939155,1828
0.2998334,1829
0.2830319,1830
0.25853097,1831
0.37489048,1832
0.18457265,1833
0.24098283,1834
0.2638166,1835
0.27225533,1836
0.26922348,1837
0.33064148,1838
0.19870912,1839
0.23878358,1840
0.31627768,1841
0.24563845,1842
0.3571704,1843
0.1337247,1844
0.18539108,1845
0.17368713,1846
0.2152991,1847
0.33366123,1848
0.35302886,1849
0.33869213,1850
0.33140752,1851
0.35389072,1852
0.34699878,1853
0.35180864,1854
0.14880832,1855
0.23125911,1856
0.2172296,1857
0.25318828,1858
0.44356447,1859
0.3118456,1860
0.46590817,1861
0.44586864,1862
0.48789632,1863
0.45044443,1864
0.47422016,1865
0.23912716,1866
0.33126944,1867
0.29391363,1868
0.31393746,1869
0.3132558,1870
0.22848143,1871
0.29448277,1872
0.2873801,1873
0.3064623,1874
0.33234283,1875
0.39655218,1876
0.30332565,1877
0.42387727,1878
0.4438624,1879
0.44684753,1880
0.37312314,1881
0.3022366,1882
0.3377613,1883
0.32970026,1884
0.2992711,1885
0.36017132,1886
0.18156412,1887
0.19486082,1888
0.21747835,1889
0.2922868,1890
0.3864528,1891
0.2841575,1892
0.31942087,1893
0.37015492,1894
0.3433148,1895
0.3214952,1896
0.2993702,1897
0.16350242,1898
0.17145677,1899
0.1832896,1900
0.2449308,1901
0.34566495,1902
0.1686605,1903
0.20147848,1904
0.1566278,1905
0.2029214,1906
0.31903166,1907
0.21524797,1908
0.2203916,1909
0.25634572,1910
0.21140482,1911
0.32539788,1912
0.30327946,1913
0.30904052,1914
0.27258718,1915
0.2812517,1916
0.3032506,1917
0.34495172,1918
0.15827405,1919
0.1651802,1920
0.164773,1921
0.1844682,1922
0.3054593,1923
0.17798963,1924
0.26326072,1925
0.23469327,1926
0.23243417,1927
0.3133556,1928
0.2588847,1929
0.1564982,1930
0.17372113,1931
0.19949271,1932
0.34452546,1933
0.35100722,1934
0.2578676,1935
0.41374305,1936
0.40154588,1937
0.40360516,1938
0.5511291,1939
0.39399254,1940
0.5056872,1941
0.56799656,1942
0.6404109,1943
0.6919241,1944
0.3636057,1945
0.3302793,1946
0.39536834,1947
0.5155533,1948
0.4948898,1949
0.42257378,1950
0.35708934,1951
0.34112093,1952
0.3839643,1953
0.34818733,1954
0.41600665,1955
0.27913323,1956
0.3948734,1957
0.37089083,1958
0.3605754,1959
0.3678568,1960
0.3201526,1961
0.24374296,1962
0.3150811,1963
0.34957784,1964
0.40833756,1965
0.4575887,1966
0.23756912,1967
0.34940818,1968
0.3135811,1969
0.27267075,1970
0.3953652,1971
0.2285296,1972
0.1977784,1973
0.2032514,1974
0.20963871,1975
0.33371723,1976
0.2962764,1977
0.32757524,1978
0.3703686,1979
0.36835772,1980
0.31624612,1981
0.4191924,1982
0.21588324,1983
0.20814233,1984
0.19607425,1985
0.18452124,1986
0.33831364,1987
0.23789199,1988
0.22767824,1989
0.20070691,1990
0.1966509,1991
0.20455924,1992
0.3479226,1993
0.17663282,1994
0.26248676,1995
0.25848535,1996
0.26558235,1997
0.40635306,1998
0.23812532,1999
0.35102016,2000
0.31863618,2001
0.3166514,2002
0.36711466,2003
0.24789473,2004
0.20082542,2005
0.18160686,2006
0.1866453,2007
0.21345918,2008
0.3707709,2009
0.20670027,2010
0.24834237,2011
0.25749892,2012
0.26698172,2013
0.36014372,2014
0.17378111,2015
0.16518626,2016
0.162293,2017
0.19564189,2018
0.3178614,2019
0.33723322,2020
0.29498562,2021
0.3753967,2022
0.35344538,2023
0.34531143,2024
0.40423003,2025
0.2557533,2026
0.23331448,2027
0.2371469,2028
0.27897277,2029
0.37113902,2030
0.23282735,2031
0.3101057,2032
0.32391202,2033
0.36075926,2034
0.38054603,2035
0.3729784,2036
0.18271337,2037
0.2203005,2038
0.21983492,2039
0.28181785,2040
0.39799106,2041
0.33359048,2042
0.30969012,2043
0.27358067,2044
0.34697193,2045
0.39071223,2046
0.27708966,2047
0.33984137,2048
0.36052942,2049
0.35715768,2050
0.3525553,2051
0.39936158,2052
0.29043403,2053
0.24582918,2054
0.19869871,2055
0.29290593,2056
0.5193976,2057
0.14953633,2058
0.17005119,2059
0.21710525,2060
0.28292736,2061
0.39320588,2062
0.25740752,2063
0.27203608,2064
0.42296955,2065
0.3608013,2066
0.28739196,2067
0.35529923,2068
0.1947411,2069
0.48816627,2070
0.33663073,2071
0.29098883,2072
0.3977732,2073
0.2203602,2074
0.30329403,2075
0.3029207,2076
0.2946717,2077
0.28882286,2078
0.31683534,2079
0.18519565,2080
0.20172678,2081
0.20682497,2082
0.24598199,2083
0.33085352,2084
0.25186196,2085
0.32164577,2086
0.25974235,2087
0.2632438,2088
0.39096355,2089
0.2212386,2090
0.29856327,2091
0.28914422,2092
0.29624042,2093
0.2824994,2094
0.32851538,2095
0.20219739,2096
0.18540335,2097
0.21154939,2098
0.24388795,2099
0.36250865,2100
0.16484545,2101
0.20209125,2102
0.18310016,2103
0.24298836,2104
0.36737317,2105
0.27276823,2106
0.4220366,2107
0.35239443,2108
0.34137037,2109
0.3944202,2110
0.22442213,2111
0.21275079,2112
0.24089728,2113
0.253089,2114
0.291135,2115
0.3499185,2116
0.46742904,2117
0.5026917,2118
0.51699966,2119
0.5338667,2120
0.50628495,2121
0.3062913,2122
0.3363213,2123
0.33126414,2124
0.34707034,2125
0.31203392,2126
0.3164695,2127
0.25712237,2128
0.2407204,2129
0.2623063,2130
0.32563713,2131
0.39451203,2132
0.19180237,2133
0.2700776,2134
0.29483876,2135
0.26055714,2136
0.36733258,2137
0.19729035,2138
0.21900934,2139
0.21156462,2140
0.26889032,2141
0.272452,2142
0.3314802,2143
0.12461334,2144
0.14470221,2145
0.15095992,2146
0.20426208,2147
0.3546408,2148
0.2518686,2149
0.36151195,2150
0.32711005,2151
0.35254928,2152
0.3845968,2153
0.26153874,2154
0.22902325,2155
0.2096116,2156
0.23310165,2157
0.22025213,2158
0.3238437,2159
0.17204618,2160
0.19254485,2161
0.1712838,2162
0.20148408,2163
0.32955945,2164
0.22559538,2165
0.23115976,2166
0.24028078,2167
0.22802408,2168
0.32925376,2169
0.24144068,2170
0.32790694,2171
0.29358065,2172
0.25784937,2173
0.27914995,2174
0.3956759,2175
0.19011556,2176
0.20956238,2177
0.1664931,2178
0.17208193,2179
0.27871218,2180
0.17113686,2181
0.2863922,2182
0.26531205,2183
0.2761023,2184
0.34126884,2185
0.20551533,2186
0.20649345,2187
0.19255413,2188
0.19394074,2189
0.17758435,2190
0.3391717,2191
0.25886288,2192
0.3394267,2193
0.30717638,2194
0.2822267,2195
0.3626068,2196
0.23026285,2197
0.2358124,2198
0.20600444,2199
0.189684,2200
0.20746095,2201
0.325785,2202
0.21981055,2203
0.27003646,2204
0.26016608,2205
0.27557138,2206
0.3567517,2207
0.13716745,2208
0.22184889,2209
0.1562547,2210
0.1612069,2211
0.27459297,2212
0.197314,2213
0.3109629,2214
0.2606316,2215
0.24676898,2216
0.28795344,2217
0.39344516,2218
0.1874642,2219
0.2791388,2220
0.2532457,2221
0.24505317,2222
0.32868573,2223
0.19847661,2224
0.18686703,2225
0.17097703,2226
0.19125889,2227
0.27882382,2228
0.2824153,2229
0.13696794,2230
0.12916379,2231
0.13040042,2232
0.19060591,2233
0.3956794,2234
0.28470552,2235
0.35537153,2236
0.36773354,2237
0.34870535,2238
0.42399073,2239
0.18264492,2240
0.24911813,2241
0.20235331,2242
0.22905175,2243
0.336933,2244
0.24853598,2245
0.24611957,2246
0.2464179,2247
0.24929088,2248
0.26071104,2249
0.37204024,2250
0.14331338,2251
0.18413205,2252
0.14713989,2253
0.20306163,2254
0.32517537,2255
0.25163847,2256
0.30158272,2257
0.31383133,2258
0.2806088,2259
0.27005112,2260
0.29033113,2261
0.22389238,2262
0.2709544,2263
0.24250074,2264
0.23027527,2265
0.32638514,2266
0.13371882,2267
0.18463075,2268
0.18064013,2269
0.21668227,2270
0.24406964,2271
0.25624278,2272
0.12026105,2273
0.12993439,2274
0.14795054,2275
0.18112089,2276
0.3905972,2277
0.23507424,2278
0.34723178,2279
0.31131664,2280
0.3263074,2281
0.38762683,2282
0.1891179,2283
0.20228527,2284
0.20464452,2285
0.20470394,2286
0.28113198,2287
0.30961406,2288
0.21455696,2289
0.29024246,2290
0.31737214,2291
0.2579918,2292
0.37666318,2293
0.16958007,2294
0.19981699,2295
0.18187355,2296
0.21209173,2297
0.35782105,2298
0.2242615,2299
0.30326986,2300
0.2983261,2301
0.24889322,2302
0.2850211,2303
0.31399825,2304
0.20497432,2305
0.26238003,2306
0.24566372,2307
0.26085672,2308
0.38170108,2309
0.2258808,2310
0.2453488,2311
0.19843523,2312
0.24464628,2313
0.35697246,2314
0.15385672,2315
0.16653894,2316
0.16994011,2317
0.18680163,2318
0.20066343,2319
0.3452107,2320
0.29592782,2321
0.35580033,2322
0.35491428,2323
0.31460837,2324
0.36969692,2325
0.20853296,2326
0.21656974,2327
0.21851511,2328
0.23063019,2329
0.24739644,2330
0.2571541,2331
0.16287488,2332
0.18450844,2333
0.17674327,2334
0.2275853,2335
0.35158095,2336
0.19704889,2337
0.285197,2338
0.23311177,2339
0.24821249,2340
0.35691905,2341
0.23181732,2342
0.35145873,2343
0.31339568,2344
0.27654603,2345
0.34994262,2346
0.26010492,2347
0.1837295,2348
0.19236626,2349
0.17578821,2350
0.205858,2351
0.35104793,2352
0.17139612,2353
0.28853709,2354
0.27243873,2355
0.27896816,2356
0.33908427,2357
0.23307118,2358
0.1411204,2359
0.1517496,2360
0.1632261,2361
0.1881932,2362
0.33438274,2363
0.23225419,2364
0.29799855,2365
0.31493148,2366
0.31757635,2367
0.36518145,2368
0.2007785,2369
0.23453724,2370
0.21654764,2371
0.24226159,2372
0.34421515,2373
0.15849163,2374
0.23572193,2375
0.23100805,2376
0.29019108,2377
0.284242,2378
0.38595176,2379
0.12881535,2380
0.19241159,2381
0.17178136,2382
0.16663882,2383
0.34136987,2384
0.22573748,2385
0.29264456,2386
0.23625557,2387
0.2558791,2388
0.28945488,2389
0.3483654,2390
0.20541964,2391
0.28973177,2392
0.26264933,2393
0.27051646,2394
0.31359366,2395
0.20985012,2396
0.22472331,2397
0.18782146,2398
0.21684115,2399
0.31974006,2400
0.24101433,2401
0.15366322,2402
0.1639463,2403
0.19138087,2404
0.2290273,2405
0.38624114,2406
0.3252883,2407
0.328496,2408
0.30260995,2409
0.30828395,2410
0.36308593,2411
0.14154068,2412
0.16570377,2413
0.17046112,2414
0.24216852,2415
0.32650867,2416
0.27207762,2417
0.23753181,2418
0.22426166,2419
0.27033594,2420
0.25934178,2421
0.32974344,2422
0.12373042,2423
0.13370752,2424
0.14013736,2425
0.21355954,2426
0.3435673,2427
0.2520798,2428
0.24379367,2429
0.21361123,2430
0.26827425,2431
0.2931091,2432
0.31710905,2433
0.20893744,2434
0.2552612,2435
0.28395346,2436
0.24357122,2437
0.34160066,2438
0.14351411,2439
0.18559638,2440
0.19220796,2441
0.21352306,2442
0.21874532,2443
0.31667176,2444
0.09799178,2445
0.1410474,2446
0.2318376,2447
0.2333595,2448
0.38178727,2449
0.257734,2450
0.4017458,2451
0.3254359,2452
0.34466907,2453
0.376057,2454
0.22990479,2455
0.1858164,2456
0.20095985,2457
0.23309542,2458
0.34607336,2459
0.24935386,2460
0.24160244,2461
0.27743894,2462
0.31663322,2463
0.26636282,2464
0.3500738,2465
0.18688746,2466
0.16852571,2467
0.116458215,2468
0.19119836,2469
0.32908517,2470
0.2546896,2471
0.2820484,2472
0.26219115,2473
0.25396237,2474
0.2566773,2475
0.3412229,2476
0.20477861,2477
0.2505159,2478
0.24365576,2479
0.2593002,2480
0.36845386,2481
0.16104524,2482
0.20670937,2483
0.18214747,2484
0.26538745,2485
0.2822124,2486
0.2933562,2487
0.14641689,2488
0.15079375,2489
0.17021737,2490
0.22035323,2491
0.37698495,2492
0.28912267,2493
0.3413369,2494
0.30638453,2495
0.3078617,2496
0.40692624,2497
0.18884023,2498
0.20904839,2499
0.22001639,2500
0.2379692,2501
0.29902652,2502
0.18183671,2503
0.1994965,2504
0.18558389,2505
0.19873029,2506
0.24575768,2507
0.34723783,2508
0.16534671,2509
0.25291616,2510
0.24290441,2511
0.25349554,2512
0.35945025,2513
0.22365363,2514
0.26076895,2515
0.27233112,2516
0.27336255,2517
0.29869467,2518
0.34647104,2519
0.14358594,2520
0.17196962,2521
0.16698503,2522
0.2430646,2523
0.3375121,2524
0.22021763,2525
0.25600523,2526
0.28149885,2527
0.2563357,2528
0.239465,2529
0.3405953,2530
0.1498935,2531
0.13765079,2532
0.1256105,2533
0.19020739,2534
0.34292656,2535
0.22685157,2536
0.25780267,2537
0.32046422,2538
0.3229965,2539
0.27940902,2540
0.39704403,2541
0.16022184,2542
0.22601406,2543
0.22868592,2544
0.24080893,2545
0.38189587,2546
0.20129555,2547
0.31067887,2548
0.27871907,2549
0.28153422,2550
0.2858056,2551
0.29351398,2552
0.11991241,2553
0.1551668,2554
0.2092183,2555
0.22577666,2556
0.33804277,2557
0.18142976,2558
0.22498192,2559
0.2122536,2560
0.2639717,2561
0.40151006,2562
0.17509985,2563
0.23037727,2564
0.2643769,2565
0.26656967,2566
0.25206545,2567
0.34198534,2568
0.17189954,2569
0.17295524,2570
0.17059627,2571
0.2351836,2572
0.29598355,2573
0.122924834,2574
0.11143949,2575
0.13771605,2576
0.23460631,2577
0.29885414,2578
0.26238522,2579
0.27124608,2580
0.3085477,2581
0.30319053,2582
0.32198173,2583
0.24570732,2584
0.16482633,2585
0.17137031,2586
0.18048,2587
0.22958155,2588
0.38641483,2589
0.21610141,2590
0.2875815,2591
0.28206325,2592
0.29232103,2593
0.35817018,2594
0.2133659,2595
0.15787391,2596
0.16296346,2597
0.1608344,2598
0.22913006,2599
0.294133,2600
0.20396161,2601
0.27712148,2602
0.24253324,2603
0.23179366,2604
0.32699805,2605
0.18735956,2606
0.24418889,2607
0.27273503,2608
0.25900456,2609
0.34025207,2610
0.16525173,2611
0.21041782,2612
0.17531566,2613
0.19751002,2614
0.30036148,2615
0.18933767,2616
0.14053215,2617
0.13687374,2618
0.14096954,2619
0.16867724,2620
0.33194172,2621
0.23231429,2622
0.38523784,2623
0.29364273,2624
0.26564357,2625
0.37878576,2626
0.17879823,2627
0.22777559,2628
0.19065492,2629
0.2273543,2630
0.20074849,2631
0.25210765,2632
0.25054544,2633
0.28530526,2634
0.3165531,2635
0.3084664,2636
0.3003358,2637
0.17419145,2638
0.24032186,2639
0.16885005,2640
0.1486096,2641
0.31936076,2642
0.22866888,2643
0.3185361,2644
0.26343805,2645
0.27041292,2646
0.3487115,2647
0.17714544,2648
0.26283374,2649
0.24857275,2650
0.2849681,2651
0.24974059,2652
0.31712416,2653
0.24441,2654
0.2431699,2655
0.2033649,2656
0.19580553,2657
0.35242492,2658
0.15194507,2659
0.16674376,2660
0.14264232,2661
0.1363748,2662
0.22114807,2663
0.26384348,2664
0.2643713,2665
0.3562838,2666
0.29057345,2667
0.28112674,2668
0.35124016,2669
0.16674101,2670
0.1741988,2671
0.17471986,2672
0.1828534,2673
0.34582037,2674
0.17472403,2675
0.16303675,2676
0.17185088,2677
0.15436739,2678
0.1773711,2679
0.25867423,2680
0.18265218,2681
0.23242769,2682
0.23939405,2683
0.22942518,2684
0.35697806,2685
0.26902363,2686
0.32524693,2687
0.24567541,2688
0.2306037,2689
0.3533784,2690
0.17876919,2691
0.18791473,2692
0.1710152,2693
0.15175927,2694
0.1975794,2695
0.28397462,2696
0.23564118,2697
0.21811642,2698
0.29990515,2699
0.2951211,2700
0.38639,2701
0.19480576,2702
0.17663476,2703
0.12428453,2704
0.13044834,2705
0.22994663,2706
0.31047228,2707
0.29759827,2708
0.3311277,2709
0.30425394,2710
0.32567292,2711
0.386973,2712
0.21324433,2713
0.25485027,2714
0.2779531,2715
0.26651946,2716
0.37060636,2717
0.25438175,2718
0.2542483,2719
0.30235913,2720
0.31253898,2721
0.30139282,2722
0.3872237,2723
0.17938673,2724
0.23783413,2725
0.19816576,2726
0.21427448,2727
0.35259145,2728
0.19339922,2729
0.30985245,2730
0.2847357,2731
0.28598586,2732
0.3383569,2733
0.3903687,2734
0.23805673,2735
0.31133306,2736
0.31469366,2737
0.28648672,2738
0.35644454,2739
0.16973521,2740
0.22222413,2741
0.17970875,2742
0.17849395,2743
0.32575077,2744
0.22135419,2745
0.14876792,2746
0.16526558,2747
0.13612093,2748
0.15896805,2749
0.35897282,2750
0.2249563,2751
0.35372165,2752
0.34512419,2753
0.3495166,2754
0.40106094,2755
0.20965016,2756
0.18074976,2757
0.21759278,2758
0.18600564,2759
0.23556478,2760
0.30288655,2761
0.22901666,2762
0.27540997,2763
0.25072172,2764
0.24760959,2765
0.3457674,2766
0.152466,2767
0.18076572,2768
0.14572254,2769
0.1522962,2770
0.31182504,2771
0.27723977,2772
0.3267554,2773
0.30345407,2774
0.30282423,2775
0.35010752,2776
0.2766666,2777
0.26409945,2778
0.30248016,2779
0.30592632,2780
0.30162007,2781
0.35803092,2782
0.13672824,2783
0.20596235,2784
0.16846998,2785
0.17313129,2786
0.32543546,2787
0.24808776,2788
0.1457041,2789
0.13567495,2790
0.1373861,2791
0.153901,2792
0.354715,2793
0.26938617,2794
0.41931823,2795
0.31495738,2796
0.3056691,2797
0.3241274,2798
0.2831479,2799
0.19943763,2800
0.189199,2801
0.21250725,2802
0.25837132,2803
0.39298823,2804
0.27385285,2805
0.48222068,2806
0.54638624,2807
0.5493859,2808
0.5236349,2809
0.49457827,2810
0.51864505,2811
0.5043831,2812
0.4396511,2813
0.34986678,2814
0.35242102,2815
0.34111255,2816
0.31376812,2817
0.30611792,2818
0.3393813,2819
0.29807305,2820
0.2754141,2821
0.27437288,2822
0.26554057,2823
0.24242002,2824
0.2506468,2825
0.22569878,2826
0.21341854,2827
0.23894286,2828
0.22536702,2829
0.2191741,2830
0.21114418,2831
0.30522084,2832
0.31261584,2833
0.29353285,2834
0.26385063,2835
0.2892669,2836
0.4281656,2837
0.4503543,2838
0.45179605,2839
0.40402055,2840
0.31364486,2841
0.36514103,2842
0.4371385,2843
0.3879422,2844
0.3029436,2845
0.30074525,2846
0.35767767,2847
0.25098324,2848
0.29635555,2849
0.39980534,2850
0.44708967,2851
0.57257843,2852
0.33956292,2853
0.38232943,2854
0.48665136,2855
0.5072353,2856
0.4412393,2857
0.4223785,2858
0.31980962,2859
0.42147467,2860
0.39919984,2861
0.47840515,2862
0.31949916,2863
0.27579567,2864
0.34098378,2865
0.2923568,2866
0.24943927,2867
0.35400367,2868
0.19639294,2869
0.27180055,2870
0.24960133,2871
0.19702873,2872
0.30895573,2873
0.16817214,2874
0.22122112,2875
0.1870756,2876
0.15004922,2877
0.2683075,2878
0.3031225,2879
0.29122764,2880
0.31229842,2881
0.30495068,2882
0.42075014,2883
0.2194074,2884
0.20350651,2885
0.21283586,2886
0.23617835,2887
0.2062764,2888
0.32047433,2889
0.19870886,2890
0.20783783,2891
0.17428339,2892
0.17476901,2893
0.33893204,2894
0.35107312,2895
0.4977708,2896
0.21451797,2897
0.18889607,2898
0.25975832,2899
0.20730989,2900
0.31243125,2901
0.3249424,2902
0.30751002,2903
0.29653457,2904
0.33074856,2905
0.23097353,2906
0.24427594,2907
0.2238433,2908
0.23672749,2909
0.32500333,2910
0.16847599,2911
0.19562688,2912
0.18914568,2913
0.14870568,2914
0.2219941,2915
0.20726359,2916
0.16810822,2917
0.1771757,2918
0.1457387,2919
0.20625311,2920
0.34197992,2921
0.19018203,2922
0.3331872,2923
0.26323488,2924
0.26864812,2925
0.34873343,2926
0.21774451,2927
0.27377084,2928
0.21785118,2929
0.1917918,2930
0.19342305,2931
0.30243745,2932
0.19325085,2933
0.22083049,2934
0.19385251,2935
0.19197358,2936
0.31332186,2937
0.15905334,2938
0.20313315,2939
0.17090392,2940
0.16636911,2941
0.16647129,2942
0.3468579,2943
0.24856931,2944
0.33463052,2945
0.3047292,2946
0.2636073,2947
0.35821667,2948
0.20546992,2949
0.23977903,2950
0.17669682,2951
0.18820009,2952
0.30617934,2953
0.20823613,2954
0.2278637,2955
0.21199808,2956
0.18852204,2957
0.18586501,2958
0.34211108,2959
0.17736068,2960
0.20524156,2961
0.16571945,2962
0.16667545,2963
0.49630642,2964
0.3328753,2965
0.29380646,2966
0.27045533,2967
0.2493715,2968
0.26345593,2969
0.36331353,2970
0.21361896,2971
0.25599313,2972
0.21285175,2973
0.23190273,2974
0.3462179,2975
0.18285853,2976
0.22145984,2977
0.20955636,2978
0.23771313,2979
0.22771676,2980
0.3398248,2981
0.14610189,2982
0.17058773,2983
0.1459412,2984
0.18314569,2985
0.39061216,2986
0.24199226,2987
0.32527843,2988
0.3415303,2989
0.26862264,2990
0.3670701,2991
0.19039173,2992
0.21704781,2993
0.18612051,2994
0.17834707,2995
0.30787718,2996
0.23402557,2997
0.17084567,2998
0.1818617,2999
0.14696643,3000
0.1623713,3001
0.26315093,3002
0.16169937,3003
0.21162553,3004
0.13214482,3005
0.1296656,3006
0.29301226,3007
0.28766537,3008
0.34652928,3009
0.3481162,3010
0.27173275,3011
0.245752,3012
0.35012272,3013
0.18551314,3014
0.23627912,3015
0.19031353,3016
0.19374047,3017
0.34287712,3018
0.15028024,3019
0.25791958,3020
0.21022457,3021
0.26958573,3022
0.37779647,3023
0.33764553,3024
0.36942345,3025
0.6823352,3026
0.69819385,3027
0.66703653,3028
0.3912058,3029
0.22464699,3030
0.2510275,3031
0.2687709,3032
0.31449416,3033
0.35954618,3034
0.26225552,3035
0.21247329,3036
0.24539745,3037
0.23399632,3038
0.2647756,3039
0.35500187,3040
0.15831046,3041
0.22539513,3042
0.24760826,3043
0.25187498,3044
0.3461993,3045
0.19492927,3046
0.19384037,3047
0.21229556,3048
0.20675318,3049
0.22427276,3050
0.34898666,3051
0.2829368,3052
0.27824286,3053
0.2728777,3054
0.26960316,3055
0.3373774,3056
0.19113448,3057
0.2332738,3058
0.21400404,3059
0.21593374,3060
0.33292267,3061
0.21883851,3062
0.2298025,3063
0.17696519,3064
0.15989783,3065
0.19086832,3066
0.35077974,3067
0.21516857,3068
0.2270779,3069
0.17273603,3070
0.18756305,3071
0.37397975,3072
0.2761498,3073
0.33152282,3074
0.287626,3075
0.27476576,3076
0.40481275,3077
0.20576902,3078
0.29063052,3079
0.22822759,3080
0.20214811,3081
0.20949046,3082
0.30089325,3083
0.2755894,3084
0.2632307,3085
0.259378,3086
0.24162105,3087
0.36222705,3088
0.19020775,3089
0.21127325,3090
0.2431567,3091
0.31119338,3092
0.3230666,3093
0.31296933,3094
0.35438517,3095
0.38215137,3096
0.27317017,3097
0.36388698,3098
0.24482949,3099
0.2603065,3100
0.4707597,3101
0.5013276,3102
0.5402171,3103
0.28254187,3104
0.4671944,3105
0.45974988,3106
0.45871854,3107
0.4387039,3108
0.43152502,3109
0.2596153,3110
0.31616646,3111
0.35522345,3112
0.36391696,3113
0.41724554,3114
0.27896821,3115
0.36278832,3116
0.3954443,3117
0.41714036,3118
0.38913906,3119
0.37102044,3120
0.24552327,3121
0.31643906,3122
0.3056672,3123
0.3272969,3124
0.38098395,3125
0.19274047,3126
0.28712747,3127
0.2765817,3128
0.30744457,3129
0.347181,3130
0.34619173,3131
0.23817638,3132
0.2690051,3133
0.27926096,3134
0.28129405,3135
0.39445847,3136
0.23359793,3137
0.28724587,3138
0.31276,3139
0.3140066,3140
0.54345363,3141
0.5219312,3142
0.5503993,3143
0.37124866,3144
0.42436498,3145
0.45659658,3146
0.3761948,3147
0.37722793,3148
0.43691528,3149
0.48859906,3150
0.39177775,3151
0.4306156,3152
0.26363948,3153
0.33048737,3154
0.33601433,3155
0.34734198,3156
0.39758065,3157
0.35677272,3158
0.34548968,3159
0.3993712,3160
0.36016965,3161
0.34222382,3162
0.42658848,3163
0.24342138,3164
0.32629362,3165
0.33449653,3166
0.3539851,3167
0.36044216,3168
0.2522632,3169
0.26804826,3170
0.2947889,3171
0.2950913,3172
0.27807966,3173
0.3944326,3174
0.17231536,3175
0.2848452,3176
0.26663783,3177
0.2488641,3178
0.35217303,3179
0.2725561,3180
0.33857176,3181
0.3671334,3182
0.37526482,3183
0.37983513,3184
0.39255187,3185
0.21289836,3186
0.3261644,3187
0.34538367,3188
0.29543102,3189
0.3974471,3190
0.39320037,3191
0.3484837,3192
0.39291397,3193
0.5002592,3194
0.4489476,3195
0.49738887,3196
0.26553187,3197
0.413019,3198
0.36569667,3199
0.4799521,3200
0.57190675,3201
0.34472603,3202
0.38190937,3203
0.301065,3204
0.27013484,3205
0.28229672,3206
0.30831626,3207
0.19494005,3208
0.25867182,3209
0.22449355,3210
0.2858211,3211
0.39961147,3212
0.20780167,3213
0.23791486,3214
0.20204721,3215
0.22040744,3216
0.33932245,3217
0.2337228,3218
0.19051105,3219
0.19128755,3220
0.19647318,3221
0.2578297,3222
0.31876197,3223
0.26715788,3224
0.3314609,3225
0.26936105,3226
0.2962526,3227
0.3519496,3228
0.20750251,3229
0.33693457,3230
0.3314029,3231
0.32523265,3232
0.3888869,3233
0.2740795,3234
0.2626807,3235
0.2590316,3236
0.2657247,3237
0.36206868,3238
0.42755058,3239
0.22738834,3240
0.26958987,3241
0.25773308,3242
0.2529823,3243
0.34862188,3244
0.2342907,3245
0.32959253,3246
0.2858688,3247
0.2341139,3248
0.27790022,3249
0.29509133,3250
0.17763597,3251
0.21113072,3252
0.18505268,3253
0.18318385,3254
0.31049517,3255
0.19347733,3256
0.1819482,3257
0.165867,3258
0.17636923,3259
0.22742179,3260
0.2965525,3261
0.14881526,3262
0.20967905,3263
0.17454188,3264
0.27647477,3265
0.2962351,3266
0.27435192,3267
0.2880974,3268
0.40149912,3269
0.54299486,3270
0.61484087,3271
0.22204,3272
0.2319227,3273
0.19614142,3274
0.1835947,3275
0.34711814,3276
0.246267,3277
0.3029375,3278
0.27161333,3279
0.2870292,3280
0.29859197,3281
0.39238366,3282
0.22298639,3283
0.23427965,3284
0.2574904,3285
0.26148123,3286
0.35509732,3287
0.24087435,3288
0.3585608,3289
0.30745882,3290
0.2562774,3291
0.3555801,3292
0.22299388,3293
0.2320441,3294
0.1941427,3295
0.16565552,3296
0.20319392,3297
0.29713982,3298
0.22267309,3299
0.29528216,3300
0.25333792,3301
0.2743284,3302
0.35719,3303
0.15270962,3304
0.24512593,3305
0.1742344,3306
0.15650089,3307
0.25303775,3308
0.3635674,3309
0.30541405,3310
0.45469373,3311
0.58488077,3312
0.5901699,3313
0.45847258,3314
0.25732654,3315
0.30791706,3316
0.2721772,3317
0.27013668,3318
0.3460426,3319
0.20988369,3320
0.2567169,3321
0.2716591,3322
0.26664552,3323
0.26964825,3324
0.35196143,3325
0.16326702,3326
0.26345837,3327
0.2635015,3328
0.23858307,3329
0.37613246,3330
0.28242764,3331
0.37566355,3332
0.33326513,3333
0.2912325,3334
0.36960134,3335
0.21121448,3336
0.24432272,3337
0.21827573,3338
0.19833748,3339
0.21418741,3340
0.2904639,3341
0.19562548,3342
0.22138554,3343
0.20134223,3344
0.1884787,3345
0.3420966,3346
0.17359583,3347
0.21103337,3348
0.15741397,3349
0.21364394,3350
0.3498739,3351
0.24821019,3352
0.32443303,3353
0.2741026,3354
0.28207934,3355
0.36488947,3356
0.30866116,3357
0.22941916,3358
0.27509406,3359
0.21414237,3360
0.20005134,3361
0.31665647,3362
0.26129743,3363
0.29086056,3364
0.27710545,3365
0.31246388,3366
0.3736,3367
0.22514145,3368
0.25020748,3369
0.27620837,3370
0.27319756,3371
0.63586885,3372
0.29757914,3373
0.3703024,3374
0.36189505,3375
0.3398227,3376
0.3307144,3377
0.35091168,3378
0.2533481,3379
0.29196948,3380
0.22152232,3381
0.21531337,3382
0.33600047,3383
0.2696155,3384
0.31348902,3385
0.35136288,3386
0.30053875,3387
0.4015079,3388
0.24088395,3389
0.29470035,3390
0.2694216,3391
0.26928678,3392
0.2035934,3393
0.33338806,3394
0.22151937,3395
0.30674806,3396
0.24958758,3397
0.249934,3398
0.35121486,3399
0.21383601,3400
0.343873,3401
0.3745347,3402
0.398087,3403
0.3587051,3404
0.33345693,3405
0.21936077,3406
0.25692225,3407
0.2621465,3408
0.4083736,3409
0.49151394,3410
0.18341258,3411
0.25476497,3412
0.2538069,3413
0.25244808,3414
0.35722053,3415
0.24856807,3416
0.33343378,3417
0.29513842,3418
0.29622078,3419
0.29243743,3420
0.3112782,3421
0.19244151,3422
0.23512718,3423
0.2007439,3424
0.18986337,3425
0.3356989,3426
0.18053451,3427
0.21893851,3428
0.20664394,3429
0.22045812,3430
0.29521832,3431
0.22245653,3432
0.33329043,3433
0.3099046,3434
0.3163688,3435
0.3854695,3436
0.31583562,3437
0.26694697,3438
0.29790214,3439
0.26440454,3440
0.2725354,3441
0.33162168,3442
0.23313777,3443
0.32833523,3444
0.50297266,3445
0.5900475,3446
0.5537921,3447
0.46942815,3448
0.44934472,3449
0.47637308,3450
0.47970775,3451
0.45620188,3452
0.23753557,3453
0.35231364,3454
0.31623095,3455
0.30145067,3456
0.33244786,3457
0.34878373,3458
0.2903459,3459
0.41377047,3460
0.36282972,3461
0.35954568,3462
0.3984438,3463
0.2514504,3464
0.31931213,3465
0.30291596,3466
0.3068993,3467
0.36934358,3468
0.27773523,3469
0.2543692,3470
0.325339,3471
0.36061046,3472
0.37856743,3473
0.39338958,3474
0.2790893,3475
0.29693,3476
0.3223078,3477
0.30299672,3478
0.39743176,3479
0.22837402,3480
0.28952917,3481
0.32063156,3482
0.33846164,3483
0.3732728,3484
0.24262029,3485
0.26917037,3486
0.32481682,3487
0.3719799,3488
0.48981863,3489
0.41004777,3490
0.37019232,3491
0.43565804,3492
0.42427325,3493
0.39778367,3494
0.44549182,3495
0.27176684,3496
0.37145644,3497
0.31437767,3498
0.35828608,3499
0.37886748,3500
0.33777273,3501
0.30796525,3502
0.36673263,3503
0.37513533,3504
0.37349305,3505
0.422827,3506
0.24414116,3507
0.35732237,3508
0.332048,3509
0.32937112,3510
0.401202,3511
0.27981666,3512
0.3101111,3513
0.2943443,3514
0.339195,3515
0.3353621,3516
0.3935591,3517
0.23610446,3518
0.298828,3519
0.28817323,3520
0.29642886,3521
0.35728845,3522
0.21962422,3523
0.2946569,3524
0.38541916,3525
0.4185258,3526
0.35751206,3527
0.43695426,3528
0.23356064,3529
0.29989666,3530
0.29517007,3531
0.34392664,3532
0.30644274,3533
0.36619622,3534
0.25671324,3535
0.4003796,3536
0.47878516,3537
0.5474529,3538
0.5658435,3539
0.40838417,3540
0.4337862,3541
0.43217486,3542
0.49988577,3543
0.52999604,3544
0.4381529,3545
0.36721456,3546
0.47836983,3547
0.458267,3548
0.54046845,3549
0.4631518,3550
0.38751388,3551
0.38420802,3552
0.4298811,3553
0.42873177,3554
0.34861308,3555
0.3605546,3556
0.28788066,3557
0.32579398,3558
0.45612937,3559
0.44834396,3560
0.4643188,3561
0.2666759,3562
0.3529625,3563
0.46624944,3564
0.427491,3565
0.32001957,3566
0.32334462,3567
0.4790422,3568
0.23623835,3569
0.2983442,3570
0.33705693,3571
0.41623965,3572
0.20292911,3573
0.27652195,3574
0.29052478,3575
0.19991274,3576
0.28606987,3577
0.43526047,3578
0.41016537,3579
0.3800823,3580
0.3600544,3581
0.3316611,3582
0.3872692,3583
0.40337548,3584
0.31340384,3585
0.25187942,3586
0.19544664,3587
0.23357025,3588
0.3672814,3589
0.3208284,3590
0.20780633,3591
0.22229317,3592
0.18446426,3593
0.19436264,3594
0.14505327,3595
0.17339583,3596
0.2006661,3597
0.20815869,3598
0.2316401,3599
0.19957589,3600
0.20400652,3601
0.17894398,3602
0.15975414,3603
0.14803946,3604
0.13899322,3605
0.10279783,3606
0.12582856,3607
0.13812672,3608
0.14833276,3609
0.14281583,3610
0.23114432,3611
0.25742105,3612
0.12994958,3613
0.07683672,3614
0.104994185,3615
0.108473785,3616
0.12008615,3617
0.121867634,3618
0.2970902,3619
0.35646755,3620
0.20790426,3621
0.42192015,3622
0.49821612,3623
0.62622195,3624
0.4038092,3625
0.45626834,3626
0.45731923,3627
0.4880792,3628
0.43420345,3629
0.4510715,3630
0.2579674,3631
0.40610364,3632
0.39987108,3633
0.37809572,3634
0.37545705,3635
0.28895205,3636
0.34235942,3637
0.3207755,3638
0.42566985,3639
0.44339427,3640
0.39018416,3641
0.29149324,3642
0.34898192,3643
0.31788966,3644
0.28113285,3645
0.33818197,3646
0.23191728,3647
0.2886299,3648
0.22596727,3649
0.2653716,3650
0.31313184,3651
0.26828605,3652
0.30408064,3653
0.33324397,3654
0.35950464,3655
0.32749805,3656
0.33876562,3657
0.22158019,3658
0.26425353,3659
0.23316842,3660
0.1948868,3661
0.308469,3662
0.1627474,3663
0.24495171,3664
0.21885678,3665
0.18622921,3666
0.29307857,3667
0.25009266,3668
0.20560679,3669
0.25221607,3670
0.26644182,3671
0.22183451,3672
0.33308533,3673
0.2771337,3674
0.3568195,3675
0.25920865,3676
0.30055454,3677
0.40197608,3678
0.23857611,3679
0.21426098,3680
0.16041179,3681
0.17965077,3682
0.17430109,3683
0.28390348,3684
0.16088536,3685
0.25069124,3686
0.23623218,3687
0.22763757,3688
0.29167044,3689
0.16635436,3690
0.1305372,3691
0.13332005,3692
0.24348368,3693
0.32597405,3694
0.27006316,3695
0.2425389,3696
0.3631698,3697
0.37430692,3698
0.31141534,3699
0.40354374,3700
0.18435499,3701
0.17819035,3702
0.23178071,3703
0.318981,3704
0.37199724,3705
0.2298291,3706
0.38315895,3707
0.4671098,3708
0.49754795,3709
0.499007,3710
0.49078095,3711
0.28351453,3712
0.4123192,3713
0.46136996,3714
0.38011962,3715
0.44966933,3716
0.29063085,3717
0.3543203,3718
0.35764533,3719
0.37797984,3720
0.39881366,3721
0.38080707,3722
0.2771717,3723
0.2927362,3724
0.33125195,3725
0.40701926,3726
0.32203084,3727
0.30923545,3728
0.314843,3729
0.36810064,3730
0.36701658,3731
0.39809948,3732
0.18915235,3733
0.2001799,3734
0.26989985,3735
0.2883784,3736
0.37894663,3737
0.23453411,3738
0.36624503,3739
0.3589101,3740
0.37247485,3741
0.3202366,3742
0.34414545,3743
0.16133954,3744
0.21994053,3745
0.24629924,3746
0.25228423,3747
0.35024545,3748
0.16565084,3749
0.19430491,3750
0.14714225,3751
0.2040923,3752
0.2594122,3753
0.33611733,3754
0.1876923,3755
0.2123993,3756
0.21409598,3757
0.23014061,3758
0.32336235,3759
0.22840948,3760
0.2743463,3761
0.30963033,3762
0.32304472,3763
0.27353802,3764
0.3076296,3765
0.13772547,3766
0.18439685,3767
0.22235519,3768
0.25813913,3769
0.33226374,3770
0.1431999,3771
0.23493937,3772
0.21416669,3773
0.24242717,3774
0.23110893,3775
0.23238467,3776
0.12531108,3777
0.16493046,3778
0.22511333,3779
0.2704127,3780
0.30039296,3781
0.27887484,3782
0.31161824,3783
0.3118511,3784
0.3573491,3785
0.3431823,3786
0.18004535,3787
0.1852564,3788
0.20213361,3789
0.21033023,3790
0.36077568,3791
0.25076705,3792
0.34678146,3793
0.40149286,3794
0.34093657,3795
0.36729336,3796
0.33853805,3797
0.20640384,3798
0.22360943,3799
0.35752815,3800
0.5658342,3801
0.6617051,3802
0.44240966,3803
0.5686492,3804
0.50052106,3805
0.537731,3806
0.45460182,3807
0.27354228,3808
0.2686277,3809
0.36655095,3810
0.38895947,3811
0.35059792,3812
0.40167302,3813
0.28108746,3814
0.31207597,3815
0.24702947,3816
0.27061066,3817
0.36220425,3818
0.122631006,3819
0.17287873,3820
0.20182927,3821
0.26943582,3822
0.3605807,3823
0.3687991,3824
0.30175927,3825
0.32095134,3826
0.3243489,3827
0.3325216,3828
0.34512842,3829
0.24626467,3830
0.23831137,3831
0.25171742,3832
0.2613508,3833
0.40004325,3834
0.25420642,3835
0.23839794,3836
0.25509074,3837
0.28932646,3838
0.26830587,3839
0.34854457,3840
0.15408388,3841
0.1702161,3842
0.17908381,3843
0.21737266,3844
0.36190727,3845
0.26200697,3846
0.30766192,3847
0.28444165,3848
0.2970243,3849
0.3680875,3850
0.21939197,3851
0.26391986,3852
0.3075378,3853
0.2968596,3854
0.27179712,3855
0.29371142,3856
0.17267531,3857
0.21844599,3858
0.26917475,3859
0.30221322,3860
0.33355138,3861
0.17026597,3862
0.16737145,3863
0.21388605,3864
0.25038457,3865
0.33708102,3866
0.34392035,3867
0.3736132,3868
0.39427707,3869
0.4128182,3870
0.3672628,3871
0.33348975,3872
0.21308239,3873
0.24479264,3874
0.23345704,3875
0.29924414,3876
0.41732904,3877
0.3170584,3878
0.5666921,3879
0.41187432,3880
0.45253626,3881
0.4964432,3882
0.2368841,3883
0.3129859,3884
0.2990561,3885
0.28853917,3886
0.2968546,3887
0.38533878,3888
0.27628097,3889
0.3670583,3890
0.30715454,3891
0.34725094,3892
0.4471532,3893
0.30383554,3894
0.42273307,3895
0.45346966,3896
0.43385834,3897
0.43402407,3898
0.23740207,3899
0.2502529,3900
0.30196646,3901
0.30729377,3902
0.32434416,3903
0.35683107,3904
0.17420304,3905
0.22629525,3906
0.25604442,3907
0.30952677,3908
0.36212775,3909
0.3386283,3910
0.41447967,3911
0.401383,3912
0.3637347,3913
0.40517372,3914
0.27997124,3915
0.22959226,3916
0.24580353,3917
0.2336083,3918
0.2765394,3919
0.34557787,3920
0.1664503,3921
0.208308,3922
0.1784909,3923
0.19965647,3924
0.34463158,3925
0.16288392,3926
0.24375644,3927
0.22365597,3928
0.25326273,3929
0.3302986,3930
0.25747833,3931
0.3017053,3932
0.28767896,3933
0.33338672,3934
0.37539315,3935
0.24052976,3936
0.21996658,3937
0.18932119,3938
0.19165882,3939
0.24881247,3940
0.37507823,3941
0.21059956,3942
0.25459412,3943
0.1967017,3944
0.22902812,3945
0.3648691,3946
0.15100321,3947
0.13577129,3948
0.14847325,3949
0.32899177,3950
0.31576306,3951
0.3479025,3952
0.3491602,3953
0.37921187,3954
0.41427767,3955
0.47022775,3956
0.58136344,3957
0.43079254,3958
0.56567746,3959
0.5490961,3960
0.5381208,3961
0.5709338,3962
0.302138,3963
0.36449468,3964
0.4626262,3965
0.47829995,3966
0.48865843,3967
0.4580719,3968
0.29617247,3969
0.31718028,3970
0.35502553,3971
0.42777735,3972
0.4811251,3973
0.39263153,3974
0.40154517,3975
0.34923565,3976
0.44104233,3977
0.44153652,3978
0.31621575,3979
0.2771375,3980
0.35715997,3981
0.39154685,3982
0.4662039,3983
0.3933365,3984
0.257965,3985
0.31260422,3986
0.3458336,3987
0.34398407,3988
0.36988655,3989
0.20465212,3990
0.24156038,3991
0.19304635,3992
0.25027716,3993
0.36383626,3994
0.23573023,3995
0.36922497,3996
0.3669876,3997
0.33474776,3998
0.31612462,3999
0.35379916,4000
0.2313021,4001
0.23202853,4002
0.21185535,4003
0.23967564,4004
0.36670858,4005
0.20964256,4006
0.18246198,4007
0.18642583,4008
0.21342105,4009
0.31223983,4010
0.22026663,4011
0.19244136,4012
0.2214943,4013
0.23149996,4014
0.23829046,4015
0.36515805,4016
0.22081737,4017
0.3185891,4018
0.28002787,4019
0.32127294,4020
0.38559008,4021
0.15823478,4022
0.22597004,4023
0.21707614,4024
0.21184026,4025
0.34195325,4026
0.20368665,4027
0.23357537,4028
0.25041714,4029
0.26787692,4030
0.25276417,4031
0.33125654,4032
0.16456932,4033
0.18592653,4034
0.44418216,4035
0.4186657,4036
0.2745296,4037
0.3477087,4038
0.3214113,4039
0.39195076,4040
0.37919855,4041
0.37205535,4042
0.3083855,4043
0.21771808,4044
0.36724147,4045
0.21559332,4046
0.25022683,4047
0.39990485,4048
0.24450383,4049
0.2832769,4050
0.28627795,4051
0.2930238,4052
0.27420205,4053
0.2937284,4054
0.16014922,4055
0.19268356,4056
0.2381804,4057
0.22893572,4058
0.39300972,4059
0.2134375,4060
0.31617123,4061
0.29617524,4062
0.38995767,4063
0.4921392,4064
0.20407483,4065
0.29604042,4066
0.29763713,4067
0.3312845,4068
0.35120413,4069
0.29646692,4070
0.23052873,4071
0.26000565,4072
0.27949488,4073
0.29826078,4074
0.36379698,4075
0.18574125,4076
0.24325368,4077
0.33781362,4078
0.36664563,4079
0.4705409,4080
0.29635778,4081
0.42206916,4082
0.39183682,4083
0.41468328,4084
0.5080837,4085
0.490799,4086
0.39142892,4087
0.3857591,4088
0.24250105,4089
0.28742918,4090
0.38443804,4091
0.20164683,4092
0.29578736,4093
0.25254536,4094
0.28663588,4095
0.37884256,4096
0.17719644,4097
0.19888107,4098
0.19502352,4099
0.22477913,4100
0.27112436,4101
0.3470175,4102
0.3031186,4103
0.30072612,4104
0.27848753,4105
0.29731345,4106
0.40510723,4107
0.19418052,4108
0.32172874,4109
0.3021252,4110
0.31410122,4111
0.28649232,4112
0.32111788,4113
0.1959938,4114
0.22068591,4115
0.25070113,4116
0.30681846,4117
0.34776375,4118
0.12126716,4119
0.15069468,4120
0.18901555,4121
0.22226258,4122
0.40842384,4123
0.30880824,4124
0.32542574,4125
0.36492565,4126
0.30350316,4127
0.37036383,4128
0.17910767,4129
0.21732731,4130
0.1768761,4131
0.20421909,4132
0.33376646,4133
0.48212913,4134
0.36499617,4135
0.5133702,4136
0.49676245,4137
0.46724057,4138
0.47487843,4139
0.3046948,4140
0.3443651,4141
0.29031664,4142
0.25974223,4143
0.34302598,4144
0.32774457,4145
0.2639604,4146
0.29116392,4147
0.29035857,4148
0.30131644,4149
0.39840198,4150
0.25641376,4151
0.38757625,4152
0.39586905,4153
0.38320282,4154
0.41397777,4155
0.2737789,4156
0.2592765,4157
0.2725895,4158
0.27898526,4159
0.29170287,4160
0.25310016,4161
0.15830709,4162
0.19871546,4163
0.19175334,4164
0.29189572,4165
0.41235524,4166
0.2922258,4167
0.36085355,4168
0.35422763,4169
0.33858016,4170
0.39337683,4171
0.2402724,4172
0.23113735,4173
0.20475402,4174
0.21371865,4175
0.335048,4176
0.24618416,4177
0.1791827,4178
0.18371554,4179
0.1857596,4180
0.21059887,4181
0.31586722,4182
0.16178611,4183
0.22530174,4184
0.23137993,4185
0.24607086,4186
0.32631373,4187
0.26016146,4188
0.2392006,4189
0.29790992,4190
0.345732,4191
0.32381934,4192
0.29539925,4193
0.19832192,4194
0.21603695,4195
0.21594228,4196
0.23993506,4197
0.38396475,4198
0.17598565,4199
0.26649857,4200
0.22600834,4201
0.23709086,4202
0.32731646,4203
0.1818996,4204
0.10101803,4205
0.14147326,4206
0.18382925,4207
0.2530319,4208
0.36542743,4209
0.24855205,4210
0.32673427,4211
0.33687037,4212
0.34184653,4213
0.39803463,4214
0.20801255,4215
0.22474143,4216
0.25539967,4217
0.25945666,4218
0.45894507,4219
0.44041485,4220
0.41107273,4221
0.46142748,4222
0.48576033,4223
0.49812403,4224
0.5101201,4225
0.23916838,4226
0.293251,4227
0.35292715,4228
0.37895334,4229
0.46525857,4230
0.32387045,4231
0.31297648,4232
0.29890457,4233
0.35211447,4234
0.3816967,4235
0.38613108,4236
0.3135364,4237
0.40622833,4238
0.4077494,4239
0.39698604,4240
0.45160422,4241
0.26262102,4242
0.27744842,4243
0.27379295,4244
0.2968477,4245
0.37162244,4246
0.21662925,4247
0.18730886,4248
0.18778597,4249
0.24548309,4250
0.29756713,4251
0.38586068,4252
0.30058095,4253
0.3399623,4254
0.34332016,4255
0.32692486,4256
0.3937385,4257
0.19857378,4258
0.19217075,4259
0.17228457,4260
0.17290469,4261
0.30501986,4262
0.18218683,4263
0.21714018,4264
0.18332916,4265
0.20750222,4266
0.22938748,4267
0.37794268,4268
0.17710876,4269
0.23979197,4270
0.24793588,4271
0.22559111,4272
0.3585476,4273
0.23682445,4274
0.31017762,4275
0.29780406,4276
0.31393397,4277
0.27233994,4278
0.31690186,4279
0.13867953,4280
0.17648356,4281
0.18648219,4282
0.20181942,4283
0.36847264,4284
0.18635309,4285
0.26328918,4286
0.2409472,4287
0.267427,4288
0.32089528,4289
0.23483022,4290
0.12398569,4291
0.15647116,4292
0.18024012,4293
0.24175014,4294
0.359779,4295
0.33484378,4296
0.3515815,4297
0.34727564,4298
0.34357035,4299
0.41660348,4300
0.17496979,4301
0.23535043,4302
0.23303714,4303
0.2334485,4304
0.37120283,4305
0.22712074,4306
0.27880353,4307
0.3858834,4308
0.34361508,4309
0.35836682,4310
0.40122023,4311
0.2299272,4312
0.25626236,4313
0.24261542,4314
0.4321794,4315
0.63014656,4316
0.5284749,4317
0.5368025,4318
0.62664783,4319
0.62375903,4320
0.4164744,4321
0.35853893,4322
0.24242677,4323
0.32967713,4324
0.343373,4325
0.33930138,4326
0.36439827,4327
0.22702573,4328
0.2861128,4329
0.3395031,4330
0.31551972,4331
0.28781652,4332
0.2259264,4333
0.15330617,4334
0.19065775,4335
0.25919992,4336
0.38856378,4337
0.3068225,4338
0.3088054,4339
0.32647055,4340
0.3094037,4341
0.30759957,4342
0.3577735,4343
0.210226,4344
0.20564312,4345
0.2142956,4346
0.26311007,4347
0.4497942,4348
0.22381783,4349
0.26773277,4350
0.26870283,4351
0.2467617,4352
0.254511,4353
0.32262725,4354
0.12905295,4355
0.13009301,4356
0.19036856,4357
0.23874713,4358
0.3232729,4359
0.2225081,4360
0.30671182,4361
0.28972915,4362
0.2998809,4363
0.36205488,4364
0.2702299,4365
0.23794119,4366
0.27669317,4367
0.27819732,4368
0.26749706,4369
0.3678838,4370
0.17853656,4371
0.22272114,4372
0.23884673,4373
0.28144556,4374
0.3051422,4375
0.20012903,4376
0.14535357,4377
0.16749334,4378
0.23243523,4379
0.2913898,4380
0.4127874,4381
0.27951318,4382
0.4273285,4383
0.33871678,4384
0.41101274,4385
0.4222299,4386
0.21488588,4387
0.22467372,4388
0.20916708,4389
0.34943005,4390
0.48495764,4391
0.2777936,4392
0.38685694,4393
0.4055709,4394
0.44953856,4395
0.35769078,4396
0.4048543,4397
0.2159021,4398
0.24647169,4399
0.2944485,4400
0.30631992,4401
0.3990495,4402
0.1951846,4403
0.33685043,4404
0.28244737,4405
0.35246316,4406
0.44453365,4407
0.20103475,4408
0.2659726,4409
0.3531321,4410
0.3332283,4411
0.32585633,4412
0.36597267,4413
0.25654814,4414
0.26096538,4415
0.27547738,4416
0.34528568,4417
0.38016754,4418
0.17771535,4419
0.21408875,4420
0.21885817,4421
0.2751724,4422
0.37021258,4423
0.30938944,4424
0.3052139,4425
0.37299392,4426
0.3448145,4427
0.31586227,4428
0.33758533,4429
0.15475358,4430
0.17228828,4431
0.15648355,4432
0.21339916,4433
0.33567598,4434
0.14111552,4435
0.15967333,4436
0.18108034,4437
0.22320524,4438
0.2918095,4439
0.26608598,4440
0.24560422,4441
0.24120666,4442
0.23686469,4443
0.23641537,4444
0.37619346,4445
0.20673965,4446
0.2973423,4447
0.29051656,4448
0.32406625,4449
0.4094409,4450
0.19358104,4451
0.20291233,4452
0.19332942,4453
0.1929567,4454
0.21583636,4455
0.32007107,4456
0.18731631,4457
0.26515377,4458
0.23064582,4459
0.24657093,4460
0.37418374,4461
0.1333997,4462
0.16833942,4463
0.15122671,4464
0.18266849,4465
0.50583696,4466
0.35345185,4467
0.25169832,4468
0.4086859,4469
0.37471744,4470
0.3645147,4471
0.4182933,4472
0.33816323,4473
0.4658079,4474
0.55846727,4475
0.5336664,4476
0.5447224,4477
0.26632014,4478
0.38546577,4479
0.37558845,4480
0.49916807,4481
0.43995214,4482
0.42237416,4483
0.26692703,4484
0.24561653,4485
0.237909,4486
0.3140477,4487
0.46389264,4488
0.30820966,4489
0.37123016,4490
0.3863071,4491
0.369779,4492
0.41930726,4493
0.3852113,4494
0.32740396,4495
0.39402652,4496
0.40893775,4497
0.39761832,4498
0.40277594,4499
0.24033426,4500
0.2818065,4501
0.2568537,4502
0.29854974,4503
0.29116452,4504
0.30107918,4505
0.16612604,4506
0.18193287,4507
0.1961512,4508
0.29100618,4509
0.34140667,4510
0.26766193,4511
0.38315523,4512
0.3705774,4513
0.32997045,4514
0.38988626,4515
0.25690395,4516
0.20915431,4517
0.18785144,4518
0.2005747,4519
0.36253974,4520
0.2124255,4521
0.22414757,4522
0.17968355,4523
0.19084242,4524
0.2554282,4525
0.355553,4526
0.15669714,4527
0.23223886,4528
0.22481504,4529
0.21481927,4530
0.3516851,4531
0.223387,4532
0.30424932,4533
0.2518553,4534
0.28465083,4535
0.29447156,4536
0.3161521,4537
0.1603636,4538
0.20418015,4539
0.21799749,4540
0.2506793,4541
0.29813042,4542
0.26340988,4543
0.25048962,4544
0.2563956,4545
0.2531942,4546
0.33050713,4547
0.20429032,4548
0.16604145,4549
0.1797068,4550
0.23359586,4551
0.25355738,4552
0.35091856,4553
0.33078524,4554
0.34615916,4555
0.35113862,4556
0.36537606,4557
0.3866075,4558
0.23315486,4559
0.24193522,4560
0.24208917,4561
0.2789398,4562
0.42606717,4563
0.29670262,4564
0.33555642,4565
0.3190152,4566
0.35554224,4567
0.2845952,4568
0.3531227,4569
0.17184448,4570
0.23133592,4571
0.24538189,4572
0.29840812,4573
0.41775674,4574
0.2987074,4575
0.35723495,4576
0.3058761,4577
0.32447943,4578
0.35576808,4579
0.39828148,4580
0.22319274,4581
0.3492218,4582
0.31605586,4583
0.3136884,4584
0.38609588,4585
0.20304064,4586
0.18731202,4587
0.26947236,4588
0.34205157,4589
0.348493,4590
0.25639486,4591
0.10692576,4592
0.20336197,4593
0.3202561,4594
0.27569562,4595
0.3579567,4596
0.28897843,4597
0.35532853,4598
0.34459862,4599
0.31362015,4600
0.2774319,4601
0.32986236,4602
0.2364529,4603
0.40990165,4604
0.34284756,4605
0.35300466,4606
0.2902944,4607
0.23138992,4608
0.27940625,4609
0.312707,4610
0.3140391,4611
0.3495735,4612
0.23657864,4613
0.17600854,4614
0.19784234,4615
0.21259037,4616
0.31562293,4617
0.24167359,4618
0.26553836,4619
0.2927055,4620
0.28569025,4621
0.30904603,4622
0.35554957,4623
0.2185932,4624
0.3044977,4625
0.3007123,4626
0.28376955,4627
0.35301185,4628
0.21895121,4629
0.20072663,4630
0.23230258,4631
0.35173145,4632
0.42222476,4633
0.2639065,4634
0.32923415,4635
0.28692123,4636
0.30145356,4637
0.28798294,4638
0.33876362,4639
0.290376,4640
0.3215729,4641
0.33026117,4642
0.27671102,4643
0.38195175,4644
0.16075802,4645
0.2126769,4646
0.18414494,4647
0.23117499,4648
0.2814511,4649
0.3491777,4650
0.3457492,4651
0.47481135,4652
0.5869006,4653
0.5914761,4654
0.43645352,4655
0.28547603,4656
0.35240194,4657
0.40477562,4658
0.35982114,4659
0.4674032,4660
0.2193386,4661
0.27770817,4662
0.2787543,4663
0.2837504,4664
0.34918487,4665
0.3266873,4666
0.23839788,4667
0.24936564,4668
0.28098172,4669
0.28776154,4670
0.36469114,4671
0.19537418,4672
0.22871818,4673
0.2289639,4674
0.24750066,4675
0.35360473,4676
0.1395916,4677
0.167614,4678
0.15390751,4679
0.16708498,4680
0.2623307,4681
0.32393762,4682
0.2807751,4683
0.38581407,4684
0.34373325,4685
0.2781777,4686
0.35108215,4687
0.16363283,4688
0.18541886,4689
0.18731393,4690
0.19158384,4691
0.32680312,4692
0.14812185,4693
0.21088594,4694
0.1712717,4695
0.15623975,4696
0.1813067,4697
0.31400996,4698
0.18414032,4699
0.24201618,4700
0.2309931,4701
0.24790114,4702
0.31636113,4703
0.25227398,4704
0.27606702,4705
0.25873128,4706
0.26299605,4707
0.3322398,4708
0.29362428,4709
0.18997504,4710
0.17701392,4711
0.19239156,4712
0.17197035,4713
0.27502525,4714
0.20411102,4715
0.25607163,4716
0.24131556,4717
0.26046112,4718
0.35281774,4719
0.16110471,4720
0.1644083,4721
0.13689674,4722
0.13422577,4723
0.28761998,4724
0.25596577,4725
0.27031896,4726
0.31189066,4727
0.35593006,4728
0.30823505,4729
0.3701819,4730
0.1504172,4731
0.2192137,4732
0.22440387,4733
0.22698927,4734
0.35993317,4735
0.23313515,4736
0.24474731,4737
0.25803426,4738
0.27263567,4739
0.258785,4740
0.31928378,4741
0.16099493,4742
0.18242428,4743
0.14635478,4744
0.17277528,4745
0.3458143,4746
0.2460202,4747
0.26106614,4748
0.2517612,4749
0.27184835,4750
0.31300047,4751
0.2574048,4752
0.1988928,4753
0.25873256,4754
0.24630713,4755
0.25605232,4756
0.3072745,4757
0.15762931,4758
0.18502186,4759
0.19666985,4760
0.23924924,4761
0.30816463,4762
0.15727802,4763
0.11531249,4764
0.12727906,4765
0.12818506,4766
0.18426633,4767
0.34887248,4768
0.29575238,4769
0.40364772,4770
0.34343347,4771
0.30942982,4772
0.36964795,4773
0.17568712,4774
0.18827322,4775
0.1970068,4776
0.22431596,4777
0.35360718,4778
0.22811624,4779
0.2530532,4780
0.26792112,4781
0.27028376,4782
0.2564569,4783
0.30396527,4784
0.16711596,4785
0.16669737,4786
0.15980114,4787
0.19660953,4788
0.31322384,4789
0.23837122,4790
0.25958735,4791
0.2571066,4792
0.25832117,4793
0.29896414,4794
0.24542743,4795
0.21749562,4796
0.28907943,4797
0.28509852,4798
0.28360328,4799
0.33627674,4800
0.11995731,4801
0.17498167,4802
0.17694652,4803
0.2384306,4804
0.2948278,4805
0.12393784,4806
0.14596657,4807
0.1612048,4808
0.20348702,4809
0.21016282,4810
0.30458543,4811
0.29420155,4812
0.2693168,4813
0.29662785,4814
0.2947953,4815
0.32302362,4816
0.19598334,4817
0.23638755,4818
0.21195953,4819
0.19281374,4820
0.33117285,4821
0.1984588,4822
0.24176963,4823
0.20953062,4824
0.2737365,4825
0.34658462,4826
0.21130659,4827
0.18476135,4828
0.17052568,4829
0.15755115,4830
0.17152639,4831
0.33281466,4832
0.30754447,4833
0.2851622,4834
0.24354288,4835
0.2504438,4836
0.27937758,4837
0.15966971,4838
0.26214755,4839
0.28560328,4840
0.2794353,4841
0.3396178,4842
0.22124524,4843
0.21159004,4844
0.21227145,4845
0.2452982,4846
0.28139704,4847
0.34961542,4848
0.12002237,4849
0.15493014,4850
0.1283516,4851
0.15882881,4852
0.34146586,4853
0.25109398,4854
0.3555045,4855
0.35880214,4856
0.36623728,4857
0.3409051,4858
0.35973766,4859
0.19335698,4860
0.21168406,4861
0.22139268,4862
0.24176751,4863
0.29005134,4864
0.16077702,4865
0.16961162,4866
0.19015484,4867
0.18644913,4868
0.32075354,4869
0.15384567,4870
0.22117245,4871
0.254054,4872
0.24219126,4873
0.28104222,4874
0.25250965,4875
0.29497173,4876
0.28675687,4877
0.25436917,4878
0.28268364,4879
0.31573784,4880
0.15901276,4881
0.18386847,4882
0.14576551,4883
0.12143431,4884
0.30958614,4885
0.1890319,4886
0.2705947,4887
0.27643272,4888
0.26163298,4889
0.25554886,4890
0.35080037,4891
0.14016531,4892
0.17532113,4893
0.17827787,4894
0.18709882,4895
0.30927047,4896
0.224301,4897
0.35800493,4898
0.3402153,4899
0.3860922,4900
0.3021791,4901
0.37393123,4902
0.176216,4903
0.24515823,4904
0.19394813,4905
0.20907271,4906
0.35818413,4907
0.19404644,4908
0.23928615,4909
0.2425853,4910
0.2838066,4911
0.282474,4912
0.23977003,4913
0.16675879,4914
0.14988586,4915
0.13591596,4916
0.1985884,4917
0.37197888,4918
0.22623362,4919
0.30129924,4920
0.28814742,4921
0.2631969,4922
0.38936555,4923
0.2475481,4924
0.28827888,4925
0.27544886,4926
0.2627319,4927
0.39455494,4928
0.1563414,4929
0.20935734,4930
0.20063266,4931
0.23839849,4932
0.25267583,4933
0.318217,4934
0.12928109,4935
0.1578757,4936
0.16360909,4937
0.19966152,4938
0.33010027,4939
0.22953117,4940
0.3454693,4941
0.32312247,4942
0.3350762,4943
0.34578142,4944
0.2420475,4945
0.18775727,4946
0.1916052,4947
0.22810362,4948
0.23595762,4949
0.370547,4950
0.21740472,4951
0.26213875,4952
0.25378475,4953
0.25718367,4954
0.2905824,4955
0.18012428,4956
0.14403935,4957
0.1612173,4958
0.19246276,4959
0.26717636,4960
0.28723302,4961
0.22563829,4962
0.30171928,4963
0.2661959,4964
0.28954053,4965
0.39564106,4966
0.19856195,4967
0.2639434,4968
0.2668211,4969
0.258824,4970
0.34077936,4971
0.17062351,4972
0.18349007,4973
0.17197283,4974
0.22379008,4975
0.20933898,4976
0.2998596,4977
0.11976036,4978
0.14356807,4979
0.16188486,4980
0.21671975,4981
0.3626694,4982
0.20625758,4983
0.3568493,4984
0.312351,4985
0.30066314,4986
0.30052796,4987
0.36665314,4988
0.18103926,4989
0.22446577,4990
0.20554058,4991
0.24253222,4992
0.36535332,4993
0.1997488,4994
0.2679893,4995
0.28254277,4996
0.29654077,4997
0.27036074,4998
0.35560507,4999
0.14034075,5000
0.13894573,5001
0.14865397,5002
0.23294161,5003
0.39257133,5004
0.25913805,5005
0.3080217,5006
0.27886257,5007
0.2811089,5008
0.3948086,5009
0.22284643,5010
0.2918602,5011
0.2730604,5012
0.27292448,5013
0.25509605,5014
0.34698343,5015
0.13301988,5016
0.21060102,5017
0.20699956,5018
0.23502055,5019
0.3081152,5020
0.13610584,5021
0.15027979,5022
0.15595601,5023
0.18851744,5024
0.23636034,5025
0.38964662,5026
0.3356673,5027
0.32110614,5028
0.36502448,5029
0.27525133,5030
0.37461975,5031
0.18266357,5032
0.21368705,5033
0.22296894,5034
0.21949224,5035
0.2964898,5036
0.1792537,5037
0.17064571,5038
0.1902148,5039
0.1812412,5040
0.21949305,5041
0.33277467,5042
0.19166286,5043
0.25730202,5044
0.25695336,5045
0.2468565,5046
0.35425195,5047
0.23284173,5048
0.3159019,5049
0.26351768,5050
0.27065676,5051
0.292161,5052
0.29875964,5053
0.14876506,5054
0.18069398,5055
0.1819415,5056
0.20601782,5057
0.31538287,5058
0.19048324,5059
0.2788552,5060
0.28772423,5061
0.28412506,5062
0.2690133,5063
0.30522156,5064
0.15893668,5065
0.1568698,5066
0.14435346,5067
0.17947021,5068
0.34951672,5069
0.27291396,5070
0.35578448,5071
0.3481134,5072
0.35873723,5073
0.41426063,5074
0.16431843,5075
0.22666988,5076
0.23613094,5077
0.20969476,5078
0.32897002,5079
0.2587981,5080
0.19517654,5081
0.293853,5082
0.29924068,5083
0.28681496,5084
0.36007273,5085
0.19442277,5086
0.16205734,5087
0.13476986,5088
0.18300524,5089
0.29512572,5090
0.26894265,5091
0.2657668,5092
0.25712475,5093
0.27139407,5094
0.2636158,5095
0.34193793,5096
0.21828522,5097
0.28956044,5098
0.28502566,5099
0.27799928,5100
0.3288254,5101
0.19747318,5102
0.16794135,5103
0.22553258,5104
0.2473941,5105
0.36721215,5106
0.16328895,5107
0.16050161,5108
0.17001145,5109
0.18440552,5110
0.28275055,5111
0.3677736,5112
0.29983523,5113
0.37738407,5114
0.35669714,5115
0.33568266,5116
0.36162782,5117
0.1765624,5118
0.1872171,5119
0.20885956,5120
0.243548,5121
0.34650847,5122
0.20790155,5123
0.25037694,5124
0.25293514,5125
0.23709734,5126
0.2829051,5127
0.33574766,5128
0.11278904,5129
0.14954531,5130
0.16021834,5131
0.20808177,5132
0.367604,5133
0.21681115,5134
0.27308935,5135
0.28909335,5136
0.30176118,5137
0.2983536,5138
0.3152862,5139
0.23687738,5140
0.2681569,5141
0.290995,5142
0.25386968,5143
0.3188373,5144
0.19775218,5145
0.19863504,5146
0.23984835,5147
0.24067526,5148
0.28082478,5149
0.17890422,5150
0.13542145,5151
0.14568657,5152
0.18576421,5153
0.24939832,5154
0.26561576,5155
0.26084718,5156
0.3375248,5157
0.30932918,5158
0.32083902,5159
0.386713,5160
0.17511225,5161
0.21408331,5162
0.18677066,5163
0.1778583,5164
0.3082815,5165
0.17688322,5166
0.26140976,5167
0.2786255,5168
0.2648697,5169
0.24749783,5170
0.34981355,5171
0.15146635,5172
0.14194778,5173
0.14537625,5174
0.19300717,5175
0.3403073,5176
0.17084529,5177
0.24350059,5178
0.23822175,5179
0.23201092,5180
0.2574758,5181
0.3204189,5182
0.21633677,5183
0.26164106,5184
0.26094738,5185
0.23766126,5186
0.34742576,5187
0.15327235,5188
0.20951407,5189
0.24196473,5190
0.2598667,5191
0.29779056,5192
0.19529006,5193
0.1308288,5194
0.1320123,5195
0.1800495,5196
0.28854927,5197
0.31279528,5198
0.3296168,5199
0.36006296,5200
0.29852203,5201
0.31755778,5202
0.37793297,5203
0.18390302,5204
0.19478355,5205
0.227748,5206
0.25231668,5207
0.34620768,5208
0.18412776,5209
0.17446862,5210
0.1687033,5211
0.19418652,5212
0.2090248,5213
0.34919867,5214
0.17833401,5215
0.25608227,5216
0.2661153,5217
0.24880916,5218
0.33501506,5219
0.29140863,5220
0.29949582,5221
0.27614927,5222
0.28909189,5223
0.38618693,5224
0.19342187,5225
0.1664706,5226
0.15032981,5227
0.19047475,5228
0.20930897,5229
0.29714057,5230
0.17630671,5231
0.25684705,5232
0.2933196,5233
0.27249599,5234
0.33256578,5235
0.13776015,5236
0.19142659,5237
0.16626255,5238
0.1988957,5239
0.3330392,5240
0.22355606,5241
0.3698003,5242
0.32696736,5243
0.36235455,5244
0.3526559,5245
0.39242086,5246
0.25174293,5247
0.3018591,5248
0.28192076,5249
0.297749,5250
0.36857662,5251
0.19340019,5252
0.28527874,5253
0.30483612,5254
0.31376567,5255
0.2880652,5256
0.36810428,5257
0.18553153,5258
0.1835654,5259
0.1604396,5260
0.18935278,5261
0.35188863,5262
0.2046692,5263
0.2845312,5264
0.24124923,5265
0.2470586,5266
0.28347766,5267
0.3190154,5268
0.2515067,5269
0.28582555,5270
0.27680397,5271
0.312284,5272
0.2343359,5273
0.15965556,5274
0.17335643,5275
0.1915311,5276
0.23477091,5277
0.34914562,5278
0.21220584,5279
0.16849798,5280
0.152634,5281
0.18226893,5282
0.3312991,5283
0.23060736,5284
0.34507397,5285
0.39458176,5286
0.3640331,5287
0.31351903,5288
0.35797924,5289
0.1532408,5290
0.21598044,5291
0.18424363,5292
0.17884412,5293
0.36794618,5294
0.21694143,5295
0.28059927,5296
0.27378434,5297
0.2612642,5298
0.31918496,5299
0.21239111,5300
0.1751448,5301
0.15883851,5302
0.15636884,5303
0.288774,5304
0.2900005,5305
0.27680513,5306
0.27689704,5307
0.293735,5308
0.28664476,5309
0.3801174,5310
0.23047082,5311
0.29688522,5312
0.30721247,5313
0.30460846,5314
0.38358855,5315
0.21925709,5316
0.2301986,5317
0.19052818,5318
0.18278931,5319
0.25186947,5320
0.33807278,5321
0.14269914,5322
0.14021274,5323
0.1484004,5324
0.16987976,5325
0.36541516,5326
0.33157974,5327
0.40499806,5328
0.37071168,5329
0.3457472,5330
0.44974944,5331
0.24669057,5332
0.24820876,5333
0.25018162,5334
0.3088787,5335
0.32371336,5336
0.3479213,5337
0.3324373,5338
0.5066365,5339
0.61062825,5340
0.5645815,5341
0.60448796,5342
0.3961534,5343
0.371329,5344
0.48331523,5345
0.4271951,5346
0.43286142,5347
0.4618243,5348
0.25487795,5349
0.39928868,5350
0.43085235,5351
0.39939865,5352
0.40600252,5353
0.2783709,5354
0.24959031,5355
0.2763104,5356
0.23001996,5357
0.23993284,5358
0.3696734,5359
0.16665426,5360
0.232024,5361
0.1979497,5362
0.2063453,5363
0.35267547,5364
0.20271522,5365
0.20688483,5366
0.28594398,5367
0.5008382,5368
0.64819485,5369
0.31994125,5370
0.29615837,5371
0.23289151,5372
0.28448924,5373
0.29094872,5374
0.3752078,5375
0.26244774,5376
0.405619,5377
0.41394964,5378
0.47283944,5379
0.483907,5380
0.21822245,5381
0.38283268,5382
0.37212363,5383
0.3994468,5384
0.43854618,5385
0.33719927,5386
0.26471654,5387
0.31529582,5388
0.28368595,5389
0.28632766,5390
0.40926558,5391
0.26773438,5392
0.3419796,5393
0.29769388,5394
0.32125658,5395
0.3913084,5396
0.16769244,5397
0.19628729,5398
0.19645442,5399
0.21536896,5400
0.26180673,5401
0.30792025,5402
0.19388367,5403
0.2554254,5404
0.21796608,5405
0.25010586,5406
0.3434065,5407
0.18225177,5408
0.19174816,5409
0.15464218,5410
0.21820171,5411
0.28756547,5412
0.29578072,5413
0.27796176,5414
0.25081983,5415
0.26710296,5416
0.3081976,5417
0.37709373,5418
0.41289097,5419
0.5219423,5420
0.51326996,5421
0.51716995,5422
0.55144554,5423
0.34320715,5424
0.3869433,5425
0.4136349,5426
0.43935838,5427
0.4361895,5428
0.41349626,5429
0.2675446,5430
0.27291772,5431
0.2942614,5432
0.418494,5433
0.4232752,5434
0.26237628,5435
0.35171822,5436
0.351767,5437
0.39497247,5438
0.4044162,5439
0.33351824,5440
0.226592,5441
0.27399477,5442
0.27091366,5443
0.3344565,5444
0.45295826,5445
0.18016751,5446
0.28060347,5447
0.25217208,5448
0.30544376,5449
0.27117828,5450
0.28987193,5451
0.14581363,5452
0.16856034,5453
0.2617253,5454
0.2924126,5455
0.3558143,5456
0.28823727,5457
0.36492938,5458
0.34893578,5459
0.32429495,5460
0.4028679,5461
0.22889759,5462
0.22164552,5463
0.222726,5464
0.25955266,5465
0.41091335,5466
0.41667002,5467
0.4264372,5468
0.47902852,5469
0.48433843,5470
0.43880647,5471
0.43824488,5472
0.24390908,5473
0.35239273,5474
0.29689386,5475
0.31760475,5476
0.43630168,5477
0.2635536,5478
0.36775512,5479
0.32592228,5480
0.2945874,5481
0.3503587,5482
0.35360038,5483
0.3276592,5484
0.45217305,5485
0.45316735,5486
0.42012754,5487
0.43452686,5488
0.24262087,5489
0.36029458,5490
0.35572237,5491
0.35920095,5492
0.4368089,5493
0.22912984,5494
0.30745706,5495
0.30874133,5496
0.31245843,5497
0.4047193,5498
0.42688954,5499
0.44302857,5500
0.45393935,5501
0.42822868,5502
0.43950152,5503
0.47920346,5504
0.29515147,5505
0.35411963,5506
0.33141088,5507
0.31594136,5508
0.43284738,5509
0.35321334,5510
0.3925417,5511
0.4479574,5512
0.4282999,5513
0.4278203,5514
0.41402268,5515
0.26556873,5516
0.3626926,5517
0.32859325,5518
0.31022942,5519
0.42636248,5520
0.31950623,5521
0.40727517,5522
0.3404337,5523
0.3150888,5524
0.37587732,5525
0.1821566,5526
0.28100687,5527
0.218299,5528
0.19210607,5529
0.2605884,5530
0.34697437,5531
0.20710146,5532
0.18416739,5533
0.18983397,5534
0.21854272,5535
0.32526574,5536
0.20666097,5537
0.21953607,5538
0.20500912,5539
0.21851608,5540
0.39418387,5541
0.27425832,5542
0.31952637,5543
0.2809316,5544
0.34194195,5545
0.589849,5546
0.38367516,5547
0.39083883,5548
0.46145925,5549
0.53080815,5550
0.549386,5551
0.5329773,5552
0.27449405,5553
0.39590168,5554
0.38726875,5555
0.3812709,5556
0.37501657,5557
0.30871043,5558
0.26208952,5559
0.35256562,5560
0.33485228,5561
0.39954245,5562
0.42705554,5563
0.4032952,5564
0.5615909,5565
0.6164142,5566
0.6707785,5567
0.66193134,5568
0.43789303,5569
0.44289702,5570
0.44190064,5571
0.41144428,5572
0.3405536,5573
0.3617339,5574
0.17746164,5575
0.17779836,5576
0.16867611,5577
0.3029994,5578
0.35756847,5579
0.13308336,5580
0.15562345,5581
0.16551763,5582
0.23837219,5583
0.32383195,5584
0.24778478,5585
0.30764705,5586
0.3102579,5587
0.30326736,5588
0.3895561,5589
0.39978853,5590
0.29698923,5591
0.47770163,5592
0.45198402,5593
0.5246079,5594
0.49513116,5595
0.26450965,5596
0.3851268,5597
0.3748581,5598
0.40787613,5599
0.39313883,5600
0.327017,5601
0.22398725,5602
0.2773402,5603
0.33767268,5604
0.37762722,5605
0.37913808,5606
0.31910676,5607
0.42567015,5608
0.64032084,5609
0.6890366,5610
0.6720311,5611
0.5463819,5612
0.58516204,5613
0.51426524,5614
0.47180125,5615
0.3155225,5616
0.33267468,5617
0.20320374,5618
0.26200628,5619
0.26976305,5620
0.32476103,5621
0.32836717,5622
0.1860822,5623
0.22781487,5624
0.1760584,5625
0.2780632,5626
0.36257324,5627
0.22787133,5628
0.323071,5629
0.31049538,5630
0.2598474,5631
0.36061755,5632
0.26254472,5633
0.21834193,5634
0.20951876,5635
0.20656444,5636
0.2690476,5637
0.41391236,5638
0.32392976,5639
0.5219898,5640
0.5048087,5641
0.48359156,5642
0.5048996,5643
0.2840679,5644
0.3688843,5645
0.3242611,5646
0.3051604,5647
0.4346108,5648
0.2863001,5649
0.38164982,5650
0.30523577,5651
0.30745232,5652
0.31599352,5653
0.41378134,5654
0.21900536,5655
0.36848927,5656
0.4541462,5657
0.41426465,5658
0.46975115,5659
0.2826007,5660
0.380537,5661
0.38128477,5662
0.38461867,5663
0.43388593,5664
0.23589906,5665
0.2504555,5666
0.20493814,5667
0.543423,5668
0.71420586,5669
0.43654108,5670
0.29262084,5671
0.34071955,5672
0.4231753,5673
0.44828153,5674
0.50792605,5675
0.2468679,5676
0.36562043,5677
0.34076723,5678
0.3369938,5679
0.31667894,5680
0.3729623,5681
0.2840108,5682
0.40462118,5683
0.39267856,5684
0.43678206,5685
0.55503565,5686
0.39035258,5687
0.55243516,5688
0.6439306,5689
0.6315271,5690
0.62038165,5691
0.2295905,5692
0.3473957,5693
0.40087718,5694
0.36437687,5695
0.37834847,5696
0.41102174,5697
0.26535684,5698
0.24987651,5699
0.26183194,5700
0.26276204,5701
0.3600783,5702
0.24868691,5703
0.2597666,5704
0.32756734,5705
0.3082112,5706
0.26706427,5707
0.33989716,5708
0.16932204,5709
0.18791568,5710
0.1616029,5711
0.30947062,5712
0.41408008,5713
0.3042977,5714
0.38022086,5715
0.5659998,5716
0.53347087,5717
0.5938353,5718
0.20780975,5719
0.41286427,5720
0.5304267,5721
0.5170319,5722
0.5340369,5723
0.5102027,5724
0.24828373,5725
0.42349288,5726
0.3896918,5727
0.39000022,5728
0.4677457,5729
0.27307665,5730
0.2894326,5731
0.26868436,5732
0.25827834,5733
0.29245543,5734
0.41033354,5735
0.2032301,5736
0.33019546,5737
0.26231754,5738
0.31782806,5739
0.38878354,5740
0.20743948,5741
0.22144412,5742
0.21947601,5743
0.24832623,5744
0.3326559,5745
0.21888095,5746
0.22580795,5747
0.23455867,5748
0.24368878,5749
0.26370478,5750
0.37937656,5751
0.11565351,5752
0.18377624,5753
0.15554464,5754
0.22205,5755
0.34770826,5756
0.27650923,5757
0.3220635,5758
0.304724,5759
0.33528236,5760
0.38060734,5761
0.25085434,5762
0.35915816,5763
0.46429935,5764
0.4513556,5765
0.41254053,5766
0.44997627,5767
0.21334237,5768
0.41345876,5769
0.33883178,5770
0.31721687,5771
0.40684828,5772
0.22905439,5773
0.28824085,5774
0.27347136,5775
0.32995853,5776
0.35318306,5777
0.26326156,5778
0.33981124,5779
0.39948964,5780
0.50884277,5781
0.5885105,5782
0.7198011,5783
0.5353666,5784
0.58625495,5785
0.5232121,5786
0.48676708,5787
0.38481268,5788
0.20060396,5789
0.2813345,5790
0.27893978,5791
0.26217398,5792
0.2516401,5793
0.33073863,5794
0.19350342,5795
0.29650122,5796
0.56166387,5797
0.58053625,5798
0.46230644,5799
0.25710222,5800
0.36234838,5801
0.35805783,5802
0.29172918,5803
0.35722786,5804
0.35287425,5805
0.27150357,5806
0.2721917,5807
0.2581092,5808
0.26658696,5809
0.34464952,5810
0.29590663,5811
0.41666713,5812
0.47521797,5813
0.49328512,5814
0.55987537,5815
0.28506845,5816
0.3482914,5817
0.2803421,5818
0.29271868,5819
0.366927,5820
0.29807836,5821
0.3341623,5822
0.35716203,5823
0.35176253,5824
0.3179299,5825
0.40984428,5826
0.22008379,5827
0.35235792,5828
0.37694326,5829
0.3822018,5830
0.43617687,5831
0.2795698,5832
0.3620626,5833
0.3432088,5834
0.3218728,5835
0.30640122,5836
0.34954184,5837
0.20403185,5838
0.26661387,5839
0.24743316,5840
0.26404712,5841
0.36271086,5842
0.3078454,5843
0.44282806,5844
0.43285954,5845
0.43048573,5846
0.4811539,5847
0.25845796,5848
0.31320783,5849
0.33270848,5850
0.31596738,5851
0.31169203,5852
0.434728,5853
0.28489456,5854
0.369166,5855
0.3773495,5856
0.40927276,5857
0.47876742,5858
0.24951103,5859
0.29482558,5860
0.33468202,5861
0.32508433,5862
0.33628824,5863
0.40250206,5864
0.3223149,5865
0.45495147,5866
0.38876253,5867
0.35688365,5868
0.39676726,5869
0.23559354,5870
0.2674179,5871
0.20960052,5872
0.20752767,5873
0.30759138,5874
0.26615188,5875
0.20626484,5876
0.24578571,5877
0.22600709,5878
0.24668784,5879
0.3694008,5880
0.26050782,5881
0.4653738,5882
0.324881,5883
0.2490507,5884
0.37167236,5885
0.32494822,5886
0.34959126,5887
0.2928885,5888
0.3699483,5889
0.69007343,5890
0.435738,5891
0.28184128,5892
0.45063984,5893
0.5382266,5894
0.5119939,5895
0.45027873,5896
0.34967607,5897
0.40995237,5898
0.38240898,5899
0.3665271,5900
0.4017964,5901
0.26141596,5902
0.3647188,5903
0.33239797,5904
0.37588933,5905
0.3339988,5906
0.3732904,5907
0.33456647,5908
0.3639351,5909
0.33763123,5910
0.33308202,5911
0.39074865,5912
0.18048008,5913
0.23486516,5914
0.18534802,5915
0.21202995,5916
0.339682,5917
0.18026903,5918
0.19948873,5919
0.20189047,5920
0.21511993,5921
0.267727,5922
0.3136509,5923
0.17497668,5924
0.1456919,5925
0.15426646,5926
0.20148371,5927
0.37322947,5928
0.25391498,5929
0.3294207,5930
0.2546936,5931
0.31734395,5932
0.4068723,5933
0.24669582,5934
0.39164555,5935
0.4726603,5936
0.4580642,5937
0.49852327,5938
0.25971606,5939
0.38380447,5940
0.3793801,5941
0.35268524,5942
0.36496446,5943
0.37013516,5944
0.1987334,5945
0.4239114,5946
0.62289435,5947
0.3127192,5948
0.38044482,5949
0.2532432,5950
0.42309275,5951
0.3838419,5952
0.33749253,5953
0.369563,5954
0.2997362,5955
0.27810034,5956
0.24023642,5957
0.21960999,5958
0.17933862,5959
0.283348,5960
0.21151637,5961
0.2625619,5962
0.18046235,5963
0.24347958,5964
0.3198742,5965
0.18978193,5966
0.2858232,5967
0.22901063,5968
0.24395406,5969
0.37231126,5970
0.33556026,5971
0.33376664,5972
0.37110284,5973
0.3909984,5974
0.44249415,5975
0.4055384,5976
0.20890996,5977
0.25388756,5978
0.21790065,5979
0.21472894,5980
0.35249928,5981
0.2912752,5982
0.4858967,5983
0.5067382,5984
0.5425266,5985
0.5625467,5986
0.47194016,5987
0.38717496,5988
0.4179352,5989
0.40116063,5990
0.3755161,5991
0.38406125,5992
0.3056016,5993
0.350274,5994
0.3243451,5995
0.30185878,5996
0.4674726,5997
0.24781184,5998
0.39100188,5999
0.38303325,6000
0.4239509,6001
0.47259545,6002
0.27257195,6003
0.39381123,6004
0.34595704,6005
0.346004,6006
0.32708216,6007
0.53467876,6008
0.42377314,6009
0.4725184,6010
0.2613773,6011
0.28286028,6012
0.35360363,6013
0.37274915,6014
0.45208895,6015
0.46802714,6016
0.4892428,6017
0.5136038,6018
0.28138977,6019
0.38834447,6020
0.38554758,6021
0.5674791,6022
0.5291917,6023
0.35115454,6024
0.42555892,6025
0.5162181,6026
0.4886392,6027
0.47462976,6028
0.47373092,6029
0.31882712,6030
0.39265984,6031
0.3870922,6032
0.44045603,6033
0.48018664,6034
0.34569424,6035
0.43705672,6036
0.40346268,6037
0.3894226,6038
0.37944975,6039
0.41456372,6040
0.23811196,6041
0.33298022,6042
0.2799661,6043
0.31844524,6044
0.41548613,6045
0.26106843,6046
0.31800342,6047
0.34454274,6048
0.37813786,6049
0.3787247,6050
0.3756518,6051
0.2621562,6052
0.29143068,6053
0.30734164,6054
0.3544045,6055
0.386156,6056
0.29737327,6057
0.4937717,6058
0.4991276,6059
0.5460686,6060
0.46549207,6061
0.2815588,6062
0.31817472,6063
0.34253234,6064
0.3521448,6065
0.38439384,6066
0.35060418,6067
0.25052783,6068
0.28669682,6069
0.30503783,6070
0.3924219,6071
0.44815326,6072
0.21117543,6073
0.31215954,6074
0.32170543,6075
0.33064306,6076
0.44792998,6077
0.331368,6078
0.3468564,6079
0.39332673,6080
0.28847176,6081
0.38688487,6082
0.46009666,6083
0.26697993,6084
0.292178,6085
0.327828,6086
0.33796704,6087
0.4264353,6088
0.29883114,6089
0.28033742,6090
0.35473713,6091
0.32099125,6092
0.32775205,6093
0.42439768,6094
0.21214625,6095
0.3053715,6096
0.2886977,6097
0.30763915,6098
0.44708842,6099
0.31750792,6100
0.46916837,6101
0.46119738,6102
0.45078513,6103
0.36425173,6104
0.40142542,6105
0.20672618,6106
0.31086302,6107
0.2669591,6108
0.26931214,6109
0.41736257,6110
0.21412179,6111
0.2937932,6112
0.2882028,6113
0.324876,6114
0.36985114,6115
0.45952967,6116
0.2257385,6117
0.33167973,6118
0.30922753,6119
0.33696735,6120
0.44181237,6121
0.26521167,6122
0.39110827,6123
0.35503668,6124
0.38262936,6125
0.4120995,6126
0.33524433,6127
0.25559267,6128
0.3163046,6129
0.3278292,6130
0.41839615,6131
0.4423848,6132
0.23215403,6133
0.38314447,6134
0.38196433,6135
0.36518002,6136
0.46370995,6137
0.31090185,6138
0.31916824,6139
0.3048623,6140
0.3179211,6141
0.33300227,6142
0.32513714,6143
0.3720153,6144
0.40770102,6145
0.36905804,6146
0.39123884,6147
0.45484793,6148
0.28145438,6149
0.3354007,6150
0.32876915,6151
0.35373512,6152
0.4244621,6153
0.33976832,6154
0.39220878,6155
0.47661287,6156
0.54180413,6157
0.5607913,6158
0.6310049,6159
0.43688866,6160
0.5876914,6161
0.4898578,6162
0.5144493,6163
0.4740059,6164
0.41225484,6165
0.437504,6166
0.4267832,6167
0.40462208,6168
0.4679844,6169
0.38047686,6170
0.31212172,6171
0.42981124,6172
0.46532238,6173
0.58915055,6174
0.43273428,6175
0.4648141,6176
0.49857333,6177
0.5291567,6178
0.469217,6179
0.51026994,6180
0.3206455,6181
0.47008973,6182
0.4549303,6183
0.47003722,6184
0.4930706,6185
0.36705408,6186
0.5041452,6187
0.6234076,6188
0.5739349,6189
0.6408235,6190
0.546207,6191
0.4911918,6192
0.53885084,6193
0.58548576,6194
0.5960335,6195
0.5188725,6196
0.35858366,6197
0.5029395,6198
0.51779604,6199
0.496241,6200
0.5023803,6201
0.3333436,6202
0.3620021,6203
0.4391982,6204
0.41528147,6205
0.47871166,6206
0.43543887,6207
0.38850403,6208
0.37312302,6209
0.3122468,6210
0.34781265,6211
0.46091264,6212
0.26830152,6213
0.24859884,6214
0.24984953,6215
0.27508005,6216
0.40860668,6217
0.31616643,6218
0.26944476,6219
0.2565838,6220
0.30904245,6221
0.3560209,6222
0.41642305,6223
0.2174483,6224
0.2910039,6225
0.27271527,6226
0.2708568,6227
0.3778569,6228
0.2626152,6229
0.33691,6230
0.2911285,6231
0.30633962,6232
0.35380355,6233
0.31286505,6234
0.21304627,6235
0.25063616,6236
0.3038198,6237
0.24730495,6238
0.37418106,6239
0.21825267,6240
0.22823773,6241
0.25461563,6242
0.24366531,6243
0.31150797,6244
0.22196916,6245
0.21138173,6246
0.22605675,6247
0.21428998,6248
0.2543003,6249
0.40694937,6250
0.2867992,6251
0.37096173,6252
0.29210183,6253
0.32352862,6254
0.39743292,6255
0.25439405,6256
0.2602806,6257
0.22691883,6258
0.28035808,6259
0.3744136,6260
0.27291,6261
0.19723365,6262
0.28518376,6263
0.26845115,6264
0.28702724,6265
0.356802,6266
0.17268473,6267
0.217144,6268
0.21857741,6269
0.21743868,6270
0.39934662,6271
0.32155335,6272
0.3753122,6273
0.33834916,6274
0.29986593,6275
0.29405656,6276
0.35930887,6277
0.2698346,6278
0.2547799,6279
0.27324677,6280
0.22460984,6281
0.34967372,6282
0.25886524,6283
0.2567467,6284
0.2935977,6285
0.27270177,6286
0.30946547,6287
0.2978354,6288
0.22215874,6289
0.22251533,6290
0.19342265,6291
0.30205125,6292
0.2729671,6293
0.35351083,6294
0.30939788,6295
0.31463975,6296
0.2752138,6297
0.41133255,6298
0.26041952,6299
0.25202498,6300
0.29226622,6301
0.23109491,6302
0.3788857,6303
0.25063658,6304
0.24027738,6305
0.21624814,6306
0.28677326,6307
0.28286418,6308
0.37835076,6309
0.17176254,6310
0.23620425,6311
0.2804539,6312
0.3026129,6313
0.50623137,6314
0.26123616,6315
0.41164684,6316
0.42321026,6317
0.40512323,6318
0.50340855,6319
0.26665008,6320
0.31207192,6321
0.32965034,6322
0.34306,6323
0.40202948,6324
0.49581426,6325
0.3147582,6326
0.5597128,6327
0.5538923,6328
0.61477757,6329
0.7032661,6330
0.37660262,6331
0.5413843,6332
0.46306413,6333
0.47593954,6334
0.44263735,6335
0.42605063,6336
0.33615953,6337
0.4457072,6338
0.3618449,6339
0.45841372,6340
0.41888666,6341
0.29632697,6342
0.3585346,6343
0.39925966,6344
0.46078056,6345
0.42816254,6346
0.47040245,6347
0.56406415,6348
0.54915094,6349
0.52703875,6350
0.50276667,6351
0.33821437,6352
0.40526572,6353
0.4190805,6354
0.4686357,6355
0.45015654,6356
0.41962633,6357
0.43626174,6358
0.55517393,6359
0.6250481,6360
0.64697886,6361
0.59875023,6362
0.4252211,6363
0.63326055,6364
0.5944804,6365
0.5753937,6366
0.6130827,6367
0.4831322,6368
0.42490608,6369
0.5626897,6370
0.55025023,6371
0.5242135,6372
0.53819245,6373
0.33880585,6374
0.4212954,6375
0.4525325,6376
0.46348578,6377
0.46399269,6378
0.35104212,6379
0.35452268,6380
0.45212972,6381
0.36479133,6382
0.3558216,6383
0.43210274,6384
0.2670336,6385
0.3566636,6386
0.31757832,6387
0.3707615,6388
0.4436256,6389
0.23905823,6390
0.30939683,6391
0.33199817,6392
0.3197987,6393
0.38214278,6394
0.41461647,6395
0.24202217,6396
0.30173028,6397
0.28544757,6398
0.34909338,6399
0.44220725,6400
0.27867612,6401
0.37791458,6402
0.41051808,6403
0.36029583,6404
0.4088087,6405
0.43035263,6406
0.25281638,6407
0.3750486,6408
0.35991034,6409
0.37769598,6410
0.43889812,6411
0.2793571,6412
0.35765246,6413
0.32956386,6414
0.33860177,6415
0.36498937,6416
0.37983358,6417
0.3010346,6418
0.33081296,6419
0.30351964,6420
0.3682128,6421
0.3920305,6422
0.31385142,6423
0.35319492,6424
0.36422962,6425
0.38088462,6426
0.4603005,6427
0.3190589,6428
0.27915883,6429
0.3222905,6430
0.30624536,6431
0.46149352,6432
0.28644776,6433
0.2537916,6434
0.29835203,6435
0.32122225,6436
0.33580035,6437
0.45310998,6438
0.26252404,6439
0.30225056,6440
0.25873238,6441
0.28835598,6442
0.4544527,6443
0.31101546,6444
0.41149914,6445
0.32671598,6446
0.39253128,6447
0.3945747,6448
0.45799822,6449
0.29576966,6450
0.3065386,6451
0.30703127,6452
0.3143458,6453
0.43387145,6454
0.2686711,6455
0.33732036,6456
0.30219498,6457
0.3485422,6458
0.334078,6459
0.38703325,6460
0.2419635,6461
0.3077832,6462
0.3005389,6463
0.32227862,6464
0.3799827,6465
0.28110412,6466
0.33625835,6467
0.29316953,6468
0.34689388,6469
0.40045047,6470
0.30163342,6471
0.26542935,6472
0.2913556,6473
0.31085387,6474
0.39298633,6475
0.31372827,6476
0.34031135,6477
0.29464406,6478
0.3124861,6479
0.30939668,6480
0.43885943,6481
0.28560612,6482
0.33271474,6483
0.34989682,6484
0.3383242,6485
0.42884666,6486
0.2939558,6487
0.4255092,6488
0.4099639,6489
0.44042915,6490
0.4732054,6491
0.4588015,6492
0.29167002,6493
0.34979296,6494
0.4221465,6495
0.35445684,6496
0.4704591,6497
0.33715275,6498
0.5546628,6499
0.59528005,6500
0.6238386,6501
0.6539083,6502
0.39427632,6503
0.37787187,6504
0.44835085,6505
0.43616807,6506
0.49156916,6507
0.46922982,6508
0.37822622,6509
0.41917548,6510
0.37561053,6511
0.4471893,6512
0.50728315,6513
0.36098677,6514
0.49835256,6515
0.52705234,6516
0.6081993,6517
0.59839714,6518
0.4473161,6519
0.5995758,6520
0.6557848,6521
0.597132,6522
0.54153025,6523
0.3799835,6524
0.50497144,6525
0.45620587,6526
0.58100927,6527
0.55521333,6528
0.44250628,6529
0.62162167,6530
0.63919055,6531
0.5274149,6532
0.6359175,6533
0.54436934,6534
0.5279756,6535
0.6910242,6536
0.6095496,6537
0.60880655,6538
0.46346694,6539
0.45108122,6540
0.56608236,6541
0.5615299,6542
0.5361458,6543
0.5199654,6544
0.4696258,6545
0.38243905,6546
0.46940288,6547
0.45847374,6548
0.43589732,6549
0.5054205,6550
0.26802802,6551
0.45463058,6552
0.38948962,6553
0.3540698,6554
0.41414458,6555
0.23948018,6556
0.32455626,6557
0.31597635,6558
0.34609547,6559
0.30886164,6560
0.33313274,6561
0.21392372,6562
0.3225986,6563
0.31265658,6564
0.3023249,6565
0.3711714,6566
0.31549773,6567
0.36292642,6568
0.28607112,6569
0.29535222,6570
0.38531858,6571
0.27654594,6572
0.30121973,6573
0.29088154,6574
0.27909157,6575
0.33722055,6576
0.43007207,6577
0.22715464,6578
0.28604475,6579
0.34311372,6580
0.32129684,6581
0.426891,6582
0.2694884,6583
0.33819416,6584
0.30783898,6585
0.31990093,6586
0.41481277,6587
0.3983667,6588
0.34518713,6589
0.29205525,6590
0.354805,6591
0.38227108,6592
0.38844684,6593
0.27793792,6594
0.33183774,6595
0.31265163,6596
0.32583985,6597
0.43989047,6598
0.27026865,6599
0.30483067,6600
0.3173614,6601
0.3092793,6602
0.3751797,6603
0.31662935,6604
0.2990258,6605
0.287426,6606
0.2859088,6607
0.29115567,6608
0.4871701,6609
0.27770716,6610
0.34136388,6611
0.28926843,6612
0.3203703,6613
0.4660583,6614
0.323001,6615
0.40982276,6616
0.35327715,6617
0.34945485,6618
0.4257293,6619
0.3090246,6620
0.28734306,6621
0.35631615,6622
0.31756985,6623
0.3220179,6624
0.327682,6625
0.32440257,6626
0.38387734,6627
0.33497193,6628
0.31840253,6629
0.3354947,6630
0.26331642,6631
0.38067672,6632
0.34620896,6633
0.3511475,6634
0.4039212,6635
0.42198804,6636
0.38961917,6637
0.34638008,6638
0.29643133,6639
0.2860695,6640
0.43909255,6641
0.33773538,6642
0.30622748,6643
0.32635105,6644
0.3968482,6645
0.42371222,6646
0.21481478,6647
0.23632897,6648
0.34999338,6649
0.36185324,6650
0.37746063,6651
0.44104737,6652
0.27308345,6653
0.29231426,6654
0.24886407,6655
0.28888616,6656
0.46017268,6657
0.41364756,6658
0.4281634,6659
0.41750422,6660
0.41715327,6661
0.3739943,6662
0.3777707,6663
0.2707934,6664
0.35812643,6665
0.3568509,6666
0.39009213,6667
0.4547446,6668
0.3331024,6669
0.5797228,6670
0.60768104,6671
0.58131903,6672
0.6587577,6673
0.44125646,6674
0.43395367,6675
0.49166366,6676
0.43607694,6677
0.45385715,6678
0.46415323,6679
0.33351627,6680
0.44344306,6681
0.42838308,6682
0.4092981,6683
0.4288023,6684
0.31399196,6685
0.44099504,6686
0.43636945,6687
0.47431856,6688
0.5679442,6689
0.36002102,6690
0.5567556,6691
0.53336793,6692
0.5954969,6693
0.6302203,6694
0.28529802,6695
0.43146,6696
0.41720417,6697
0.4241407,6698
0.44175825,6699
0.398956,6700
0.40725282,6701
0.5274368,6702
0.55479795,6703
0.48893455,6704
0.556291,6705
0.37593755,6706
0.5488007,6707
0.51831424,6708
0.49944413,6709
0.5795051,6710
0.612482,6711
0.41353986,6712
0.64812803,6713
0.8264254,6714
0.7359338,6715
0.6954642,6716
0.62415034,6717
0.620922,6718
0.6373877,6719
0.7202396,6720
0.6360142,6721
0.59115994,6722
0.47059456,6723
0.45093307,6724
0.5071728,6725
0.52468395,6726
0.5651067,6727
0.5362322,6728
0.32737836,6729
0.40473893,6730
0.36698443,6731
0.44980833,6732
0.5113724,6733
0.4377056,6734
0.36352938,6735
0.3883621,6736
0.39478984,6737
0.3944523,6738
0.46683526,6739
0.29117158,6740
0.24932195,6741
0.3115734,6742
0.3630801,6743
0.460408,6744
0.3063637,6745
0.33263513,6746
0.36127314,6747
0.41251326,6748
0.37709814,6749
0.4171267,6750
0.3906826,6751
0.5537676,6752
0.50462425,6753
0.6269038,6754
0.53353596,6755
0.56903106,6756
0.5201384,6757
0.59753597,6758
0.61753184,6759
0.6046429,6760
0.5220545,6761
0.5118665,6762
0.6690596,6763
0.7108607,6764
0.6275067,6765
0.47070894,6766
0.61643165,6767
0.52964693,6768
0.5139611,6769
0.5706094,6770
0.52923495,6771
0.37905622,6772
0.3959112,6773
0.38537526,6774
0.42160517,6775
0.44943574,6776
0.29759514,6777
0.45638928,6778
0.47068936,6779
0.41882673,6780
0.3852764,6781
0.3943551,6782
0.28024215,6783
0.3170141,6784
0.2675709,6785
0.28782013,6786
0.3266031,6787
0.23068884,6788
0.31783524,6789
0.2932491,6790
0.2739824,6791
0.37619576,6792
0.26919073,6793
0.4835327,6794
0.6341238,6795
0.6219699,6796
0.6179105,6797
0.4827807,6798
0.58344907,6799
0.5625346,6800
0.57678246,6801
0.5478424,6802
0.56843215,6803
0.37588236,6804
0.63391966,6805
0.64437425,6806
0.6834708,6807
0.41002566,6808
0.5411498,6809
0.5067677,6810
0.5036625,6811
0.50500375,6812
0.5857954,6813
0.3619077,6814
0.42007574,6815
0.44294617,6816
0.3833213,6817
0.4681081,6818
0.25875932,6819
0.4436625,6820
0.3871532,6821
0.4155941,6822
0.363794,6823
0.42753178,6824
0.2484985,6825
0.31246215,6826
0.29863793,6827
0.28410342,6828
0.36864248,6829
0.25355652,6830
0.3176529,6831
0.30112696,6832
0.25391418,6833
0.2949801,6834
0.25250173,6835
0.23106754,6836
0.37127513,6837
0.5318479,6838
0.6091035,6839
0.41030458,6840
0.5353992,6841
0.5057166,6842
0.5620256,6843
0.6090244,6844
0.6239444,6845
0.30025536,6846
0.5119207,6847
0.48616153,6848
0.5196926,6849
0.5021509,6850
0.41311234,6851
0.54874784,6852
0.60019153,6853
0.50530356,6854
0.5415574,6855
0.47166473,6856
0.38989463,6857
0.490933,6858
0.42507854,6859
0.4840822,6860
0.43705374,6861
0.27837637,6862
0.40811807,6863
0.3415453,6864
0.318796,6865
0.29960057,6866
0.4198526,6867
0.229752,6868
0.2505783,6869
0.23867613,6870
0.21345165,6871
0.3502757,6872
0.20968948,6873
0.28280878,6874
0.2603072,6875
0.25068274,6876
0.34561747,6877
0.2727549,6878
0.40170437,6879
0.4615117,6880
0.6494037,6881
0.57597387,6882
0.33279452,6883
0.56062424,6884
0.61037266,6885
0.48908532,6886
0.5179488,6887
0.5366406,6888
0.39420667,6889
0.44920835,6890
0.34495243,6891
0.46513224,6892
0.3388747,6893
0.50090635,6894
0.4135307,6895
0.439816,6896
0.38456288,6897
0.48512036,6898
0.24183096,6899
0.24885012,6900
0.23850976,6901
0.22915602,6902
0.32826486,6903
0.30817232,6904
0.31014305,6905
0.25020164,6906
0.32372755,6907
0.2964687,6908
0.38036084,6909
0.21581481,6910
0.18177223,6911
0.19212179,6912
0.2344394,6913
0.27371705,6914
0.32420444,6915
0.22365491,6916
0.28238317,6917
0.25084713,6918
0.26005667,6919
0.35509026,6920
0.20347084,6921
0.55620605,6922
0.5315671,6923
0.5515567,6924
0.5766498,6925
0.44940245,6926
0.49349573,6927
0.60065764,6928
0.6149194,6929
0.56502503,6930
0.5576461,6931
0.49392793,6932
0.6333783,6933
0.70476687,6934
0.624324,6935
0.39247262,6936
0.51380944,6937
0.48554435,6938
0.49621123,6939
0.51895994,6940
0.50395334,6941
0.29731366,6942
0.3829456,6943
0.36753866,6944
0.3369439,6945
0.40045133,6946
0.3163857,6947
0.4418091,6948
0.3951809,6949
0.36163032,6950
0.39858326,6951
0.37870258,6952
0.25167796,6953
0.27517313,6954
0.29056644,6955
0.2627026,6956
0.34452742,6957
0.29245877,6958
0.35791418,6959
0.2613941,6960
0.28961733,6961
0.35677052,6962
0.2504881,6963
0.3151166,6964
0.49212134,6965
0.58994365,6966
0.64955014,6967
0.36949894,6968
0.581502,6969
0.6091228,6970
0.6229825,6971
0.5780845,6972
0.53494436,6973
0.45009404,6974
0.5963248,6975
0.68418664,6976
0.70229656,6977
0.5166125,6978
0.46807814,6979
0.4623192,6980
0.6242944,6981
0.5574373,6982
0.5144968,6983
0.42533246,6984
0.39379507,6985
0.4311459,6986
0.3819539,6987
0.30268145,6988
0.34984794,6989
0.38938582,6990
0.38629588,6991
0.33441725,6992
0.32605755,6993
0.3884663,6994
0.25556454,6995
0.32403445,6996
0.31012234,6997
0.26840433,6998
0.3265715,6999
0.23229904,7000
0.34383002,7001
0.29930615,7002
0.28956598,7003
0.23388639,7004
0.3487826,7005
0.22778644,7006
0.34230667,7007
0.47763747,7008
0.60017127,7009
0.5666865,7010
0.33967134,7011
0.5150508,7012
0.57446337,7013
0.6294423,7014
0.59556866,7015
0.61218286,7016
0.44567418,7017
0.55601484,7018
0.6585685,7019
0.65636325,7020
0.47457796,7021
0.5455743,7022
0.54461956,7023
0.43482685,7024
0.5361394,7025
0.46883208,7026
0.41437924,7027
0.35499176,7028
0.40895113,7029
0.33430138,7030
0.4641238,7031
0.39293024,7032
0.25770384,7033
0.4495024,7034
0.45763347,7035
0.45361248,7036
0.2754529,7037
0.360948,7038
0.35029697,7039
0.3477032,7040
0.26420876,7041
0.25142115,7042
0.28816995,7043
0.32725722,7044
0.20112851,7045
0.19089484,7046
0.2011734,7047
0.22468993,7048
0.28743032,7049
0.38835448,7050
0.32281286,7051
0.5179373,7052
0.55728525,7053
0.50106114,7054
0.52588165,7055
0.4086076,7056
0.40080392,7057
0.40790007,7058
0.33799046,7059
0.27318856,7060
0.2616867,7061
0.24376082,7062
0.25039202,7063
0.2371977,7064
0.17308459,7065
0.1592412,7066
0.14748402,7067
0.1303968,7068
0.08673003,7069
0.07307684,7070
0.15195139,7071
0.1247068,7072
0.10027784,7073
0.07243841,7074
0.05397362,7075
0.10133244,7076
0.11503962,7077
0.13897067,7078
0.07730565,7079
0.051505744,7080
0.054679636,7081
0.14343894,7082
0.15251024,7083
0.108349465,7084
0.06044754,7085
0.041225538,7086
0.04852636,7087
0.09532849,7088
0.15645914,7089
0.122517094,7090
0.08166937,7091
0.059987836,7092
0.12219096,7093
0.14889638,7094
0.13767658,7095
0.12019384,7096
0.063830666,7097
0.13896811,7098
0.25565514,7099
0.20788147,7100
0.24135163,7101
0.34706447,7102
0.42350823,7103
0.33367085,7104
0.39792404,7105
0.34811258,7106
0.30948898,7107
0.24181508,7108
0.21330513,7109
0.19173594,7110
0.18762566,7111
0.16900872,7112
0.12364215,7113
0.10070608,7114
0.11407217,7115
0.15871985,7116
0.18586418,7117
0.16985795,7118
0.18673483,7119
0.18051921,7120
0.15016282,7121
0.14733072,7122
0.09027431,7123
0.06464359,7124
0.1223424,7125
0.16066818,7126
0.12193815,7127
0.06760258,7128
0.028048428,7129
0.042641237,7130
0.069520615,7131
0.15924764,7132
0.19728968,7133
0.20184089,7134
0.16465864,7135
0.12852736,7136
0.13153945,7137
0.100670286,7138
0.056069333,7139
0.054509856,7140
0.13702153,7141
0.13926221,7142
0.0964897,7143
0.055999774,7144
0.033597387,7145
0.040724434,7146
0.08382802,7147
0.14101921,7148
0.16616623,7149
0.20396736,7150
0.18129486,7151
0.18787186,7152
0.16822356,7153
0.13531242,7154
0.08826261,7155
0.060348872,7156
0.111994706,7157
0.15150614,7158
0.1225365,7159
0.068270676,7160
0.039442226,7161
0.04343075,7162
0.06412872,7163
0.13347107,7164
0.17420256,7165
0.17347196,7166
0.17500083,7167
0.19162449,7168
0.1755218,7169
0.14781049,7170
0.08564194,7171
0.040093668,7172
0.022901775,7173
0.08027269,7174
0.25529492,7175
0.15499698,7176
0.18549477,7177
0.2741647,7178
0.320195,7179
0.36439422,7180
0.33352515,7181
0.3352137,7182
0.31089973,7183
0.28941336,7184
0.26335108,7185
0.36203283,7186
0.2483942,7187
0.2798593,7188
0.31363812,7189
0.28683817,7190
0.26275617,7191
0.2663398,7192
0.25523385,7193
0.19559476,7194
0.1906882,7195
0.19494723,7196
0.18401666,7197
0.14763746,7198
0.118654184,7199
0.09516762,7200
0.109043844,7201
0.15451905,7202
0.17142114,7203
0.18208784,7204
0.15652084,7205
0.1601937,7206
0.15119816,7207
0.11830728,7208
0.05774483,7209
0.055427458,7210
0.11513174,7211
0.14261624,7212
0.08102857,7213
0.034330472,7214
0.024206473,7215
0.098035105,7216
0.14135246,7217
0.1547087,7218
0.16998515,7219
0.17403698,7220
0.16220927,7221
0.16000439,7222
0.1432759,7223
0.105171695,7224
0.062849365,7225
0.051334534,7226
0.1150525,7227
0.31763342,7228
0.15452296,7229
0.23310864,7230
0.23952043,7231
0.23945713,7232
0.27493644,7233
0.27829453,7234
0.23423858,7235
0.17764111,7236
0.2052649,7237
0.23892435,7238
0.16318527,7239
0.12958553,7240
0.10048711,7241
0.10221714,7242
0.1381137,7243
0.14521576,7244
0.17008317,7245
0.17000198,7246
0.18467076,7247
0.14472245,7248
0.11881209,7249
0.05782107,7250
0.041146334,7251
0.09761152,7252
0.11752342,7253
0.09835726,7254
0.07512302,7255
0.028985266,7256
0.032168683,7257
0.08652228,7258
0.13421309,7259
0.17186971,7260
0.16877651,7261
0.13095771,7262
0.14405279,7263
0.14065772,7264
0.14346455,7265
0.09153917,7266
0.0831994,7267
0.09116603,7268
0.1504216,7269
0.13582566,7270
0.30996665,7271
0.15154998,7272
0.26633054,7273
0.33143777,7274
0.3863811,7275
0.3656493,7276
0.26246807,7277
0.26143092,7278
0.30027884,7279
0.2853596,7280
0.20242238,7281
0.1597788,7282
0.14596137,7283
0.12662984,7284
0.12429783,7285
0.16223276,7286
0.19144347,7287
0.19772562,7288
0.20300886,7289
0.17833221,7290
0.16181813,7291
0.29673225,7292
0.0761972,7293
0.11441865,7294
0.15593408,7295
0.14740616,7296
0.070605986,7297
0.047075108,7298
0.033458587,7299
0.06677241,7300
0.11124644,7301
0.15971434,7302
0.15656376,7303
0.17425863,7304
0.17862414,7305
0.13027911,7306
0.12926807,7307
0.1434273,7308
0.095980294,7309
0.060886398,7310
0.03569598,7311
0.19290422,7312
0.10910901,7313
0.11633187,7314
0.088402994,7315
0.06376632,7316
0.051073056,7317
0.09467391,7318
0.13465557,7319
0.15611684,7320
0.16474359,7321
0.13321589,7322
0.13829924,7323
0.15556519,7324
0.16046487,7325
0.110654175,7326
0.063641965,7327
0.12024709,7328
0.1541986,7329
0.10825151,7330
0.044086058,7331
0.025289472,7332
0.20978081,7333
0.09912634,7334
0.14740758,7335
0.1611353,7336
0.19921497,7337
0.15569513,7338
0.14442366,7339
0.14608903,7340
0.088365085,7341
0.056047533,7342
0.09572327,7343
0.2907728,7344
0.16719028,7345
0.23625612,7346
0.27771005,7347
0.29239053,7348
0.28963408,7349
0.28662103,7350
0.2422196,7351
0.26090842,7352
0.21757202,7353
0.22359048,7354
0.347441,7355
0.16501823,7356
0.2763156,7357
0.3169427,7358
0.38251117,7359
0.34633666,7360
0.3282887,7361
0.27861807,7362
0.2781317,7363
0.22703658,7364
0.21331805,7365
0.23427618,7366
0.17499073,7367
0.14538085,7368
0.116930604,7369
0.11375152,7370
0.15559426,7371
0.17889994,7372
0.1689266,7373
0.17886591,7374
0.162355,7375
0.17239358,7376
0.16694632,7377
0.25627878,7378
0.057057776,7379
0.06261552,7380
0.1081761,7381
0.09862004,7382
0.060363848,7383
0.030687036,7384
0.029703679,7385
0.08960202,7386
0.14718331,7387
0.16144711,7388
0.14986257,7389
0.15252198,7390
0.16353497,7391
0.15872511,7392
0.13496199,7393
0.08751745,7394
0.0437359,7395
0.03075111,7396
0.0750835,7397
0.14943184,7398
0.27336028,7399
0.18225004,7400
0.3147317,7401
0.3361139,7402
0.37291086,7403
0.39095005,7404
0.30832553,7405
0.29306656,7406
0.28818652,7407
0.28919363,7408
0.26195863,7409
0.24520068,7410
0.19306526,7411
0.21357934,7412
0.21549189,7413
0.22079846,7414
0.22785968,7415
0.25080267,7416
0.2387392,7417
0.21330018,7418
0.30338037,7419
0.22456896,7420
0.09015846,7421
0.10490114,7422
0.11543845,7423
0.12986317,7424
0.24370115,7425
0.34394953,7426
0.30181965,7427
0.23105672,7428
0.21337375,7429
0.24898033,7430
0.4165819,7431
0.38857403,7432
0.31496453,7433
0.24377866,7434
0.27744117,7435
0.32177964,7436
0.32797667,7437
0.24625564,7438
0.24367844,7439
0.3977912,7440
0.21683066,7441
0.3385752,7442
0.44663122,7443
0.60480464,7444
0.5405285,7445
0.58478194,7446
0.31955767,7447
0.5109909,7448
0.4599533,7449
0.43493944,7450
0.48323503,7451
0.35972288,7452
0.41198725,7453
0.40131542,7454
0.36610177,7455
0.38337824,7456
0.36466238,7457
0.23767789,7458
0.35408852,7459
0.3644384,7460
0.30051816,7461
0.37421948,7462
0.19599262,7463
0.23557803,7464
0.17099746,7465
0.2387745,7466
0.37211084,7467
0.17332183,7468
0.13881421,7469
0.13358243,7470
0.12831478,7471
0.21448,7472
0.37193036,7473
0.27061525,7474
0.34640828,7475
0.36021888,7476
0.33135268,7477
0.38307807,7478
0.19940996,7479
0.25309953,7480
0.22976989,7481
0.27039465,7482
0.29636812,7483
0.23013282,7484
0.15641701,7485
0.14012823,7486
0.124030784,7487
0.2010958,7488
0.33648655,7489
0.18994038,7490
0.24800819,7491
0.22525103,7492
0.21791819,7493
0.32908377,7494
0.2909321,7495
0.42694086,7496
0.30273372,7497
0.32490748,7498
0.42418078,7499
0.2506821,7500
0.22838344,7501
0.16834316,7502
0.15869057,7503
0.205635,7504
0.3563206,7505
0.18795414,7506
0.26870036,7507
0.2766803,7508
0.26210043,7509
0.3723274,7510
0.1639967,7511
0.19415413,7512
0.14803128,7513
0.17082374,7514
0.20200261,7515
0.38648352,7516
0.23333366,7517
0.35722083,7518
0.35443112,7519
0.3191305,7520
0.3646549,7521
0.1452108,7522
0.20219918,7523
0.19319701,7524
0.21259259,7525
0.25475702,7526
0.34507617,7527
0.23995344,7528
0.2856039,7529
0.29327586,7530
0.3013964,7531
0.3830642,7532
0.25268918,7533
0.22022544,7534
0.16969317,7535
0.18537024,7536
0.2838921,7537
0.28613985,7538
0.2978536,7539
0.32897314,7540
0.27491423,7541
0.38963234,7542
0.2436451,7543
0.2533612,7544
0.28656048,7545
0.2714067,7546
0.25043488,7547
0.3590207,7548
0.18532737,7549
0.21691209,7550
0.19211102,7551
0.22566366,7552
0.3529417,7553
0.16901463,7554
0.14902231,7555
0.13720104,7556
0.19414176,7557
0.22173546,7558
0.31475478,7559
0.33693433,7560
0.38410634,7561
0.33176106,7562
0.30530822,7563
0.3297171,7564
0.17069438,7565
0.22257271,7566
0.1805398,7567
0.19628581,7568
0.35797232,7569
0.1895671,7570
0.26932707,7571
0.2502879,7572
0.2702425,7573
0.28635055,7574
0.33203056,7575
0.13795967,7576
0.16424131,7577
0.1683371,7578
0.19570944,7579
0.34547865,7580
0.19713464,7581
0.30183846,7582
0.22028871,7583
0.2609307,7584
0.35278007,7585
0.24566224,7586
0.24928609,7587
0.28416857,7588
0.31670737,7589
0.23939377,7590
0.34848186,7591
0.15059778,7592
0.1886631,7593
0.1998741,7594
0.24857415,7595
0.3325414,7596
0.13165395,7597
0.16172479,7598
0.14328325,7599
0.14745107,7600
0.23116337,7601
0.36196846,7602
0.3122844,7603
0.37456444,7604
0.29633832,7605
0.32796672,7606
0.30705863,7607
0.25205266,7608
0.2146076,7609
0.19145034,7610
0.1728617,7611
0.31092903,7612
0.21999417,7613
0.2676785,7614
0.29520586,7615
0.29635677,7616
0.4039352,7617
0.2058678,7618
0.24408485,7619
0.17019106,7620
0.16899307,7621
0.1977093,7622
0.37654316,7623
0.21839604,7624
0.27026412,7625
0.23536095,7626
0.25719354,7627
0.40922353,7628
0.2032698,7629
0.28477523,7630
0.2917726,7631
0.30231965,7632
0.29822817,7633
0.33615708,7634
0.21245518,7635
0.2236523,7636
0.23256049,7637
0.2661323,7638
0.35741305,7639
0.16634122,7640
0.1822385,7641
0.14458501,7642
0.20376062,7643
0.33671913,7644
0.30266985,7645
0.38313335,7646
0.39194494,7647
0.3596705,7648
0.33077922,7649
0.40477887,7650
0.16681355,7651
0.219014,7652
0.24371484,7653
0.2552577,7654
0.3865626,7655
0.19381732,7656
0.21519722,7657
0.18992713,7658
0.21638697,7659
0.24637587,7660
0.26775777,7661
0.19196291,7662
0.25290498,7663
0.2532343,7664
0.22820283,7665
0.38525373,7666
0.27015373,7667
0.3548928,7668
0.28488538,7669
0.3559738,7670
0.36142498,7671
0.280336,7672
0.18346694,7673
0.18139616,7674
0.20042363,7675
0.25509945,7676
0.35084257,7677
0.21971048,7678
0.25707182,7679
0.28027073,7680
0.26318508,7681
0.29059488,7682
0.2661258,7683
0.16054557,7684
0.17419037,7685
0.17608632,7686
0.20459381,7687
0.35992518,7688
0.24926846,7689
0.3761126,7690
0.3614654,7691
0.35319865,7692
0.4245949,7693
0.25819138,7694
0.23523942,7695
0.2536592,7696
0.2825656,7697
0.25857633,7698
0.34406164,7699
0.25023478,7700
0.29655403,7701
0.2902259,7702
0.3256954,7703
0.3557808,7704
0.30702078,7705
0.23192161,7706
0.19253227,7707
0.17701149,7708
0.19789602,7709
0.38375616,7710
0.2452746,7711
0.32181844,7712
0.3007973,7713
0.30737963,7714
0.4003352,7715
0.23518877,7716
0.25903976,7717
0.29010785,7718
0.31127897,7719
0.29305345,7720
0.3495799,7721
0.17646064,7722
0.21027675,7723
0.17857112,7724
0.22180244,7725
0.33806008,7726
0.14776567,7727
0.15381286,7728
0.119585946,7729
0.16261055,7730
0.3021197,7731
0.295472,7732
0.3317807,7733
0.35015455,7734
0.35708258,7735
0.3213429,7736
0.38909832,7737
0.19259018,7738
0.23327088,7739
0.19851507,7740
0.20893276,7741
0.32705578,7742
0.23814653,7743
0.30130386,7744
0.3097728,7745
0.30523333,7746
0.28706038,7747
0.3248116,7748
0.15387836,7749
0.16940351,7750
0.17780271,7751
0.21435481,7752
0.36986828,7753
0.22340867,7754
0.30331558,7755
0.28435013,7756
0.34196308,7757
0.4212465,7758
0.2558727,7759
0.30935627,7760
0.3198474,7761
0.3236952,7762
0.2871256,7763
0.3593959,7764
0.20397693,7765
0.20072266,7766
0.18404414,7767
0.22471447,7768
0.34963426,7769
0.18448436,7770
0.12848292,7771
0.16782,7772
0.2482821,7773
0.41638312,7774
0.29229483,7775
0.3942541,7776
0.36122954,7777
0.36601457,7778
0.3223813,7779
0.5130737,7780
0.1627945,7781
0.2486717,7782
0.21936898,7783
0.25146148,7784
0.39099422,7785
0.26836783,7786
0.44699827,7787
0.505787,7788
0.55630827,7789
0.5166184,7790
0.47887158,7791
0.28978324,7792
0.35489672,7793
0.36376125,7794
0.32335111,7795
0.40958312,7796
0.2627079,7797
0.37349474,7798
0.30803186,7799
0.2601323,7800
0.26114145,7801
0.37504256,7802
0.17314652,7803
0.22454235,7804
0.3218164,7805
0.65002584,7806
0.39416444,7807
0.1814709,7808
0.20881698,7809
0.18435594,7810
0.20181003,7811
0.30019128,7812
0.23518583,7813
0.1960538,7814
0.15444213,7815
0.17191908,7816
0.23628539,7817
0.36655104,7818
0.2423596,7819
0.32299674,7820
0.28450853,7821
0.28636235,7822
0.38137183,7823
0.21526238,7824
0.20694475,7825
0.22279638,7826
0.23337343,7827
0.3285025,7828
0.23881273,7829
0.32488945,7830
0.35216793,7831
0.45354512,7832
0.49150044,7833
0.52289534,7834
0.15385424,7835
0.20244297,7836
0.16302107,7837
0.22216532,7838
0.36879036,7839
0.24891321,7840
0.25835225,7841
0.26352805,7842
0.28251272,7843
0.4530437,7844
0.40854028,7845
0.25416437,7846
0.28600946,7847
0.2573671,7848
0.24242784,7849
0.26180422,7850
0.22160009,7851
0.18517967,7852
0.18076035,7853
0.20559622,7854
0.3251402,7855
0.16971044,7856
0.14542425,7857
0.13512087,7858
0.12989679,7859
0.36150962,7860
0.29303706,7861
0.2798551,7862
0.301346,7863
0.28949943,7864
0.33564812,7865
0.33138746,7866
0.2783122,7867
0.47000504,7868
0.28726444,7869
0.33641037,7870
0.35873172,7871
0.19528924,7872
0.21397938,7873
0.21767886,7874
0.24363323,7875
0.34573597,7876
0.18822037,7877
0.1928794,7878
0.13618699,7879
0.3963532,7880
0.4700949,7881
0.28989533,7882
0.2572546,7883
0.30199605,7884
0.27590388,7885
0.3008191,7886
0.3555343,7887
0.15586841,7888
0.30441424,7889
0.5695479,7890
0.4509086,7891
0.3154082,7892
0.21216317,7893
0.2662445,7894
0.28425205,7895
0.23364715,7896
0.23296499,7897
0.3378702,7898
0.14672072,7899
0.17414841,7900
0.13707899,7901
0.17388256,7902
0.3019348,7903
0.24097228,7904
0.30123922,7905
0.30251104,7906
0.31996113,7907
0.36354113,7908
0.22124894,7909
0.25614238,7910
0.18223248,7911
0.19520326,7912
0.29279765,7913
0.2070388,7914
0.2266532,7915
0.2525854,7916
0.23081976,7917
0.25129518,7918
0.3397749,7919
0.20424664,7920
0.21798481,7921
0.2209253,7922
0.21802142,7923
0.33930984,7924
0.25437546,7925
0.36210245,7926
0.29679242,7927
0.26305407,7928
0.37191078,7929
0.2354121,7930
0.21526916,7931
0.21014184,7932
0.19212285,7933
0.21055847,7934
0.36143157,7935
0.16989811,7936
0.19468346,7937
0.16673447,7938
0.18200853,7939
0.34978154,7940
0.15844055,7941
0.16994046,7942
0.15299785,7943
0.1439996,7944
0.21741451,7945
0.3150037,7946
0.272546,7947
0.30631426,7948
0.26207903,7949
0.27988413,7950
0.3807891,7951
0.18571441,7952
0.23850805,7953
0.2020557,7954
0.22699432,7955
0.42472592,7956
0.25010756,7957
0.21007887,7958
0.23474799,7959
0.21612997,7960
0.36395156,7961
0.5841355,7962
0.39932707,7963
0.5228442,7964
0.5849998,7965
0.5160707,7966
0.50912344,7967
0.2810363,7968
0.32789022,7969
0.34253162,7970
0.31186986,7971
0.37584463,7972
0.34407872,7973
0.21025914,7974
0.20959942,7975
0.19749159,7976
0.24282269,7977
0.40948337,7978
0.18994139,7979
0.23325495,7980
0.22142173,7981
0.21905036,7982
0.2740147,7983
0.33407673,7984
0.14964232,7985
0.18684545,7986
0.16042463,7987
0.22736534,7988
0.35688105,7989
0.26085925,7990
0.33834293,7991
0.3130666,7992
0.30061084,7993
0.362052,7994
0.26570567,7995
0.24023952,7996
0.24574213,7997
0.254245,7998
0.35353264,7999
0.37230176,8000
0.28336364,8001
0.31986436,8002
0.3849214,8003
0.45704222,8004
0.5084785,8005
0.2111466,8006
0.2090085,8007
0.16298749,8008
0.15045969,8009
0.28165925,8010
0.28039667,8011
0.34443542,8012
0.35655394,8013
0.62807,8014
0.6630237,8015
0.40541553,8016
0.27786896,8017
0.2496477,8018
0.26588982,8019
0.26636785,8020
0.37460664,8021
0.23757187,8022
0.32491037,8023
0.29205152,8024
0.34006134,8025
0.39149296,8026
0.31850573,8027
0.2637481,8028
0.26058406,8029
0.27487326,8030
0.27008882,8031
0.4205452,8032
0.31693807,8033
0.31955883,8034
0.30060855,8035
0.3395461,8036
0.48121545,8037
0.34898868,8038
0.3377877,8039
0.32055458,8040
0.52605706,8041
0.6144339,8042
0.41123685,8043
0.50738066,8044
0.53149116,8045
0.5260946,8046
0.45654717,8047
0.4106648,8048
0.27996224,8049
0.4225178,8050
0.40462247,8051
0.34562716,8052
0.44345507,8053
0.3284879,8054
0.47039405,8055
0.408592,8056
0.44232753,8057
0.39796206,8058
0.42378432,8059
0.33226562,8060
0.35643926,8061
0.35876313,8062
0.33904642,8063
0.39518824,8064
0.26715365,8065
0.33026385,8066
0.37217253,8067
0.483297,8068
0.44009086,8069
0.3790768,8070
0.3137867,8071
0.2911966,8072
0.33704048,8073
0.31119347,8074
0.40867674,8075
0.31361842,8076
0.3470788,8077
0.32841957,8078
0.32335275,8079
0.4336761,8080
0.265608,8081
0.2987879,8082
0.3235367,8083
0.4570381,8084
0.5641729,8085
0.4234846,8086
0.45440727,8087
0.5147922,8088
0.4988025,8089
0.45215604,8090
0.4182161,8091
0.29743657,8092
0.37605375,8093
0.3838908,8094
0.3656702,8095
0.4598484,8096
0.36490023,8097
0.40519702,8098
0.42044136,8099
0.40224132,8100
0.3593641,8101
0.43566582,8102
0.23403768,8103
0.35273322,8104
0.30502397,8105
0.3446064,8106
0.39581555,8107
0.3126674,8108
0.30049026,8109
0.3102353,8110
0.34600216,8111
0.28101596,8112
0.38785586,8113
0.20131667,8114
0.2797136,8115
0.2763662,8116
0.27933094,8117
0.39768082,8118
0.29265228,8119
0.37426874,8120
0.34185258,8121
0.36185834,8122
0.3589711,8123
0.45732847,8124
0.2520045,8125
0.3325549,8126
0.28049183,8127
0.27985817,8128
0.36509126,8129
0.23098287,8130
0.29266074,8131
0.28181323,8132
0.27158684,8133
0.29042152,8134
0.31347203,8135
0.22981854,8136
0.26095963,8137
0.23968126,8138
0.2374149,8139
0.41847193,8140
0.2830096,8141
0.3442145,8142
0.32594058,8143
0.31172296,8144
0.42652836,8145
0.4530434,8146
0.44980827,8147
0.5849024,8148
0.596597,8149
0.28316763,8150
0.3067521,8151
0.19477774,8152
0.24402545,8153
0.24223469,8154
0.25767678,8155
0.3542866,8156
0.23460959,8157
0.19799492,8158
0.14681593,8159
0.19763915,8160
0.32536584,8161
0.34609577,8162
0.28466487,8163
0.36834362,8164
0.3491315,8165
0.31729296,8166
0.4402772,8167
0.24423441,8168
0.32130802,8169
0.27990547,8170
0.28151023,8171
0.3264298,8172
0.28390452,8173
0.20801327,8174
0.25243202,8175
0.25341463,8176
0.33129278,8177
0.34725657,8178
0.19084291,8179
0.24701612,8180
0.25250697,8181
0.25604463,8182
0.3967171,8183
0.28779134,8184
0.32875195,8185
0.27148247,8186
0.2841431,8187
0.30604124,8188
0.33526134,8189
0.18196243,8190
0.1836636,8191
0.19432096,8192
0.19784574,8193
0.37054625,8194
0.17447057,8195
0.19941002,8196
0.19252244,8197
0.19892871,8198
0.34732512,8199
0.22272322,8200
0.1912321,8201
0.17348538,8202
0.21645841,8203
0.31703478,8204
0.47091344,8205
0.41329852,8206
0.5260585,8207
0.52108157,8208
0.5111104,8209
0.4070418,8210
0.24876073,8211
0.21043108,8212
0.2083367,8213
0.22761372,8214
0.35408828,8215
0.3185442,8216
0.23486821,8217
0.29847872,8218
0.3239147,8219
0.3110705,8220
0.3613649,8221
0.2142358,8222
0.26235667,8223
0.2687134,8224
0.30909637,8225
0.45270824,8226
0.2827767,8227
0.37767044,8228
0.29443845,8229
0.3503437,8230
0.4000447,8231
0.31898856,8232
0.24223153,8233
0.1792423,8234
0.17883043,8235
0.22975634,8236
0.33157954,8237
0.17592034,8238
0.21985063,8239
0.2328976,8240
0.24538147,8241
0.37967464,8242
0.2218966,8243
0.1415579,8244
0.23830727,8245
0.20933013,8246
0.34256202,8247
0.46057618,8248
0.32612172,8249
0.5450923,8250
0.52741826,8251
0.54104275,8252
0.39656764,8253
0.20464788,8254
0.27961692,8255
0.28143844,8256
0.3089594,8257
0.3757827,8258
0.24334258,8259
0.2566346,8260
0.2556479,8261
0.22899926,8262
0.29428238,8263
0.30695575,8264
0.21199451,8265
0.24760327,8266
0.2508571,8267
0.271304,8268
0.42795572,8269
0.34901917,8270
0.39553207,8271
0.3122414,8272
0.31999108,8273
0.4183533,8274
0.20425865,8275
0.21168683,8276
0.18136469,8277
0.18433791,8278
0.3106334,8279
0.20924005,8280
0.19119033,8281
0.17902043,8282
0.19095056,8283
0.2212295,8284
0.3297144,8285
0.17507063,8286
0.17817815,8287
0.16792458,8288
0.18532293,8289
0.42778754,8290
0.30504575,8291
0.36816928,8292
0.25468555,8293
0.33456904,8294
0.40588748,8295
0.22890206,8296
0.24232563,8297
0.210502,8298
0.39280355,8299
0.56259733,8300
0.31654224,8301
0.2485037,8302
0.27829352,8303
0.2930419,8304
0.32603347,8305
0.38032815,8306
0.21454272,8307
0.2641953,8308
0.23809402,8309
0.23670112,8310
0.2618051,8311
0.41248864,8312
0.34121972,8313
0.4422697,8314
0.4761451,8315
0.53702265,8316
0.5432713,8317
0.25417972,8318
0.24152923,8319
0.20278017,8320
0.23684928,8321
0.2895512,8322
0.32131135,8323
0.15521173,8324
0.17404549,8325
0.15051007,8326
0.2085761,8327
0.37945214,8328
0.16720894,8329
0.19828512,8330
0.18724717,8331
0.2165169,8332
0.35401064,8333
0.31790388,8334
0.39091715,8335
0.5648299,8336
0.57188386,8337
0.50863916,8338
0.31104353,8339
0.23041746,8340
0.2928961,8341
0.30397242,8342
0.29223654,8343
0.37311918,8344
0.21082546,8345
0.2895944,8346
0.2811612,8347
0.3096265,8348
0.36613855,8349
0.26946867,8350
0.18027343,8351
0.25528806,8352
0.26668763,8353
0.31038046,8354
0.3808065,8355
0.36012587,8356
0.38671437,8357
0.3602053,8358
0.32334128,8359
0.3804656,8360
0.23988004,8361
0.25123534,8362
0.23735866,8363
0.21681668,8364
0.28365088,8365
0.2479822,8366
0.29162472,8367
0.28641748,8368
0.291347,8369
0.31607825,8370
0.30679885,8371
0.19736303,8372
0.26119736,8373
0.30183867,8374
0.2796173,8375
0.39654452,8376
0.25118762,8377
0.25348756,8378
0.28747013,8379
0.2769962,8380
0.38281024,8381
0.20642035,8382
0.27854267,8383
0.3929493,8384
0.5452377,8385
0.64753103,8386
0.45769808,8387
0.54016674,8388
0.48989895,8389
0.46013424,8390
0.44527337,8391
0.46202496,8392
0.2930315,8393
0.42341706,8394
0.35876492,8395
0.37200025,8396
0.45949116,8397
0.36663786,8398
0.43982202,8399
0.4570142,8400
0.40109333,8401
0.4774397,8402
0.37937102,8403
0.2893628,8404
0.35243693,8405
0.34472784,8406
0.32615265,8407
0.3895224,8408
0.2294254,8409
0.35560805,8410
0.38164318,8411
0.39413264,8412
0.3551558,8413
0.3187278,8414
0.21788399,8415
0.3342202,8416
0.29837146,8417
0.2930595,8418
0.37132543,8419
0.27173522,8420
0.3324111,8421
0.32007545,8422
0.3427845,8423
0.40661645,8424
0.2073351,8425
0.2770481,8426
0.28950146,8427
0.33056837,8428
0.53737384,8429
0.42223245,8430
0.4873745,8431
0.4935863,8432
0.52376527,8433
0.509902,8434
0.38745058,8435
0.3214513,8436
0.39435536,8437
0.37446943,8438
0.36786646,8439
0.43406194,8440
0.2848829,8441
0.44504878,8442
0.4534535,8443
0.4352451,8444
0.3658916,8445
0.3915118,8446
0.28753573,8447
0.33806023,8448
0.34883752,8449
0.35185423,8450
0.40120447,8451
0.23089181,8452
0.27664876,8453
0.2790075,8454
0.33139306,8455
0.3129259,8456
0.36081776,8457
0.21227106,8458
0.2764318,8459
0.26581186,8460
0.2700925,8461
0.37237814,8462
0.31681332,8463
0.48118985,8464
0.40973186,8465
0.41642466,8466
0.38478297,8467
0.41526875,8468
0.2419395,8469
0.34821126,8470
0.30328378,8471
0.30699465,8472
0.35529757,8473
0.24980119,8474
0.4074384,8475
0.47625524,8476
0.5413237,8477
0.5325954,8478
0.5040749,8479
0.29561508,8480
0.48925036,8481
0.44819933,8482
0.44951874,8483
0.48557064,8484
0.3681582,8485
0.48255262,8486
0.5032256,8487
0.4772115,8488
0.49858037,8489
0.50394017,8490
0.26101947,8491
0.35544425,8492
0.31040484,8493
0.31376818,8494
0.39469475,8495
0.24471118,8496
0.41124368,8497
0.41167638,8498
0.4695196,8499
0.31354514,8500
0.33764055,8501
0.33010775,8502
0.39323387,8503
0.20111239,8504
0.27832484,8505
0.41571212,8506
0.2621298,8507
0.32460418,8508
0.38083974,8509
0.40010956,8510
0.2351072,8511
0.28193426,8512
0.36901137,8513
0.24766332,8514
0.28342643,8515
0.30034047,8516
0.40398768,8517
0.4364318,8518
0.43083575,8519
0.3815526,8520
0.34598815,8521
0.3873174,8522
0.4414886,8523
0.42519352,8524
0.35479167,8525
0.2434903,8526
0.27235195,8527
0.28835604,8528
0.31885713,8529
0.20052245,8530
0.1814274,8531
0.17178126,8532
0.1888448,8533
0.19643892,8534
0.18877041,8535
0.17313024,8536
0.2669395,8537
0.22575419,8538
0.25467053,8539
0.18730073,8540
0.14657672,8541
0.11997612,8542
0.117487974,8543
0.09848337,8544
0.11471242,8545
0.13143331,8546
0.12816338,8547
0.1584218,8548
0.24093036,8549
0.2964201,8550
0.2979513,8551
0.30853572,8552
0.13104327,8553
0.17972139,8554
0.21146415,8555
0.11525422,8556
0.13100027,8557
0.36703488,8558
0.3565205,8559
0.33546335,8560
0.48694974,8561
0.60782987,8562
0.591001,8563
0.3897482,8564
0.40301788,8565
0.38596871,8566
0.3651051,8567
0.38597548,8568
0.42512026,8569
0.33989388,8570
0.35882276,8571
0.4328449,8572
0.41344056,8573
0.48214045,8574
0.39769915,8575
0.34956497,8576
0.42804858,8577
0.4887076,8578
0.5120498,8579
0.47915697,8580
0.27811602,8581
0.31856874,8582
0.32568142,8583
0.33048275,8584
0.37511048,8585
0.30718318,8586
0.19098823,8587
0.24296732,8588
0.27094266,8589
0.32216233,8590
0.39043838,8591
0.29476717,8592
0.31791735,8593
0.29629713,8594
0.33514717,8595
0.36035833,8596
0.2278549,8597
0.22027694,8598
0.18019943,8599
0.20424905,8600
0.3398541,8601
0.16264576,8602
0.22362013,8603
0.18100591,8604
0.16523182,8605
0.29442254,8606
0.20843507,8607
0.17143726,8608
0.17414817,8609
0.19107419,8610
0.28033257,8611
0.28740495,8612
0.30385843,8613
0.24132963,8614
0.31436282,8615
0.30309868,8616
0.33945832,8617
0.14515622,8618
0.198282,8619
0.18802199,8620
0.21245418,8621
0.34121656,8622
0.18074708,8623
0.25565714,8624
0.24156651,8625
0.24214669,8626
0.23869108,8627
0.27454248,8628
0.122710325,8629
0.16146828,8630
0.19620259,8631
0.24236935,8632
0.34255713,8633
0.32144773,8634
0.29731828,8635
0.31717178,8636
0.33916354,8637
0.40481344,8638
0.21403694,8639
0.23812206,8640
0.2105799,8641
0.26797432,8642
0.39496377,8643
0.22368082,8644
0.33561662,8645
0.43890995,8646
0.5300203,8647
0.50798947,8648
0.5238465,8649
0.24415429,8650
0.41277233,8651
0.43534568,8652
0.37682107,8653
0.46420404,8654
0.2509941,8655
0.36165333,8656
0.36804208,8657
0.37046775,8658
0.4113791,8659
0.37191778,8660
0.26202613,8661
0.3477304,8662
0.43339267,8663
0.41991544,8664
0.36686572,8665
0.27889904,8666
0.34647545,8667
0.3029583,8668
0.3199135,8669
0.32296166,8670
0.23683698,8671
0.17824315,8672
0.20154965,8673
0.23672128,8674
0.29488316,8675
0.3124866,8676
0.31030324,8677
0.35829398,8678
0.35832658,8679
0.3559443,8680
0.39789608,8681
0.14760892,8682
0.2707284,8683
0.22051045,8684
0.22154404,8685
0.3362341,8686
0.18001507,8687
0.2296076,8688
0.18961772,8689
0.22190282,8690
0.2606005,8691
0.32819477,8692
0.1646185,8693
0.23035683,8694
0.23125266,8695
0.24483894,8696
0.3485873,8697
0.24334106,8698
0.3154456,8699
0.29416823,8700
0.29417402,8701
0.341956,8702
0.20216268,8703
0.15906703,8704
0.1646314,8705
0.2022733,8706
0.30118245,8707
0.20522317,8708
0.22892655,8709
0.23710887,8710
0.2493969,8711
0.24012066,8712
0.34345543,8713
0.16540416,8714
0.16537327,8715
0.13860127,8716
0.24069387,8717
0.35035065,8718
0.26432937,8719
0.35288835,8720
0.3734768,8721
0.4237901,8722
0.39951763,8723
0.39254647,8724
0.16427606,8725
0.2502088,8726
0.24314642,8727
0.3271186,8728
0.49686685,8729
0.33183047,8730
0.36285758,8731
0.33659765,8732
0.3197221,8733
0.3148695,8734
0.34255984,8735
0.2122511,8736
0.35234562,8737
0.6422289,8738
0.7410454,8739
0.56833327,8740
0.4754894,8741
0.63841057,8742
0.5954045,8743
0.3373705,8744
0.36971632,8745
0.36612448,8746
0.3113408,8747
0.3353308,8748
0.36516032,8749
0.3980278,8750
0.44814718,8751
0.24762483,8752
0.3101955,8753
0.28650272,8754
0.29978067,8755
0.29207957,8756
0.2868983,8757
0.16782969,8758
0.2063067,8759
0.31877866,8760
0.30779135,8761
0.3652386,8762
0.29813394,8763
0.35945264,8764
0.3221032,8765
0.3087265,8766
0.4248088,8767
0.23308674,8768
0.20225391,8769
0.21067075,8770
0.25642508,8771
0.40876007,8772
0.29806203,8773
0.2309496,8774
0.2748392,8775
0.26822737,8776
0.26823813,8777
0.37243843,8778
0.20026782,8779
0.1954162,8780
0.22424434,8781
0.21389255,8782
0.338076,8783
0.2489491,8784
0.34268606,8785
0.3215816,8786
0.32025602,8787
0.3476398,8788
0.36001033,8789
0.2468943,8790
0.3112459,8791
0.28823715,8792
0.26182005,8793
0.3274959,8794
0.1817298,8795
0.24628271,8796
0.23211507,8797
0.30349648,8798
0.3489126,8799
0.292856,8800
0.16048136,8801
0.16359913,8802
0.18543741,8803
0.19908988,8804
0.3526097,8805
0.3020354,8806
0.3378223,8807
0.3831063,8808
0.35133708,8809
0.42185497,8810
0.22995332,8811
0.21185757,8812
0.20275918,8813
0.30837268,8814
0.47767425,8815
0.42052194,8816
0.38776588,8817
0.46876723,8818
0.49588418,8819
0.48822382,8820
0.52149963,8821
0.28180197,8822
0.26307487,8823
0.2330907,8824
0.26910928,8825
0.4311436,8826
0.33938178,8827
0.30619484,8828
0.30105704,8829
0.33799386,8830
0.35850877,8831
0.47744095,8832
0.32336187,8833
0.4559081,8834
0.4070091,8835
0.4302549,8836
0.41669783,8837
0.26444462,8838
0.30849776,8839
0.32244208,8840
0.33701453,8841
0.35170096,8842
0.33362195,8843
0.21184194,8844
0.24345024,8845
0.23848435,8846
0.3195728,8847
0.36317876,8848
0.33554363,8849
0.31711268,8850
0.33068845,8851
0.3054896,8852
0.406779,8853
0.21670364,8854
0.21338427,8855
0.18535967,8856
0.17172538,8857
0.33119497,8858
0.2051759,8859
0.15171525,8860
0.14266348,8861
0.1984945,8862
0.22433454,8863
0.35779345,8864
0.15548532,8865
0.22045676,8866
0.22816859,8867
0.22389272,8868
0.36837575,8869
0.27683708,8870
0.35654908,8871
0.30916902,8872
0.32652605,8873
0.30123544,8874
0.33854595,8875
0.18382855,8876
0.21638334,8877
0.21402723,8878
0.24728188,8879
0.3380874,8880
0.2175265,8881
0.26792407,8882
0.2382537,8883
0.28281885,8884
0.21653672,8885
0.329774,8886
0.13504055,8887
0.14128281,8888
0.26038218,8889
0.3378061,8890
0.36152342,8891
0.4489892,8892
0.44385862,8893
0.44445118,8894
0.54135585,8895
0.6495161,8896
0.48005158,8897
0.49356648,8898
0.4925844,8899
0.58462,8900
0.61523724,8901
0.424624,8902
0.37047094,8903
0.4393162,8904
0.50385976,8905
0.4876569,8906
0.5137028,8907
0.28354624,8908
0.28289557,8909
0.3273057,8910
0.3910555,8911
0.5015695,8912
0.4052144,8913
0.42333725,8914
0.40660545,8915
0.42622694,8916
0.40051985,8917
0.4452086,8918
0.29373002,8919
0.4802955,8920
0.48338547,8921
0.44541988,8922
0.42848408,8923
0.24967028,8924
0.29792792,8925
0.2809291,8926
0.37731022,8927
0.31587708,8928
0.36538887,8929
0.19605197,8930
0.22538298,8931
0.26024985,8932
0.35403803,8933
0.40665817,8934
0.34264538,8935
0.3673174,8936
0.29999506,8937
0.3465782,8938
0.39426088,8939
0.22950168,8940
0.19517341,8941
0.18718255,8942
0.19402876,8943
0.26722455,8944
0.34808692,8945
0.2048497,8946
0.20095657,8947
0.20307486,8948
0.22765368,8949
0.365074,8950
0.17771937,8951
0.23543961,8952
0.2056949,8953
0.19758825,8954
0.3678413,8955
0.2994698,8956
0.2984846,8957
0.31275925,8958
0.32309198,8959
0.30496004,8960
0.30636618,8961
0.1736011,8962
0.20177345,8963
0.19857328,8964
0.23964813,8965
0.3660494,8966
0.182799,8967
0.27100763,8968
0.26729044,8969
0.26555905,8970
0.261207,8971
0.25501582,8972
0.13241671,8973
0.14200526,8974
0.19802809,8975
0.30180794,8976
0.41292197,8977
0.2750682,8978
0.32486385,8979
0.36736804,8980
0.3770965,8981
0.43430597,8982
0.22635709,8983
0.2600591,8984
0.2708889,8985
0.3165589,8986
0.36761543,8987
0.33265853,8988
0.22832395,8989
0.3359372,8990
0.27350497,8991
0.30387914,8992
0.3747242,8993
0.17787282,8994
0.22882679,8995
0.2324363,8996
0.2545707,8997
0.42570755,8998
0.20856051,8999
0.34172353,9000
0.28072754,9001
0.3094042,9002
0.3671469,9003
0.29843834,9004
0.2844299,9005
0.3567014,9006
0.3642074,9007
0.33260906,9008
0.4178562,9009
0.19318536,9010
0.22875561,9011
0.21442127,9012
0.30427757,9013
0.36807412,9014
0.13940898,9015
0.14202978,9016
0.1510977,9017
0.24877888,9018
0.37138763,9019
0.35649717,9020
0.35783932,9021
0.34083277,9022
0.34148347,9023
0.2911959,9024
0.33966517,9025
0.22003159,9026
0.4492335,9027
0.31836268,9028
0.26669747,9029
0.35812762,9030
0.19402032,9031
0.27738014,9032
0.2241507,9033
0.29139453,9034
0.30345955,9035
0.26723063,9036
0.17991525,9037
0.20388362,9038
0.21423043,9039
0.25329083,9040
0.39577517,9041
0.22017626,9042
0.3063987,9043
0.2829164,9044
0.31011593,9045
0.35418907,9046
0.21869238,9047
0.32349724,9048
0.27448922,9049
0.301134,9050
0.30604762,9051
0.3028192,9052
0.2047802,9053
0.2390808,9054
0.2542996,9055
0.27622643,9056
0.4089366,9057
0.1581023,9058
0.25610018,9059
0.18564712,9060
0.28210855,9061
0.40409842,9062
0.30912548,9063
0.3674748,9064
0.35131294,9065
0.34715644,9066
0.3998849,9067
0.34534365,9068
0.1824671,9069
0.24939433,9070
0.28049597,9071
0.44672558,9072
0.41935202,9073
0.2994436,9074
0.52613795,9075
0.48654833,9076
0.46210366,9077
0.53041106,9078
0.394429,9079
0.3760725,9080
0.32924563,9081
0.26022667,9082
0.30382818,9083
0.407998,9084
0.26413316,9085
0.3764493,9086
0.36504984,9087
0.38278145,9088
0.47893944,9089
0.31174573,9090
0.31170157,9091
0.37244725,9092
0.43159938,9093
0.4222799,9094
0.44169408,9095
0.25211835,9096
0.31254786,9097
0.33311546,9098
0.31572038,9099
0.37336278,9100
0.17277934,9101
0.2232812,9102
0.26756123,9103
0.2551525,9104
0.4042962,9105
0.40004128,9106
0.43563303,9107
0.4833019,9108
0.48993605,9109
0.44091466,9110
0.3374195,9111
0.30596796,9112
0.3503891,9113
0.34671026,9114
0.32969147,9115
0.40028802,9116
0.1661299,9117
0.21886906,9118
0.22704133,9119
0.22719352,9120
0.36605218,9121
0.18964972,9122
0.24823602,9123
0.25415277,9124
0.24949603,9125
0.27531227,9126
0.35656276,9127
0.28249466,9128
0.3333014,9129
0.31721798,9130
0.33035368,9131
0.31022674,9132
0.18253823,9133
0.15898845,9134
0.16129932,9135
0.19559768,9136
0.2930699,9137
0.18051818,9138
0.1906541,9139
0.2090083,9140
0.23978217,9141
0.24088402,9142
0.2541292,9143
0.12804344,9144
0.15559322,9145
0.17049904,9146
0.2316763,9147
0.3448438,9148
0.29744112,9149
0.40311396,9150
0.40776515,9151
0.36402678,9152
0.39815062,9153
0.19945313,9154
0.21737073,9155
0.20499508,9156
0.2079577,9157
0.36498532,9158
0.35530967,9159
0.30829427,9160
0.56687605,9161
0.5665101,9162
0.5202317,9163
0.51585495,9164
0.26924062,9165
0.35698295,9166
0.31982434,9167
0.37227544,9168
0.45347586,9169
0.32174608,9170
0.37166137,9171
0.38491276,9172
0.40607107,9173
0.4328475,9174
0.4130343,9175
0.2880994,9176
0.38391846,9177
0.41083896,9178
0.45300674,9179
0.40653816,9180
0.3152099,9181
0.34781885,9182
0.3202122,9183
0.34078097,9184
0.34753674,9185
0.24084997,9186
0.19421147,9187
0.21930799,9188
0.22175293,9189
0.27547112,9190
0.3599449,9191
0.39075965,9192
0.48224285,9193
0.45644772,9194
0.44936395,9195
0.5255557,9196
0.2774908,9197
0.30322397,9198
0.33776778,9199
0.2947032,9200
0.41689077,9201
0.2820575,9202
0.2737069,9203
0.23574895,9204
0.21595564,9205
0.3197912,9206
0.22840548,9207
0.22199962,9208
0.28530097,9209
0.2584109,9210
0.2690813,9211
0.4150236,9212
0.2545793,9213
0.321144,9214
0.29714757,9215
0.31013116,9216
0.38568828,9217
0.16633968,9218
0.23518501,9219
0.19998658,9220
0.2048418,9221
0.1996328,9222
0.33221903,9223
0.18993752,9224
0.26164445,9225
0.26417655,9226
0.2559627,9227
0.34699118,9228
0.16203524,9229
0.17166434,9230
0.16426398,9231
0.18294472,9232
0.31312272,9233
0.29478455,9234
0.33760604,9235
0.33160782,9236
0.32261756,9237
0.34116498,9238
0.40640965,9239
0.22062603,9240
0.20679232,9241
0.23279391,9242
0.2179609,9243
0.42995143,9244
0.336452,9245
0.42093793,9246
0.42067057,9247
0.3663268,9248
0.38701692,9249
0.30373642,9250
0.21517825,9251
0.2201118,9252
0.37748575,9253
0.6239179,9254
0.549663,9255
0.48572025,9256
0.6089684,9257
0.51196635,9258
0.69241536,9259
0.49633676,9260
0.26009592,9261
0.34176612,9262
0.34271687,9263
0.3758067,9264
0.4059369,9265
0.22060734,9266
0.3164463,9267
0.3199638,9268
0.30045334,9269
0.31187555,9270
0.3268421,9271
0.12891898,9272
0.16891053,9273
0.1944645,9274
0.30540168,9275
0.42113513,9276
0.23542559,9277
0.3603865,9278
0.33300173,9279
0.30505833,9280
0.39267972,9281
0.2806299,9282
0.221339,9283
0.20804957,9284
0.23441926,9285
0.33016542,9286
0.40212303,9287
0.19452283,9288
0.2910365,9289
0.27212593,9290
0.31323814,9291
0.3572791,9292
0.25843602,9293
0.16592804,9294
0.23316021,9295
0.24967277,9296
0.24884275,9297
0.38867816,9298
0.26232162,9299
0.3238312,9300
0.2632666,9301
0.3340496,9302
0.40583882,9303
0.26155734,9304
0.27161407,9305
0.27838597,9306
0.26037532,9307
0.3080547,9308
0.3006473,9309
0.17356622,9310
0.24085724,9311
0.2684297,9312
0.29423898,9313
0.32062256,9314
0.18071674,9315
0.1859361,9316
0.19608653,9317
0.22811946,9318
0.37857157,9319
0.25455725,9320
0.4058581,9321
0.40467784,9322
0.3793765,9323
0.33843878,9324
0.3927041,9325
0.203107,9326
0.22611114,9327
0.27630845,9328
0.29984626,9329
0.4172309,9330
0.3492133,9331
0.5047921,9332
0.5599537,9333
0.5477696,9334
0.49378353,9335
0.4558692,9336
0.21011767,9337
0.2621544,9338
0.25959012,9339
0.31979376,9340
0.44154346,9341
0.2935167,9342
0.32846978,9343
0.34424344,9344
0.38019043,9345
0.40438822,9346
0.39369416,9347
0.27970812,9348
0.40639985,9349
0.48170093,9350
0.47172886,9351
0.3842127,9352
0.23422335,9353
0.321486,9354
0.3086991,9355
0.3652237,9356
0.30959025,9357
0.2506009,9358
0.22731438,9359
0.21371432,9360
0.26609066,9361
0.2853582,9362
0.39866877,9363
0.3850881,9364
0.46269426,9365
0.4865168,9366
0.5372749,9367
0.49982733,9368
0.2568178,9369
0.28030634,9370
0.2874695,9371
0.30738214,9372
0.39496443,9373
0.23176341,9374
0.22398864,9375
0.24758662,9376
0.23846427,9377
0.3104017,9378
0.3901752,9379
0.20286705,9380
0.29695356,9381
0.26946396,9382
0.26085913,9383
0.3779291,9384
0.22087573,9385
0.37308505,9386
0.29786485,9387
0.30359733,9388
0.35024628,9389
0.26216325,9390
0.18877655,9391
0.23710659,9392
0.2122702,9393
0.23376396,9394
0.35791123,9395
0.18802212,9396
0.2675518,9397
0.25295937,9398
0.25156382,9399
0.36492315,9400
0.17234662,9401
0.13837068,9402
0.14284237,9403
0.21388727,9404
0.26026526,9405
0.4266567,9406
0.32119447,9407
0.39197505,9408
0.45368427,9409
0.5179176,9410
0.49540013,9411
0.44447556,9412
0.5694906,9413
0.569967,9414
0.6150816,9415
0.6435761,9416
0.32076806,9417
0.42793575,9418
0.46888608,9419
0.52734816,9420
0.53541017,9421
0.5160297,9422
0.30371284,9423
0.34518662,9424
0.33595565,9425
0.42985746,9426
0.46114078,9427
0.335002,9428
0.41505817,9429
0.38470086,9430
0.4289606,9431
0.5011059,9432
0.30295846,9433
0.37486467,9434
0.38713515,9435
0.44469914,9436
0.48636982,9437
0.42516068,9438
0.2932025,9439
0.324679,9440
0.33370802,9441
0.39771578,9442
0.39501026,9443
0.23487218,9444
0.2277864,9445
0.21529526,9446
0.22745341,9447
0.36151055,9448
0.386752,9449
0.41098163,9450
0.51139987,9451
0.4959546,9452
0.47834677,9453
0.40457907,9454
0.3477183,9455
0.36481044,9456
0.3113911,9457
0.29210135,9458
0.3932238,9459
0.23281702,9460
0.22187765,9461
0.24808215,9462
0.24150388,9463
0.3395395,9464
0.23960356,9465
0.25560096,9466
0.2778985,9467
0.27882448,9468
0.26195732,9469
0.3838121,9470
0.29037958,9471
0.36475372,9472
0.31267643,9473
0.32549578,9474
0.3872368,9475
0.18287885,9476
0.20306003,9477
0.1758343,9478
0.19962935,9479
0.35928684,9480
0.19471829,9481
0.2535908,9482
0.24922957,9483
0.25162646,9484
0.2699375,9485
0.29113516,9486
0.13144077,9487
0.13707742,9488
0.14369257,9489
0.24800758,9490
0.38941118,9491
0.2528767,9492
0.35693976,9493
0.31759107,9494
0.3984136,9495
0.4209485,9496
0.24760924,9497
0.2112332,9498
0.2523432,9499
0.26714465,9500
0.30948353,9501
0.39495766,9502
0.22361018,9503
0.3133363,9504
0.281262,9505
0.2901785,9506
0.31010947,9507
0.25760412,9508
0.15111135,9509
0.18940794,9510
0.22202565,9511
0.29480562,9512
0.32154107,9513
0.29555556,9514
0.24356587,9515
0.3278076,9516
0.30314758,9517
0.38006374,9518
0.18104678,9519
0.28915805,9520
0.27966967,9521
0.30210966,9522
0.37400895,9523
0.2155824,9524
0.21943414,9525
0.19493787,9526
0.2839679,9527
0.36873436,9528
0.35650784,9529
0.16083692,9530
0.19461562,9531
0.2582417,9532
0.2541437,9533
0.36683396,9534
0.3038708,9535
0.3872302,9536
0.3884689,9537
0.34896192,9538
0.3143162,9539
0.33066627,9540
0.16423653,9541
0.37299874,9542
0.4763483,9543
0.34083563,9544
0.38099012,9545
0.24135476,9546
0.29223582,9547
0.27519578,9548
0.2612989,9549
0.27631652,9550
0.30278134,9551
0.13916026,9552
0.15766707,9553
0.18227732,9554
0.33698037,9555
0.28416118,9556
0.28356135,9557
0.32046005,9558
0.3252017,9559
0.3158022,9560
0.36209607,9561
0.22038312,9562
0.31667918,9563
0.3504614,9564
0.328476,9565
0.4127492,9566
0.23257916,9567
0.31364894,9568
0.2860869,9569
0.3079081,9570
0.32259065,9571
0.41676667,9572
0.20875897,9573
0.26923892,9574
0.23533498,9575
0.23035726,9576
0.3349624,9577
0.36954337,9578
0.42878434,9579
0.36400396,9580
0.33769244,9581
0.27891004,9582
0.31605372,9583
0.30430353,9584
0.3196432,9585
0.21920024,9586
0.21767852,9587
0.5291372,9588
0.44641522,9589
0.2704606,9590
0.21306638,9591
0.26292008,9592
0.26106456,9593
0.22512503,9594
0.26564506,9595
0.2556724,9596
0.23199758,9597
0.48298794,9598
0.26221517,9599
0.30449045,9600
0.22404754,9601
0.29990235,9602
0.28222203,9603
0.28475374,9604
0.5946353,9605
0.23677191,9606
0.1672825,9607
0.3341432,9608
0.2896401,9609
0.30920723,9610
0.22881773,9611
0.33373463,9612
0.41763794,9613
0.5182042,9614
0.48425794,9615
0.48157793,9616
0.40665507,9617
0.34611568,9618
0.26325828,9619
0.1758597,9620
0.1679687,9621
0.14254078,9622
0.12958671,9623
0.10441367,9624
0.08868839,9625
0.07787074,9626
0.07435511,9627
0.06463053,9628
0.0686399,9629
0.058677427,9630
0.05633956,9631
0.05503535,9632
0.04694295,9633
0.0408048,9634
0.04352691,9635
0.03894697,9636
0.037020013,9637
0.03539921,9638
0.032492008,9639
0.02956347,9640
0.025572617,9641
0.023029791,9642
0.022275727,9643
0.020229606,9644
0.019291358,9645
0.017024754,9646
0.016337734,9647
0.01433047,9648
0.013614597,9649
0.012781576,9650
0.010972565,9651
0.011506898,9652
0.009878634,9653
0.0089643095,9654
0.008716869,9655
0.008061921,9656
0.0077100047,9657
0.0070298426,9658
0.0069072796,9659
0.0061195963,9660
0.006246435,9661
0.005286651,9662
0.0054544457,9663
0.004412716,9664
0.0043552453,9665
0.0036835007,9666
0.0034057756,9667
0.0032225465,9668
0.003117994,9669
0.0027183837,9670
0.002427694,9671
0.002630165,9672
0.0023511134,9673
0.0019489469,9674
0.0019286753,9675
0.0016622745,9676
0.0017224241,9677
0.0014962081,9678
0.0015263539,9679
0.0013889332,9680
0.0013034214,9681
0.0010342518,9682
0.0010331417,9683
9.548345E-4,9684
9.420597E-4,9685
8.459937E-4,9686
7.227911E-4,9687
6.44343E-4,9688
5.702313E-4,9689
5.480074E-4,9690
5.17029E-4,9691
4.9601187E-4,9692
4.131423E-4,9693
3.7498408E-4,9694
3.3880828E-4,9695
3.1820708E-4,9696
2.6757037E-4,9697
2.4662336E-4,9698
2.1385182E-4,9699
1.892106E-4,9700
1.9960906E-4,9701
1.5938132E-4,9702
1.5504549E-4,9703
1.361982E-4,9704
1.2941987E-4,9705
1.20356344E-4,9706
1.0831294E-4,9707
9.497981E-5,9708
9.176561E-5,9709
7.5223325E-5,9710
4.4040942E-5,9711
3.1022206E-5,9712
3.7609087E-5,9713
2.875109E-5,9714
3.0898733E-5,9715
3.3983342E-5,9716
3.4664805E-5,9717
2.9424136E-5,9718
3.2648717E-5,9719
2.9370194E-5,9720
2.7874634E-5,9721
2.2457838E-5,9722
2.9306539E-5,9723
3.3124805E-5,9724
2.811174E-5,9725
2.3994067E-5,9726
1.8751924E-5,9727
1.659245E-5,9728
0.0,9729
0.0,9730
0.0,9731
0.0,9732
0.0,9733
0.0,9734
0.0,9735
0.0,9736
0.0,9737
0.0,9738
0.0,9739
0.0,9740
0.0,9741
0.0,9742
0.0,9743
0.0,9744
0.0,9745
0.0,9746
0.0,9747
0.0,9748
0.0,9749
0.0,9750
0.0,9751
0.0,9752
0.0,9753
0.0,9754
0.0,9755
0.0,9756
0.0,9757
0.0,9758
0.0,9759
0.0,9760
0.0,9761
0.0,9762
0.0,9763
0.0,9764
0.0,9765
0.0,9766
0.0,9767
0.0,9768
0.0,9769
0.0,9770
