@RELATION 'Music feature'
%rows=1
%columns=9770
%sample_rate=22050
%window_size=512
%step_size=512

@ATTRIBUTE 'Zero-crossing rate' NUMERIC
@ATTRIBUTE WindowNumber NUMERIC

@DATA
0.0,1
0.0,2
0.0,3
0.0,4
0.048828125,5
0.150390625,6
0.154296875,7
0.162109375,8
0.125,9
0.142578125,10
0.2099609375,11
0.267578125,12
0.25390625,13
0.0546875,14
0.13671875,15
0.2109375,16
0.232421875,17
0.24609375,18
0.236328125,19
0.208984375,20
0.078125,21
0.150390625,22
0.2578125,23
0.23046875,24
0.1015625,25
0.05078125,26
0.0390625,27
0.060546875,28
0.279296875,29
0.2578125,30
0.2734375,31
0.24609375,32
0.28125,33
0.2421875,34
0.162109375,35
0.0703125,36
0.056640625,37
0.06640625,38
0.109375,39
0.11328125,40
0.15625,41
0.041015625,42
0.05078125,43
0.16015625,44
0.291015625,45
0.234375,46
0.19140625,47
0.23828125,48
0.279296875,49
0.232421875,50
0.1328125,51
0.140625,52
0.056640625,53
0.08984375,54
0.18359375,55
0.234375,56
0.0859375,57
0.029296875,58
0.02734375,59
0.08203125,60
0.248046875,61
0.294921875,62
0.28125,63
0.310546875,64
0.271484375,65
0.2421875,66
0.251953125,67
0.1640625,68
0.060546875,69
0.1328125,70
0.1640625,71
0.1484375,72
0.08984375,73
0.01171875,74
0.0234375,75
0.017578125,76
0.06640625,77
0.14453125,78
0.185546875,79
0.16015625,80
0.099609375,81
0.193359375,82
0.1796875,83
0.162109375,84
0.03515625,85
0.02734375,86
0.0859375,87
0.19921875,88
0.294921875,89
0.041015625,90
0.111328125,91
0.05078125,92
0.1015625,93
0.154296875,94
0.17578125,95
0.068359375,96
0.048828125,97
0.177734375,98
0.21875,99
0.173828125,100
0.07421875,101
0.15234375,102
0.14453125,103
0.2421875,104
0.18359375,105
0.16015625,106
0.138671875,107
0.064453125,108
0.119140625,109
0.177734375,110
0.169921875,111
0.12890625,112
0.08203125,113
0.0625,114
0.1484375,115
0.2578125,116
0.298828125,117
0.298828125,118
0.30078125,119
0.29296875,120
0.224609375,121
0.1875,122
0.037109375,123
0.07421875,124
0.1328125,125
0.205078125,126
0.16796875,127
0.0703125,128
0.109375,129
0.140625,130
0.23046875,131
0.2265625,132
0.248046875,133
0.30078125,134
0.2578125,135
0.29296875,136
0.25390625,137
0.107421875,138
0.060546875,139
0.015625,140
0.02734375,141
0.09765625,142
0.21875,143
0.044921875,144
0.03515625,145
0.01953125,146
0.041015625,147
0.189453125,148
0.302734375,149
0.275390625,150
0.275390625,151
0.2734375,152
0.26171875,153
0.22265625,154
0.158203125,155
0.203125,156
0.181640625,157
0.23046875,158
0.185546875,159
0.123046875,160
0.0234375,161
0.01953125,162
0.03515625,163
0.119140625,164
0.2109375,165
0.283203125,166
0.25390625,167
0.23046875,168
0.2578125,169
0.189453125,170
0.1328125,171
0.02734375,172
0.02734375,173
0.09765625,174
0.197265625,175
0.212890625,176
0.224609375,177
0.181640625,178
0.181640625,179
0.251953125,180
0.091796875,181
0.046875,182
0.021484375,183
0.078125,184
0.134765625,185
0.046875,186
0.095703125,187
0.15234375,188
0.169921875,189
0.185546875,190
0.208984375,191
0.169921875,192
0.15234375,193
0.068359375,194
0.166015625,195
0.125,196
0.224609375,197
0.095703125,198
0.025390625,199
0.017578125,200
0.033203125,201
0.201171875,202
0.287109375,203
0.240234375,204
0.28515625,205
0.296875,206
0.2421875,207
0.193359375,208
0.044921875,209
0.01953125,210
0.041015625,211
0.173828125,212
0.17578125,213
0.052734375,214
0.01953125,215
0.017578125,216
0.025390625,217
0.23046875,218
0.27734375,219
0.2265625,220
0.205078125,221
0.234375,222
0.19921875,223
0.08984375,224
0.048828125,225
0.0234375,226
0.0390625,227
0.1796875,228
0.119140625,229
0.154296875,230
0.048828125,231
0.208984375,232
0.169921875,233
0.173828125,234
0.2578125,235
0.119140625,236
0.048828125,237
0.095703125,238
0.21484375,239
0.111328125,240
0.080078125,241
0.037109375,242
0.04296875,243
0.12109375,244
0.2109375,245
0.232421875,246
0.306640625,247
0.29296875,248
0.248046875,249
0.169921875,250
0.111328125,251
0.052734375,252
0.099609375,253
0.115234375,254
0.173828125,255
0.08984375,256
0.14453125,257
0.173828125,258
0.173828125,259
0.181640625,260
0.1953125,261
0.26171875,262
0.2890625,263
0.275390625,264
0.25390625,265
0.212890625,266
0.283203125,267
0.23046875,268
0.12109375,269
0.20703125,270
0.083984375,271
0.126953125,272
0.216796875,273
0.30078125,274
0.34375,275
0.146484375,276
0.123046875,277
0.177734375,278
0.193359375,279
0.130859375,280
0.154296875,281
0.111328125,282
0.1640625,283
0.162109375,284
0.298828125,285
0.22265625,286
0.0546875,287
0.1484375,288
0.140625,289
0.14453125,290
0.091796875,291
0.068359375,292
0.146484375,293
0.109375,294
0.060546875,295
0.111328125,296
0.025390625,297
0.080078125,298
0.056640625,299
0.072265625,300
0.166015625,301
0.05078125,302
0.14453125,303
0.197265625,304
0.2734375,305
0.302734375,306
0.08984375,307
0.2109375,308
0.09765625,309
0.134765625,310
0.12109375,311
0.150390625,312
0.052734375,313
0.1171875,314
0.060546875,315
0.109375,316
0.123046875,317
0.0625,318
0.125,319
0.107421875,320
0.173828125,321
0.181640625,322
0.1796875,323
0.103515625,324
0.197265625,325
0.171875,326
0.306640625,327
0.125,328
0.083984375,329
0.095703125,330
0.099609375,331
0.08984375,332
0.169921875,333
0.037109375,334
0.10546875,335
0.177734375,336
0.23828125,337
0.240234375,338
0.0625,339
0.06640625,340
0.064453125,341
0.037109375,342
0.078125,343
0.20703125,344
0.033203125,345
0.181640625,346
0.115234375,347
0.2734375,348
0.236328125,349
0.0703125,350
0.076171875,351
0.06640625,352
0.08984375,353
0.19140625,354
0.1953125,355
0.052734375,356
0.1171875,357
0.103515625,358
0.119140625,359
0.158203125,360
0.03515625,361
0.12890625,362
0.11328125,363
0.111328125,364
0.13671875,365
0.12890625,366
0.056640625,367
0.150390625,368
0.228515625,369
0.251953125,370
0.193359375,371
0.056640625,372
0.16015625,373
0.18359375,374
0.244140625,375
0.24609375,376
0.0625,377
0.08203125,378
0.083984375,379
0.201171875,380
0.26953125,381
0.0546875,382
0.056640625,383
0.05078125,384
0.095703125,385
0.173828125,386
0.171875,387
0.1171875,388
0.15625,389
0.09375,390
0.267578125,391
0.330078125,392
0.046875,393
0.140625,394
0.103515625,395
0.25390625,396
0.17578125,397
0.203125,398
0.068359375,399
0.1328125,400
0.044921875,401
0.12890625,402
0.109375,403
0.109375,404
0.056640625,405
0.1484375,406
0.146484375,407
0.181640625,408
0.185546875,409
0.0625,410
0.09765625,411
0.1875,412
0.177734375,413
0.1796875,414
0.064453125,415
0.0703125,416
0.056640625,417
0.08203125,418
0.07421875,419
0.1484375,420
0.076171875,421
0.150390625,422
0.107421875,423
0.09765625,424
0.205078125,425
0.1015625,426
0.06640625,427
0.072265625,428
0.130859375,429
0.138671875,430
0.2109375,431
0.078125,432
0.19921875,433
0.12890625,434
0.220703125,435
0.287109375,436
0.0546875,437
0.08984375,438
0.162109375,439
0.111328125,440
0.220703125,441
0.1171875,442
0.115234375,443
0.08984375,444
0.185546875,445
0.232421875,446
0.205078125,447
0.076171875,448
0.12109375,449
0.1171875,450
0.25,451
0.197265625,452
0.072265625,453
0.1171875,454
0.111328125,455
0.19140625,456
0.21484375,457
0.056640625,458
0.103515625,459
0.14453125,460
0.197265625,461
0.205078125,462
0.19921875,463
0.0234375,464
0.1171875,465
0.166015625,466
0.158203125,467
0.169921875,468
0.125,469
0.0703125,470
0.123046875,471
0.166015625,472
0.208984375,473
0.228515625,474
0.0703125,475
0.16796875,476
0.091796875,477
0.21875,478
0.25390625,479
0.03515625,480
0.095703125,481
0.05859375,482
0.20703125,483
0.236328125,484
0.21484375,485
0.033203125,486
0.1171875,487
0.12109375,488
0.19921875,489
0.24609375,490
0.04296875,491
0.091796875,492
0.08984375,493
0.146484375,494
0.1796875,495
0.134765625,496
0.068359375,497
0.125,498
0.126953125,499
0.248046875,500
0.099609375,501
0.0546875,502
0.140625,503
0.1640625,504
0.23046875,505
0.201171875,506
0.080078125,507
0.0546875,508
0.103515625,509
0.1328125,510
0.130859375,511
0.09765625,512
0.0390625,513
0.126953125,514
0.150390625,515
0.1953125,516
0.248046875,517
0.048828125,518
0.16015625,519
0.23046875,520
0.2109375,521
0.2734375,522
0.044921875,523
0.10546875,524
0.076171875,525
0.17578125,526
0.10546875,527
0.189453125,528
0.0546875,529
0.1796875,530
0.1875,531
0.15625,532
0.236328125,533
0.046875,534
0.1484375,535
0.03125,536
0.04296875,537
0.18359375,538
0.107421875,539
0.19140625,540
0.123046875,541
0.166015625,542
0.244140625,543
0.087890625,544
0.11328125,545
0.189453125,546
0.20703125,547
0.22265625,548
0.125,549
0.05859375,550
0.1171875,551
0.138671875,552
0.087890625,553
0.171875,554
0.04296875,555
0.12109375,556
0.068359375,557
0.140625,558
0.203125,559
0.119140625,560
0.15625,561
0.177734375,562
0.212890625,563
0.185546875,564
0.185546875,565
0.083984375,566
0.09765625,567
0.076171875,568
0.095703125,569
0.078125,570
0.140625,571
0.087890625,572
0.109375,573
0.107421875,574
0.09765625,575
0.107421875,576
0.056640625,577
0.16015625,578
0.16796875,579
0.21875,580
0.302734375,581
0.080078125,582
0.138671875,583
0.140625,584
0.224609375,585
0.146484375,586
0.13671875,587
0.080078125,588
0.11328125,589
0.060546875,590
0.0703125,591
0.125,592
0.048828125,593
0.1484375,594
0.23046875,595
0.1953125,596
0.2890625,597
0.06640625,598
0.078125,599
0.076171875,600
0.029296875,601
0.109375,602
0.2265625,603
0.0546875,604
0.15234375,605
0.1953125,606
0.19140625,607
0.26171875,608
0.076171875,609
0.087890625,610
0.05078125,611
0.087890625,612
0.162109375,613
0.2109375,614
0.029296875,615
0.1796875,616
0.166015625,617
0.203125,618
0.244140625,619
0.0703125,620
0.080078125,621
0.07421875,622
0.05859375,623
0.125,624
0.146484375,625
0.07421875,626
0.17578125,627
0.123046875,628
0.212890625,629
0.205078125,630
0.060546875,631
0.1796875,632
0.150390625,633
0.1796875,634
0.216796875,635
0.201171875,636
0.0859375,637
0.07421875,638
0.126953125,639
0.177734375,640
0.1328125,641
0.056640625,642
0.072265625,643
0.111328125,644
0.12890625,645
0.19140625,646
0.091796875,647
0.142578125,648
0.166015625,649
0.22265625,650
0.22265625,651
0.11328125,652
0.12890625,653
0.115234375,654
0.076171875,655
0.125,656
0.140625,657
0.09375,658
0.078125,659
0.029296875,660
0.17578125,661
0.203125,662
0.044921875,663
0.123046875,664
0.138671875,665
0.203125,666
0.2578125,667
0.154296875,668
0.1015625,669
0.1796875,670
0.12109375,671
0.28125,672
0.166015625,673
0.056640625,674
0.052734375,675
0.0625,676
0.0703125,677
0.08203125,678
0.083984375,679
0.033203125,680
0.09765625,681
0.15625,682
0.251953125,683
0.185546875,684
0.041015625,685
0.1015625,686
0.076171875,687
0.11328125,688
0.162109375,689
0.10546875,690
0.14453125,691
0.087890625,692
0.17578125,693
0.2265625,694
0.15234375,695
0.056640625,696
0.12890625,697
0.123046875,698
0.189453125,699
0.263671875,700
0.05859375,701
0.091796875,702
0.150390625,703
0.126953125,704
0.134765625,705
0.125,706
0.068359375,707
0.068359375,708
0.076171875,709
0.138671875,710
0.2109375,711
0.05859375,712
0.099609375,713
0.0859375,714
0.12109375,715
0.212890625,716
0.09375,717
0.15625,718
0.103515625,719
0.16796875,720
0.1953125,721
0.158203125,722
0.07421875,723
0.1171875,724
0.130859375,725
0.2109375,726
0.23046875,727
0.03125,728
0.09375,729
0.076171875,730
0.146484375,731
0.232421875,732
0.087890625,733
0.13671875,734
0.205078125,735
0.203125,736
0.236328125,737
0.083984375,738
0.041015625,739
0.076171875,740
0.078125,741
0.197265625,742
0.259765625,743
0.06640625,744
0.1640625,745
0.119140625,746
0.181640625,747
0.248046875,748
0.0625,749
0.068359375,750
0.0625,751
0.1875,752
0.19140625,753
0.125,754
0.1171875,755
0.166015625,756
0.13671875,757
0.173828125,758
0.185546875,759
0.0859375,760
0.146484375,761
0.16796875,762
0.185546875,763
0.283203125,764
0.04296875,765
0.1640625,766
0.095703125,767
0.21484375,768
0.216796875,769
0.201171875,770
0.03515625,771
0.15625,772
0.150390625,773
0.154296875,774
0.220703125,775
0.283203125,776
0.2421875,777
0.23828125,778
0.130859375,779
0.22265625,780
0.248046875,781
0.14453125,782
0.125,783
0.107421875,784
0.158203125,785
0.10546875,786
0.2578125,787
0.26953125,788
0.24609375,789
0.3125,790
0.29296875,791
0.30859375,792
0.255859375,793
0.26171875,794
0.263671875,795
0.26171875,796
0.2578125,797
0.2265625,798
0.193359375,799
0.1875,800
0.23046875,801
0.1796875,802
0.150390625,803
0.158203125,804
0.1953125,805
0.17578125,806
0.171875,807
0.177734375,808
0.171875,809
0.123046875,810
0.0859375,811
0.150390625,812
0.1328125,813
0.201171875,814
0.216796875,815
0.224609375,816
0.20703125,817
0.212890625,818
0.189453125,819
0.234375,820
0.25,821
0.150390625,822
0.203125,823
0.14453125,824
0.130859375,825
0.193359375,826
0.16015625,827
0.1953125,828
0.240234375,829
0.08984375,830
0.201171875,831
0.1796875,832
0.318359375,833
0.298828125,834
0.08203125,835
0.21875,836
0.251953125,837
0.3359375,838
0.330078125,839
0.197265625,840
0.103515625,841
0.1796875,842
0.154296875,843
0.208984375,844
0.087890625,845
0.173828125,846
0.302734375,847
0.16015625,848
0.203125,849
0.146484375,850
0.029296875,851
0.140625,852
0.171875,853
0.099609375,854
0.1640625,855
0.033203125,856
0.09375,857
0.080078125,858
0.083984375,859
0.125,860
0.134765625,861
0.138671875,862
0.16796875,863
0.208984375,864
0.142578125,865
0.15234375,866
0.0703125,867
0.169921875,868
0.15234375,869
0.109375,870
0.18359375,871
0.06640625,872
0.05078125,873
0.080078125,874
0.1015625,875
0.203125,876
0.06640625,877
0.083984375,878
0.06640625,879
0.044921875,880
0.07421875,881
0.166015625,882
0.08203125,883
0.12890625,884
0.1953125,885
0.1640625,886
0.2109375,887
0.03515625,888
0.09765625,889
0.10546875,890
0.099609375,891
0.0390625,892
0.142578125,893
0.064453125,894
0.099609375,895
0.123046875,896
0.107421875,897
0.169921875,898
0.052734375,899
0.06640625,900
0.119140625,901
0.087890625,902
0.15234375,903
0.08203125,904
0.189453125,905
0.21875,906
0.28515625,907
0.205078125,908
0.12890625,909
0.0625,910
0.078125,911
0.126953125,912
0.181640625,913
0.203125,914
0.07421875,915
0.1171875,916
0.138671875,917
0.095703125,918
0.2578125,919
0.087890625,920
0.048828125,921
0.080078125,922
0.060546875,923
0.109375,924
0.111328125,925
0.0234375,926
0.220703125,927
0.119140625,928
0.16796875,929
0.171875,930
0.0625,931
0.1328125,932
0.072265625,933
0.0625,934
0.0859375,935
0.08203125,936
0.072265625,937
0.068359375,938
0.111328125,939
0.140625,940
0.130859375,941
0.05859375,942
0.056640625,943
0.056640625,944
0.0703125,945
0.13671875,946
0.0703125,947
0.1796875,948
0.25390625,949
0.291015625,950
0.15234375,951
0.080078125,952
0.0546875,953
0.10546875,954
0.111328125,955
0.140625,956
0.134765625,957
0.03125,958
0.08984375,959
0.068359375,960
0.166015625,961
0.201171875,962
0.1953125,963
0.033203125,964
0.076171875,965
0.1328125,966
0.109375,967
0.12890625,968
0.08203125,969
0.07421875,970
0.1796875,971
0.17578125,972
0.220703125,973
0.125,974
0.025390625,975
0.08984375,976
0.1015625,977
0.171875,978
0.1953125,979
0.0390625,980
0.05859375,981
0.06640625,982
0.158203125,983
0.169921875,984
0.154296875,985
0.03125,986
0.056640625,987
0.060546875,988
0.087890625,989
0.126953125,990
0.095703125,991
0.12890625,992
0.16015625,993
0.26171875,994
0.232421875,995
0.072265625,996
0.046875,997
0.09765625,998
0.275390625,999
0.287109375,1000
0.03515625,1001
0.119140625,1002
0.109375,1003
0.1953125,1004
0.19140625,1005
0.1484375,1006
0.052734375,1007
0.095703125,1008
0.18359375,1009
0.140625,1010
0.203125,1011
0.095703125,1012
0.13671875,1013
0.203125,1014
0.208984375,1015
0.251953125,1016
0.16015625,1017
0.18359375,1018
0.10546875,1019
0.1171875,1020
0.08203125,1021
0.197265625,1022
0.05859375,1023
0.099609375,1024
0.083984375,1025
0.091796875,1026
0.158203125,1027
0.048828125,1028
0.068359375,1029
0.08984375,1030
0.044921875,1031
0.14453125,1032
0.140625,1033
0.09765625,1034
0.298828125,1035
0.365234375,1036
0.267578125,1037
0.30078125,1038
0.08984375,1039
0.1484375,1040
0.130859375,1041
0.181640625,1042
0.19921875,1043
0.107421875,1044
0.041015625,1045
0.12109375,1046
0.08984375,1047
0.181640625,1048
0.212890625,1049
0.095703125,1050
0.076171875,1051
0.05078125,1052
0.08984375,1053
0.1484375,1054
0.140625,1055
0.107421875,1056
0.14453125,1057
0.201171875,1058
0.150390625,1059
0.18359375,1060
0.064453125,1061
0.14453125,1062
0.15625,1063
0.0546875,1064
0.05859375,1065
0.04296875,1066
0.107421875,1067
0.12890625,1068
0.1640625,1069
0.140625,1070
0.076171875,1071
0.115234375,1072
0.09765625,1073
0.171875,1074
0.162109375,1075
0.162109375,1076
0.087890625,1077
0.125,1078
0.171875,1079
0.1875,1080
0.1875,1081
0.083984375,1082
0.10546875,1083
0.203125,1084
0.265625,1085
0.19921875,1086
0.142578125,1087
0.255859375,1088
0.25390625,1089
0.306640625,1090
0.267578125,1091
0.09375,1092
0.1484375,1093
0.12890625,1094
0.173828125,1095
0.185546875,1096
0.134765625,1097
0.1484375,1098
0.197265625,1099
0.216796875,1100
0.23046875,1101
0.220703125,1102
0.083984375,1103
0.162109375,1104
0.232421875,1105
0.1875,1106
0.18359375,1107
0.146484375,1108
0.087890625,1109
0.177734375,1110
0.224609375,1111
0.27734375,1112
0.205078125,1113
0.080078125,1114
0.13671875,1115
0.15625,1116
0.173828125,1117
0.2109375,1118
0.048828125,1119
0.119140625,1120
0.12890625,1121
0.1796875,1122
0.19140625,1123
0.076171875,1124
0.162109375,1125
0.13671875,1126
0.1953125,1127
0.216796875,1128
0.09375,1129
0.2421875,1130
0.23046875,1131
0.314453125,1132
0.28125,1133
0.162109375,1134
0.15234375,1135
0.166015625,1136
0.173828125,1137
0.212890625,1138
0.193359375,1139
0.123046875,1140
0.158203125,1141
0.212890625,1142
0.240234375,1143
0.296875,1144
0.1171875,1145
0.11328125,1146
0.126953125,1147
0.16796875,1148
0.2109375,1149
0.166015625,1150
0.052734375,1151
0.146484375,1152
0.212890625,1153
0.271484375,1154
0.2421875,1155
0.08203125,1156
0.072265625,1157
0.12109375,1158
0.21875,1159
0.173828125,1160
0.087890625,1161
0.099609375,1162
0.181640625,1163
0.2265625,1164
0.283203125,1165
0.267578125,1166
0.1015625,1167
0.109375,1168
0.20703125,1169
0.201171875,1170
0.177734375,1171
0.14453125,1172
0.099609375,1173
0.265625,1174
0.203125,1175
0.30078125,1176
0.30859375,1177
0.11328125,1178
0.1875,1179
0.27734375,1180
0.24609375,1181
0.248046875,1182
0.14453125,1183
0.125,1184
0.232421875,1185
0.166015625,1186
0.279296875,1187
0.314453125,1188
0.103515625,1189
0.22265625,1190
0.14453125,1191
0.208984375,1192
0.236328125,1193
0.025390625,1194
0.10546875,1195
0.107421875,1196
0.2109375,1197
0.173828125,1198
0.115234375,1199
0.056640625,1200
0.154296875,1201
0.150390625,1202
0.107421875,1203
0.130859375,1204
0.134765625,1205
0.203125,1206
0.177734375,1207
0.18359375,1208
0.173828125,1209
0.095703125,1210
0.154296875,1211
0.16015625,1212
0.158203125,1213
0.193359375,1214
0.15234375,1215
0.0859375,1216
0.171875,1217
0.265625,1218
0.1875,1219
0.240234375,1220
0.0625,1221
0.15625,1222
0.150390625,1223
0.26171875,1224
0.134765625,1225
0.193359375,1226
0.037109375,1227
0.21484375,1228
0.16015625,1229
0.154296875,1230
0.150390625,1231
0.0859375,1232
0.142578125,1233
0.07421875,1234
0.189453125,1235
0.177734375,1236
0.05078125,1237
0.0625,1238
0.11328125,1239
0.068359375,1240
0.072265625,1241
0.09375,1242
0.017578125,1243
0.10546875,1244
0.15625,1245
0.109375,1246
0.16796875,1247
0.06640625,1248
0.2421875,1249
0.1484375,1250
0.162109375,1251
0.17578125,1252
0.06640625,1253
0.158203125,1254
0.0703125,1255
0.22265625,1256
0.140625,1257
0.13671875,1258
0.076171875,1259
0.181640625,1260
0.16796875,1261
0.228515625,1262
0.291015625,1263
0.046875,1264
0.142578125,1265
0.125,1266
0.11328125,1267
0.234375,1268
0.1171875,1269
0.146484375,1270
0.21875,1271
0.240234375,1272
0.212890625,1273
0.181640625,1274
0.037109375,1275
0.15625,1276
0.1796875,1277
0.060546875,1278
0.1875,1279
0.05078125,1280
0.138671875,1281
0.0625,1282
0.14453125,1283
0.1953125,1284
0.25,1285
0.052734375,1286
0.15234375,1287
0.205078125,1288
0.2578125,1289
0.205078125,1290
0.0625,1291
0.140625,1292
0.091796875,1293
0.125,1294
0.240234375,1295
0.140625,1296
0.091796875,1297
0.115234375,1298
0.173828125,1299
0.236328125,1300
0.18359375,1301
0.076171875,1302
0.173828125,1303
0.1640625,1304
0.1875,1305
0.20703125,1306
0.1328125,1307
0.09375,1308
0.177734375,1309
0.162109375,1310
0.205078125,1311
0.134765625,1312
0.162109375,1313
0.15625,1314
0.23828125,1315
0.29296875,1316
0.244140625,1317
0.056640625,1318
0.095703125,1319
0.14453125,1320
0.1796875,1321
0.17578125,1322
0.177734375,1323
0.046875,1324
0.103515625,1325
0.134765625,1326
0.216796875,1327
0.216796875,1328
0.03125,1329
0.05078125,1330
0.04296875,1331
0.078125,1332
0.072265625,1333
0.142578125,1334
0.091796875,1335
0.171875,1336
0.125,1337
0.15625,1338
0.109375,1339
0.05859375,1340
0.115234375,1341
0.0703125,1342
0.205078125,1343
0.205078125,1344
0.048828125,1345
0.125,1346
0.109375,1347
0.14453125,1348
0.220703125,1349
0.103515625,1350
0.0625,1351
0.123046875,1352
0.169921875,1353
0.162109375,1354
0.1875,1355
0.111328125,1356
0.19921875,1357
0.16015625,1358
0.130859375,1359
0.20703125,1360
0.046875,1361
0.1484375,1362
0.158203125,1363
0.080078125,1364
0.1328125,1365
0.12890625,1366
0.0625,1367
0.09765625,1368
0.091796875,1369
0.15234375,1370
0.2421875,1371
0.03515625,1372
0.11328125,1373
0.140625,1374
0.1875,1375
0.310546875,1376
0.091796875,1377
0.109375,1378
0.119140625,1379
0.11328125,1380
0.09375,1381
0.146484375,1382
0.1015625,1383
0.18359375,1384
0.185546875,1385
0.181640625,1386
0.21875,1387
0.03125,1388
0.1875,1389
0.111328125,1390
0.21875,1391
0.2890625,1392
0.0625,1393
0.13671875,1394
0.095703125,1395
0.259765625,1396
0.19140625,1397
0.16015625,1398
0.0703125,1399
0.09765625,1400
0.15234375,1401
0.154296875,1402
0.154296875,1403
0.03515625,1404
0.1640625,1405
0.1640625,1406
0.060546875,1407
0.140625,1408
0.10546875,1409
0.064453125,1410
0.1328125,1411
0.166015625,1412
0.177734375,1413
0.158203125,1414
0.05859375,1415
0.177734375,1416
0.1640625,1417
0.185546875,1418
0.181640625,1419
0.07421875,1420
0.19921875,1421
0.125,1422
0.17578125,1423
0.2265625,1424
0.09375,1425
0.1015625,1426
0.12890625,1427
0.259765625,1428
0.16015625,1429
0.11328125,1430
0.2265625,1431
0.248046875,1432
0.203125,1433
0.24609375,1434
0.17578125,1435
0.14453125,1436
0.169921875,1437
0.201171875,1438
0.197265625,1439
0.169921875,1440
0.111328125,1441
0.17578125,1442
0.193359375,1443
0.265625,1444
0.2890625,1445
0.080078125,1446
0.1328125,1447
0.11328125,1448
0.1640625,1449
0.15625,1450
0.142578125,1451
0.056640625,1452
0.13671875,1453
0.09765625,1454
0.15625,1455
0.25390625,1456
0.03125,1457
0.11328125,1458
0.1484375,1459
0.162109375,1460
0.181640625,1461
0.142578125,1462
0.103515625,1463
0.1484375,1464
0.16796875,1465
0.16796875,1466
0.150390625,1467
0.11328125,1468
0.171875,1469
0.25,1470
0.265625,1471
0.201171875,1472
0.0859375,1473
0.1953125,1474
0.189453125,1475
0.2265625,1476
0.255859375,1477
0.056640625,1478
0.2265625,1479
0.162109375,1480
0.185546875,1481
0.20703125,1482
0.203125,1483
0.1796875,1484
0.220703125,1485
0.208984375,1486
0.228515625,1487
0.1796875,1488
0.12109375,1489
0.15234375,1490
0.15625,1491
0.185546875,1492
0.154296875,1493
0.126953125,1494
0.064453125,1495
0.1484375,1496
0.17578125,1497
0.251953125,1498
0.20703125,1499
0.0625,1500
0.158203125,1501
0.107421875,1502
0.189453125,1503
0.212890625,1504
0.158203125,1505
0.134765625,1506
0.162109375,1507
0.193359375,1508
0.208984375,1509
0.177734375,1510
0.095703125,1511
0.1875,1512
0.177734375,1513
0.21875,1514
0.181640625,1515
0.083984375,1516
0.095703125,1517
0.09765625,1518
0.146484375,1519
0.228515625,1520
0.2265625,1521
0.158203125,1522
0.1171875,1523
0.24609375,1524
0.203125,1525
0.19921875,1526
0.16015625,1527
0.056640625,1528
0.1953125,1529
0.208984375,1530
0.236328125,1531
0.19921875,1532
0.083984375,1533
0.166015625,1534
0.18359375,1535
0.1796875,1536
0.1640625,1537
0.142578125,1538
0.107421875,1539
0.21875,1540
0.1875,1541
0.216796875,1542
0.09765625,1543
0.078125,1544
0.130859375,1545
0.140625,1546
0.1640625,1547
0.068359375,1548
0.1640625,1549
0.1953125,1550
0.046875,1551
0.177734375,1552
0.169921875,1553
0.185546875,1554
0.08203125,1555
0.16796875,1556
0.083984375,1557
0.095703125,1558
0.1484375,1559
0.16796875,1560
0.15234375,1561
0.203125,1562
0.2265625,1563
0.25,1564
0.220703125,1565
0.228515625,1566
0.234375,1567
0.228515625,1568
0.17578125,1569
0.166015625,1570
0.1796875,1571
0.099609375,1572
0.140625,1573
0.1328125,1574
0.12890625,1575
0.09765625,1576
0.076171875,1577
0.1640625,1578
0.14453125,1579
0.208984375,1580
0.2109375,1581
0.216796875,1582
0.1796875,1583
0.228515625,1584
0.171875,1585
0.15234375,1586
0.171875,1587
0.115234375,1588
0.115234375,1589
0.12890625,1590
0.2265625,1591
0.18359375,1592
0.244140625,1593
0.296875,1594
0.306640625,1595
0.291015625,1596
0.275390625,1597
0.427734375,1598
0.435546875,1599
0.421875,1600
0.548828125,1601
0.365234375,1602
0.1953125,1603
0.193359375,1604
0.078125,1605
0.177734375,1606
0.21484375,1607
0.275390625,1608
0.150390625,1609
0.130859375,1610
0.1875,1611
0.14453125,1612
0.17578125,1613
0.20703125,1614
0.111328125,1615
0.18359375,1616
0.171875,1617
0.17578125,1618
0.099609375,1619
0.09765625,1620
0.130859375,1621
0.140625,1622
0.193359375,1623
0.1796875,1624
0.08984375,1625
0.18359375,1626
0.111328125,1627
0.16015625,1628
0.169921875,1629
0.080078125,1630
0.0546875,1631
0.099609375,1632
0.109375,1633
0.119140625,1634
0.181640625,1635
0.08984375,1636
0.146484375,1637
0.181640625,1638
0.1640625,1639
0.126953125,1640
0.08203125,1641
0.12109375,1642
0.115234375,1643
0.14453125,1644
0.19921875,1645
0.03515625,1646
0.154296875,1647
0.046875,1648
0.181640625,1649
0.1171875,1650
0.13671875,1651
0.048828125,1652
0.10546875,1653
0.162109375,1654
0.203125,1655
0.12890625,1656
0.10546875,1657
0.1796875,1658
0.193359375,1659
0.138671875,1660
0.228515625,1661
0.05078125,1662
0.1171875,1663
0.064453125,1664
0.0703125,1665
0.08203125,1666
0.03125,1667
0.115234375,1668
0.12890625,1669
0.1640625,1670
0.13671875,1671
0.16015625,1672
0.033203125,1673
0.07421875,1674
0.0859375,1675
0.1015625,1676
0.154296875,1677
0.103515625,1678
0.140625,1679
0.130859375,1680
0.146484375,1681
0.2421875,1682
0.07421875,1683
0.115234375,1684
0.138671875,1685
0.064453125,1686
0.205078125,1687
0.142578125,1688
0.080078125,1689
0.19140625,1690
0.2265625,1691
0.283203125,1692
0.21875,1693
0.064453125,1694
0.203125,1695
0.134765625,1696
0.1171875,1697
0.208984375,1698
0.10546875,1699
0.169921875,1700
0.15625,1701
0.1875,1702
0.21484375,1703
0.12890625,1704
0.1328125,1705
0.140625,1706
0.271484375,1707
0.265625,1708
0.08984375,1709
0.10546875,1710
0.123046875,1711
0.091796875,1712
0.12890625,1713
0.16796875,1714
0.052734375,1715
0.08984375,1716
0.087890625,1717
0.13671875,1718
0.181640625,1719
0.1171875,1720
0.171875,1721
0.17578125,1722
0.181640625,1723
0.21875,1724
0.134765625,1725
0.078125,1726
0.1328125,1727
0.12890625,1728
0.162109375,1729
0.212890625,1730
0.052734375,1731
0.12890625,1732
0.037109375,1733
0.140625,1734
0.171875,1735
0.046875,1736
0.177734375,1737
0.0859375,1738
0.203125,1739
0.21484375,1740
0.087890625,1741
0.1796875,1742
0.212890625,1743
0.236328125,1744
0.201171875,1745
0.166015625,1746
0.0625,1747
0.119140625,1748
0.083984375,1749
0.140625,1750
0.103515625,1751
0.03125,1752
0.173828125,1753
0.078125,1754
0.12890625,1755
0.15625,1756
0.107421875,1757
0.033203125,1758
0.06640625,1759
0.078125,1760
0.1328125,1761
0.154296875,1762
0.1015625,1763
0.109375,1764
0.1640625,1765
0.193359375,1766
0.2421875,1767
0.1640625,1768
0.06640625,1769
0.134765625,1770
0.1171875,1771
0.162109375,1772
0.181640625,1773
0.05859375,1774
0.203125,1775
0.130859375,1776
0.193359375,1777
0.2421875,1778
0.111328125,1779
0.1171875,1780
0.15234375,1781
0.291015625,1782
0.361328125,1783
0.345703125,1784
0.10546875,1785
0.26953125,1786
0.16796875,1787
0.275390625,1788
0.138671875,1789
0.05859375,1790
0.12890625,1791
0.19921875,1792
0.185546875,1793
0.201171875,1794
0.1875,1795
0.072265625,1796
0.2421875,1797
0.138671875,1798
0.173828125,1799
0.1640625,1800
0.03515625,1801
0.046875,1802
0.072265625,1803
0.10546875,1804
0.212890625,1805
0.080078125,1806
0.13671875,1807
0.162109375,1808
0.15625,1809
0.162109375,1810
0.1640625,1811
0.044921875,1812
0.16015625,1813
0.10546875,1814
0.18359375,1815
0.177734375,1816
0.09375,1817
0.125,1818
0.12109375,1819
0.146484375,1820
0.1640625,1821
0.1171875,1822
0.046875,1823
0.12109375,1824
0.111328125,1825
0.1484375,1826
0.103515625,1827
0.033203125,1828
0.140625,1829
0.162109375,1830
0.173828125,1831
0.2265625,1832
0.0546875,1833
0.087890625,1834
0.087890625,1835
0.16015625,1836
0.15234375,1837
0.13671875,1838
0.130859375,1839
0.107421875,1840
0.185546875,1841
0.107421875,1842
0.2265625,1843
0.037109375,1844
0.09765625,1845
0.052734375,1846
0.091796875,1847
0.158203125,1848
0.087890625,1849
0.123046875,1850
0.146484375,1851
0.216796875,1852
0.185546875,1853
0.197265625,1854
0.041015625,1855
0.080078125,1856
0.09375,1857
0.12890625,1858
0.220703125,1859
0.087890625,1860
0.212890625,1861
0.146484375,1862
0.310546875,1863
0.298828125,1864
0.244140625,1865
0.04296875,1866
0.16015625,1867
0.138671875,1868
0.185546875,1869
0.125,1870
0.0625,1871
0.1328125,1872
0.171875,1873
0.21875,1874
0.107421875,1875
0.166015625,1876
0.099609375,1877
0.16015625,1878
0.205078125,1879
0.248046875,1880
0.1640625,1881
0.0625,1882
0.16015625,1883
0.140625,1884
0.13671875,1885
0.1640625,1886
0.0546875,1887
0.060546875,1888
0.15234375,1889
0.171875,1890
0.1875,1891
0.083984375,1892
0.146484375,1893
0.2109375,1894
0.19921875,1895
0.2265625,1896
0.169921875,1897
0.04296875,1898
0.05078125,1899
0.08203125,1900
0.126953125,1901
0.19921875,1902
0.02734375,1903
0.060546875,1904
0.0703125,1905
0.185546875,1906
0.181640625,1907
0.083984375,1908
0.123046875,1909
0.111328125,1910
0.1484375,1911
0.240234375,1912
0.115234375,1913
0.12109375,1914
0.150390625,1915
0.158203125,1916
0.138671875,1917
0.177734375,1918
0.0390625,1919
0.109375,1920
0.07421875,1921
0.078125,1922
0.078125,1923
0.033203125,1924
0.140625,1925
0.095703125,1926
0.0859375,1927
0.181640625,1928
0.068359375,1929
0.06640625,1930
0.099609375,1931
0.109375,1932
0.28125,1933
0.12890625,1934
0.05078125,1935
0.1640625,1936
0.22265625,1937
0.25,1938
0.25,1939
0.091796875,1940
0.140625,1941
0.23046875,1942
0.2734375,1943
0.353515625,1944
0.14453125,1945
0.140625,1946
0.19140625,1947
0.26953125,1948
0.26953125,1949
0.115234375,1950
0.109375,1951
0.16796875,1952
0.15234375,1953
0.166015625,1954
0.1328125,1955
0.111328125,1956
0.166015625,1957
0.19140625,1958
0.203125,1959
0.181640625,1960
0.126953125,1961
0.15625,1962
0.162109375,1963
0.111328125,1964
0.208984375,1965
0.224609375,1966
0.087890625,1967
0.15625,1968
0.1328125,1969
0.171875,1970
0.181640625,1971
0.08984375,1972
0.06640625,1973
0.0625,1974
0.11328125,1975
0.1953125,1976
0.095703125,1977
0.14453125,1978
0.1953125,1979
0.20703125,1980
0.17578125,1981
0.162109375,1982
0.076171875,1983
0.095703125,1984
0.078125,1985
0.0390625,1986
0.15625,1987
0.068359375,1988
0.078125,1989
0.08984375,1990
0.111328125,1991
0.201171875,1992
0.189453125,1993
0.0390625,1994
0.15234375,1995
0.126953125,1996
0.212890625,1997
0.18359375,1998
0.0546875,1999
0.1640625,2000
0.16015625,2001
0.19140625,2002
0.259765625,2003
0.095703125,2004
0.046875,2005
0.064453125,2006
0.125,2007
0.1640625,2008
0.173828125,2009
0.044921875,2010
0.15234375,2011
0.1015625,2012
0.234375,2013
0.24609375,2014
0.08203125,2015
0.03125,2016
0.078125,2017
0.095703125,2018
0.201171875,2019
0.1484375,2020
0.119140625,2021
0.205078125,2022
0.19921875,2023
0.205078125,2024
0.197265625,2025
0.07421875,2026
0.12890625,2027
0.126953125,2028
0.123046875,2029
0.234375,2030
0.072265625,2031
0.146484375,2032
0.107421875,2033
0.205078125,2034
0.16015625,2035
0.1640625,2036
0.037109375,2037
0.125,2038
0.109375,2039
0.1328125,2040
0.1953125,2041
0.123046875,2042
0.11328125,2043
0.083984375,2044
0.103515625,2045
0.197265625,2046
0.08984375,2047
0.13671875,2048
0.142578125,2049
0.1875,2050
0.201171875,2051
0.16015625,2052
0.111328125,2053
0.130859375,2054
0.080078125,2055
0.1796875,2056
0.265625,2057
0.041015625,2058
0.07421875,2059
0.064453125,2060
0.22265625,2061
0.20703125,2062
0.103515625,2063
0.103515625,2064
0.271484375,2065
0.2109375,2066
0.15234375,2067
0.1484375,2068
0.048828125,2069
0.29296875,2070
0.154296875,2071
0.212890625,2072
0.1796875,2073
0.056640625,2074
0.1953125,2075
0.142578125,2076
0.189453125,2077
0.177734375,2078
0.134765625,2079
0.095703125,2080
0.09765625,2081
0.154296875,2082
0.0859375,2083
0.115234375,2084
0.060546875,2085
0.11328125,2086
0.1015625,2087
0.103515625,2088
0.162109375,2089
0.05859375,2090
0.1015625,2091
0.126953125,2092
0.140625,2093
0.1171875,2094
0.099609375,2095
0.083984375,2096
0.07421875,2097
0.064453125,2098
0.162109375,2099
0.208984375,2100
0.02734375,2101
0.10546875,2102
0.08203125,2103
0.166015625,2104
0.138671875,2105
0.044921875,2106
0.2109375,2107
0.1796875,2108
0.181640625,2109
0.208984375,2110
0.083984375,2111
0.1015625,2112
0.091796875,2113
0.14453125,2114
0.2265625,2115
0.107421875,2116
0.224609375,2117
0.2421875,2118
0.275390625,2119
0.443359375,2120
0.28515625,2121
0.099609375,2122
0.20703125,2123
0.173828125,2124
0.212890625,2125
0.134765625,2126
0.130859375,2127
0.130859375,2128
0.095703125,2129
0.05859375,2130
0.12890625,2131
0.22265625,2132
0.046875,2133
0.12890625,2134
0.14453125,2135
0.197265625,2136
0.21875,2137
0.046875,2138
0.1484375,2139
0.048828125,2140
0.236328125,2141
0.193359375,2142
0.150390625,2143
0.076171875,2144
0.033203125,2145
0.0546875,2146
0.099609375,2147
0.20703125,2148
0.056640625,2149
0.1875,2150
0.1484375,2151
0.208984375,2152
0.24609375,2153
0.08984375,2154
0.078125,2155
0.041015625,2156
0.099609375,2157
0.171875,2158
0.125,2159
0.025390625,2160
0.18359375,2161
0.13671875,2162
0.154296875,2163
0.318359375,2164
0.07421875,2165
0.138671875,2166
0.1484375,2167
0.12109375,2168
0.248046875,2169
0.07421875,2170
0.130859375,2171
0.1484375,2172
0.103515625,2173
0.111328125,2174
0.203125,2175
0.080078125,2176
0.072265625,2177
0.046875,2178
0.037109375,2179
0.0859375,2180
0.017578125,2181
0.146484375,2182
0.166015625,2183
0.181640625,2184
0.185546875,2185
0.083984375,2186
0.078125,2187
0.037109375,2188
0.123046875,2189
0.158203125,2190
0.205078125,2191
0.0546875,2192
0.13671875,2193
0.19140625,2194
0.2265625,2195
0.255859375,2196
0.048828125,2197
0.134765625,2198
0.0703125,2199
0.19140625,2200
0.21484375,2201
0.15625,2202
0.072265625,2203
0.169921875,2204
0.197265625,2205
0.25,2206
0.193359375,2207
0.0390625,2208
0.11328125,2209
0.10546875,2210
0.154296875,2211
0.1328125,2212
0.07421875,2213
0.18359375,2214
0.0859375,2215
0.091796875,2216
0.126953125,2217
0.158203125,2218
0.046875,2219
0.15625,2220
0.1328125,2221
0.208984375,2222
0.146484375,2223
0.052734375,2224
0.0625,2225
0.056640625,2226
0.068359375,2227
0.193359375,2228
0.12890625,2229
0.08203125,2230
0.056640625,2231
0.111328125,2232
0.173828125,2233
0.154296875,2234
0.06640625,2235
0.130859375,2236
0.279296875,2237
0.263671875,2238
0.240234375,2239
0.03515625,2240
0.13671875,2241
0.123046875,2242
0.193359375,2243
0.1875,2244
0.05078125,2245
0.150390625,2246
0.05859375,2247
0.19140625,2248
0.201171875,2249
0.236328125,2250
0.056640625,2251
0.11328125,2252
0.099609375,2253
0.060546875,2254
0.232421875,2255
0.05078125,2256
0.125,2257
0.119140625,2258
0.1640625,2259
0.212890625,2260
0.12109375,2261
0.08203125,2262
0.171875,2263
0.166015625,2264
0.1640625,2265
0.13671875,2266
0.0390625,2267
0.08203125,2268
0.115234375,2269
0.216796875,2270
0.158203125,2271
0.13671875,2272
0.03515625,2273
0.060546875,2274
0.052734375,2275
0.138671875,2276
0.181640625,2277
0.060546875,2278
0.19140625,2279
0.173828125,2280
0.23828125,2281
0.240234375,2282
0.048828125,2283
0.0390625,2284
0.140625,2285
0.140625,2286
0.2265625,2287
0.111328125,2288
0.087890625,2289
0.21875,2290
0.197265625,2291
0.216796875,2292
0.236328125,2293
0.03515625,2294
0.1484375,2295
0.076171875,2296
0.1640625,2297
0.24609375,2298
0.05078125,2299
0.107421875,2300
0.1640625,2301
0.138671875,2302
0.140625,2303
0.111328125,2304
0.095703125,2305
0.14453125,2306
0.181640625,2307
0.1953125,2308
0.189453125,2309
0.072265625,2310
0.138671875,2311
0.09765625,2312
0.19140625,2313
0.203125,2314
0.01953125,2315
0.072265625,2316
0.115234375,2317
0.109375,2318
0.19140625,2319
0.140625,2320
0.09765625,2321
0.138671875,2322
0.205078125,2323
0.193359375,2324
0.1640625,2325
0.044921875,2326
0.140625,2327
0.138671875,2328
0.1015625,2329
0.154296875,2330
0.091796875,2331
0.0703125,2332
0.130859375,2333
0.130859375,2334
0.134765625,2335
0.22265625,2336
0.060546875,2337
0.11328125,2338
0.12890625,2339
0.15625,2340
0.205078125,2341
0.06640625,2342
0.216796875,2343
0.1640625,2344
0.16796875,2345
0.28125,2346
0.099609375,2347
0.08203125,2348
0.064453125,2349
0.12109375,2350
0.1953125,2351
0.185546875,2352
0.037109375,2353
0.1171875,2354
0.169921875,2355
0.21875,2356
0.208984375,2357
0.095703125,2358
0.044921875,2359
0.029296875,2360
0.05859375,2361
0.123046875,2362
0.134765625,2363
0.1015625,2364
0.142578125,2365
0.169921875,2366
0.212890625,2367
0.212890625,2368
0.05859375,2369
0.072265625,2370
0.0859375,2371
0.17578125,2372
0.203125,2373
0.04296875,2374
0.15625,2375
0.06640625,2376
0.185546875,2377
0.208984375,2378
0.224609375,2379
0.041015625,2380
0.10546875,2381
0.103515625,2382
0.080078125,2383
0.1640625,2384
0.03515625,2385
0.11328125,2386
0.10546875,2387
0.119140625,2388
0.115234375,2389
0.1953125,2390
0.056640625,2391
0.125,2392
0.15625,2393
0.140625,2394
0.1328125,2395
0.041015625,2396
0.09375,2397
0.103515625,2398
0.10546875,2399
0.13671875,2400
0.13671875,2401
0.076171875,2402
0.119140625,2403
0.142578125,2404
0.169921875,2405
0.15625,2406
0.103515625,2407
0.17578125,2408
0.138671875,2409
0.134765625,2410
0.1875,2411
0.0234375,2412
0.0703125,2413
0.0859375,2414
0.1484375,2415
0.248046875,2416
0.09765625,2417
0.078125,2418
0.126953125,2419
0.1640625,2420
0.201171875,2421
0.240234375,2422
0.009765625,2423
0.12890625,2424
0.048828125,2425
0.10546875,2426
0.205078125,2427
0.0703125,2428
0.078125,2429
0.08203125,2430
0.20703125,2431
0.162109375,2432
0.126953125,2433
0.068359375,2434
0.09765625,2435
0.11328125,2436
0.11328125,2437
0.1640625,2438
0.01953125,2439
0.0546875,2440
0.107421875,2441
0.18359375,2442
0.201171875,2443
0.15625,2444
0.01953125,2445
0.076171875,2446
0.126953125,2447
0.119140625,2448
0.171875,2449
0.072265625,2450
0.185546875,2451
0.12109375,2452
0.205078125,2453
0.17578125,2454
0.0625,2455
0.072265625,2456
0.072265625,2457
0.138671875,2458
0.205078125,2459
0.07421875,2460
0.103515625,2461
0.166015625,2462
0.19921875,2463
0.2421875,2464
0.255859375,2465
0.056640625,2466
0.07421875,2467
0.05078125,2468
0.07421875,2469
0.134765625,2470
0.068359375,2471
0.15625,2472
0.17578125,2473
0.212890625,2474
0.228515625,2475
0.14453125,2476
0.0546875,2477
0.11328125,2478
0.15234375,2479
0.2421875,2480
0.14453125,2481
0.03515625,2482
0.1015625,2483
0.072265625,2484
0.13671875,2485
0.19921875,2486
0.119140625,2487
0.064453125,2488
0.087890625,2489
0.060546875,2490
0.201171875,2491
0.181640625,2492
0.115234375,2493
0.140625,2494
0.189453125,2495
0.21484375,2496
0.240234375,2497
0.0546875,2498
0.05078125,2499
0.08203125,2500
0.171875,2501
0.220703125,2502
0.05078125,2503
0.078125,2504
0.111328125,2505
0.103515625,2506
0.275390625,2507
0.138671875,2508
0.044921875,2509
0.099609375,2510
0.111328125,2511
0.203125,2512
0.21875,2513
0.06640625,2514
0.12109375,2515
0.10546875,2516
0.14453125,2517
0.21484375,2518
0.1484375,2519
0.029296875,2520
0.0546875,2521
0.056640625,2522
0.134765625,2523
0.173828125,2524
0.05078125,2525
0.140625,2526
0.16015625,2527
0.15625,2528
0.177734375,2529
0.23046875,2530
0.04296875,2531
0.029296875,2532
0.029296875,2533
0.0546875,2534
0.181640625,2535
0.08203125,2536
0.150390625,2537
0.14453125,2538
0.19921875,2539
0.15234375,2540
0.134765625,2541
0.048828125,2542
0.09765625,2543
0.1015625,2544
0.1640625,2545
0.263671875,2546
0.0625,2547
0.130859375,2548
0.162109375,2549
0.162109375,2550
0.1796875,2551
0.11328125,2552
0.04296875,2553
0.044921875,2554
0.130859375,2555
0.171875,2556
0.123046875,2557
0.07421875,2558
0.07421875,2559
0.064453125,2560
0.134765625,2561
0.26171875,2562
0.044921875,2563
0.1171875,2564
0.09375,2565
0.189453125,2566
0.18359375,2567
0.193359375,2568
0.033203125,2569
0.052734375,2570
0.109375,2571
0.140625,2572
0.12890625,2573
0.041015625,2574
0.033203125,2575
0.0546875,2576
0.1015625,2577
0.181640625,2578
0.072265625,2579
0.138671875,2580
0.13671875,2581
0.193359375,2582
0.21875,2583
0.08203125,2584
0.08203125,2585
0.06640625,2586
0.12890625,2587
0.234375,2588
0.208984375,2589
0.029296875,2590
0.15234375,2591
0.14453125,2592
0.1796875,2593
0.224609375,2594
0.11328125,2595
0.0546875,2596
0.083984375,2597
0.08984375,2598
0.099609375,2599
0.138671875,2600
0.076171875,2601
0.12890625,2602
0.205078125,2603
0.208984375,2604
0.154296875,2605
0.064453125,2606
0.15234375,2607
0.154296875,2608
0.18359375,2609
0.263671875,2610
0.0625,2611
0.0625,2612
0.072265625,2613
0.130859375,2614
0.2578125,2615
0.076171875,2616
0.08984375,2617
0.091796875,2618
0.0390625,2619
0.12109375,2620
0.169921875,2621
0.068359375,2622
0.193359375,2623
0.125,2624
0.19140625,2625
0.21484375,2626
0.04296875,2627
0.08984375,2628
0.044921875,2629
0.109375,2630
0.09375,2631
0.072265625,2632
0.052734375,2633
0.150390625,2634
0.255859375,2635
0.283203125,2636
0.115234375,2637
0.037109375,2638
0.11328125,2639
0.2109375,2640
0.11328125,2641
0.234375,2642
0.080078125,2643
0.111328125,2644
0.1484375,2645
0.1484375,2646
0.171875,2647
0.05078125,2648
0.115234375,2649
0.09765625,2650
0.166015625,2651
0.193359375,2652
0.1484375,2653
0.05859375,2654
0.109375,2655
0.0625,2656
0.048828125,2657
0.140625,2658
0.046875,2659
0.0625,2660
0.078125,2661
0.052734375,2662
0.125,2663
0.1015625,2664
0.080078125,2665
0.23046875,2666
0.181640625,2667
0.150390625,2668
0.201171875,2669
0.037109375,2670
0.0703125,2671
0.09765625,2672
0.130859375,2673
0.18359375,2674
0.037109375,2675
0.0703125,2676
0.078125,2677
0.048828125,2678
0.0625,2679
0.06640625,2680
0.05859375,2681
0.103515625,2682
0.126953125,2683
0.1328125,2684
0.146484375,2685
0.091796875,2686
0.1953125,2687
0.126953125,2688
0.078125,2689
0.16796875,2690
0.046875,2691
0.158203125,2692
0.0703125,2693
0.0625,2694
0.1015625,2695
0.087890625,2696
0.07421875,2697
0.068359375,2698
0.2109375,2699
0.24609375,2700
0.279296875,2701
0.078125,2702
0.037109375,2703
0.04296875,2704
0.033203125,2705
0.076171875,2706
0.103515625,2707
0.080078125,2708
0.193359375,2709
0.22265625,2710
0.22265625,2711
0.201171875,2712
0.07421875,2713
0.146484375,2714
0.166015625,2715
0.150390625,2716
0.2421875,2717
0.091796875,2718
0.12109375,2719
0.115234375,2720
0.19140625,2721
0.275390625,2722
0.189453125,2723
0.048828125,2724
0.126953125,2725
0.1015625,2726
0.17578125,2727
0.25390625,2728
0.06640625,2729
0.138671875,2730
0.14453125,2731
0.16015625,2732
0.2421875,2733
0.140625,2734
0.083984375,2735
0.15625,2736
0.20703125,2737
0.2734375,2738
0.22265625,2739
0.03515625,2740
0.11328125,2741
0.0859375,2742
0.1875,2743
0.271484375,2744
0.0859375,2745
0.0546875,2746
0.064453125,2747
0.07421875,2748
0.0859375,2749
0.1640625,2750
0.078125,2751
0.14453125,2752
0.189453125,2753
0.234375,2754
0.287109375,2755
0.0390625,2756
0.05859375,2757
0.080078125,2758
0.16796875,2759
0.21484375,2760
0.1328125,2761
0.087890625,2762
0.154296875,2763
0.166015625,2764
0.2265625,2765
0.19140625,2766
0.03125,2767
0.11328125,2768
0.087890625,2769
0.083984375,2770
0.169921875,2771
0.06640625,2772
0.15234375,2773
0.15625,2774
0.15234375,2775
0.189453125,2776
0.109375,2777
0.11328125,2778
0.150390625,2779
0.1796875,2780
0.25,2781
0.240234375,2782
0.029296875,2783
0.10546875,2784
0.115234375,2785
0.087890625,2786
0.201171875,2787
0.09375,2788
0.05078125,2789
0.025390625,2790
0.064453125,2791
0.138671875,2792
0.13671875,2793
0.08203125,2794
0.208984375,2795
0.16015625,2796
0.197265625,2797
0.203125,2798
0.18359375,2799
0.10546875,2800
0.123046875,2801
0.15234375,2802
0.19921875,2803
0.154296875,2804
0.091796875,2805
0.234375,2806
0.31640625,2807
0.28515625,2808
0.337890625,2809
0.271484375,2810
0.310546875,2811
0.328125,2812
0.28515625,2813
0.26953125,2814
0.201171875,2815
0.212890625,2816
0.205078125,2817
0.21875,2818
0.220703125,2819
0.185546875,2820
0.19140625,2821
0.185546875,2822
0.19921875,2823
0.130859375,2824
0.16015625,2825
0.146484375,2826
0.15234375,2827
0.1328125,2828
0.171875,2829
0.15625,2830
0.169921875,2831
0.12109375,2832
0.171875,2833
0.181640625,2834
0.154296875,2835
0.2421875,2836
0.173828125,2837
0.197265625,2838
0.220703125,2839
0.25,2840
0.2265625,2841
0.16015625,2842
0.171875,2843
0.2421875,2844
0.228515625,2845
0.216796875,2846
0.2265625,2847
0.078125,2848
0.140625,2849
0.236328125,2850
0.234375,2851
0.212890625,2852
0.078125,2853
0.20703125,2854
0.220703125,2855
0.287109375,2856
0.24609375,2857
0.189453125,2858
0.107421875,2859
0.173828125,2860
0.193359375,2861
0.255859375,2862
0.1484375,2863
0.107421875,2864
0.138671875,2865
0.1640625,2866
0.10546875,2867
0.119140625,2868
0.044921875,2869
0.125,2870
0.1484375,2871
0.11328125,2872
0.13671875,2873
0.046875,2874
0.1328125,2875
0.103515625,2876
0.18359375,2877
0.171875,2878
0.10546875,2879
0.11328125,2880
0.1171875,2881
0.150390625,2882
0.28125,2883
0.056640625,2884
0.0546875,2885
0.091796875,2886
0.080078125,2887
0.109375,2888
0.103515625,2889
0.068359375,2890
0.060546875,2891
0.0546875,2892
0.05078125,2893
0.0859375,2894
0.134765625,2895
0.25,2896
0.09375,2897
0.076171875,2898
0.115234375,2899
0.080078125,2900
0.109375,2901
0.166015625,2902
0.23046875,2903
0.125,2904
0.142578125,2905
0.08203125,2906
0.12890625,2907
0.1484375,2908
0.20703125,2909
0.18359375,2910
0.060546875,2911
0.076171875,2912
0.0703125,2913
0.046875,2914
0.123046875,2915
0.07421875,2916
0.0703125,2917
0.07421875,2918
0.052734375,2919
0.197265625,2920
0.15625,2921
0.052734375,2922
0.142578125,2923
0.171875,2924
0.140625,2925
0.14453125,2926
0.06640625,2927
0.10546875,2928
0.1171875,2929
0.12890625,2930
0.08984375,2931
0.09765625,2932
0.052734375,2933
0.068359375,2934
0.078125,2935
0.0703125,2936
0.109375,2937
0.04296875,2938
0.091796875,2939
0.052734375,2940
0.0703125,2941
0.091796875,2942
0.13671875,2943
0.0859375,2944
0.15234375,2945
0.2109375,2946
0.181640625,2947
0.21875,2948
0.08203125,2949
0.1171875,2950
0.080078125,2951
0.07421875,2952
0.12109375,2953
0.08984375,2954
0.099609375,2955
0.10546875,2956
0.11328125,2957
0.1484375,2958
0.140625,2959
0.029296875,2960
0.08203125,2961
0.072265625,2962
0.099609375,2963
0.32421875,2964
0.11328125,2965
0.07421875,2966
0.078125,2967
0.1171875,2968
0.142578125,2969
0.140625,2970
0.052734375,2971
0.1328125,2972
0.095703125,2973
0.1171875,2974
0.16015625,2975
0.0703125,2976
0.12890625,2977
0.099609375,2978
0.134765625,2979
0.13671875,2980
0.173828125,2981
0.037109375,2982
0.09375,2983
0.072265625,2984
0.09375,2985
0.138671875,2986
0.08984375,2987
0.1328125,2988
0.154296875,2989
0.130859375,2990
0.150390625,2991
0.0546875,2992
0.1171875,2993
0.125,2994
0.125,2995
0.25390625,2996
0.083984375,2997
0.056640625,2998
0.1015625,2999
0.029296875,3000
0.0625,3001
0.076171875,3002
0.04296875,3003
0.10546875,3004
0.052734375,3005
0.0703125,3006
0.123046875,3007
0.1015625,3008
0.08203125,3009
0.189453125,3010
0.130859375,3011
0.1171875,3012
0.1171875,3013
0.083984375,3014
0.1171875,3015
0.076171875,3016
0.123046875,3017
0.173828125,3018
0.044921875,3019
0.083984375,3020
0.109375,3021
0.208984375,3022
0.232421875,3023
0.115234375,3024
0.162109375,3025
0.322265625,3026
0.423828125,3027
0.435546875,3028
0.244140625,3029
0.08984375,3030
0.1328125,3031
0.111328125,3032
0.123046875,3033
0.1484375,3034
0.064453125,3035
0.095703125,3036
0.08984375,3037
0.140625,3038
0.177734375,3039
0.158203125,3040
0.044921875,3041
0.10546875,3042
0.15625,3043
0.1640625,3044
0.24609375,3045
0.08984375,3046
0.080078125,3047
0.125,3048
0.115234375,3049
0.111328125,3050
0.15234375,3051
0.115234375,3052
0.103515625,3053
0.181640625,3054
0.177734375,3055
0.154296875,3056
0.048828125,3057
0.099609375,3058
0.0859375,3059
0.103515625,3060
0.138671875,3061
0.08203125,3062
0.109375,3063
0.041015625,3064
0.12890625,3065
0.13671875,3066
0.1953125,3067
0.08203125,3068
0.126953125,3069
0.126953125,3070
0.103515625,3071
0.19140625,3072
0.08984375,3073
0.171875,3074
0.12890625,3075
0.248046875,3076
0.19921875,3077
0.06640625,3078
0.087890625,3079
0.1171875,3080
0.185546875,3081
0.1015625,3082
0.099609375,3083
0.125,3084
0.080078125,3085
0.171875,3086
0.15234375,3087
0.162109375,3088
0.046875,3089
0.046875,3090
0.09765625,3091
0.11328125,3092
0.115234375,3093
0.12109375,3094
0.12109375,3095
0.1875,3096
0.134765625,3097
0.193359375,3098
0.064453125,3099
0.09765625,3100
0.21875,3101
0.232421875,3102
0.236328125,3103
0.072265625,3104
0.212890625,3105
0.18359375,3106
0.21484375,3107
0.21875,3108
0.181640625,3109
0.0859375,3110
0.1171875,3111
0.171875,3112
0.220703125,3113
0.208984375,3114
0.10546875,3115
0.115234375,3116
0.15625,3117
0.22265625,3118
0.216796875,3119
0.17578125,3120
0.078125,3121
0.130859375,3122
0.1328125,3123
0.205078125,3124
0.208984375,3125
0.044921875,3126
0.11328125,3127
0.0859375,3128
0.140625,3129
0.171875,3130
0.12109375,3131
0.06640625,3132
0.11328125,3133
0.1328125,3134
0.1796875,3135
0.162109375,3136
0.08203125,3137
0.138671875,3138
0.154296875,3139
0.19140625,3140
0.3359375,3141
0.19140625,3142
0.232421875,3143
0.1640625,3144
0.16015625,3145
0.234375,3146
0.12109375,3147
0.162109375,3148
0.21875,3149
0.2265625,3150
0.1875,3151
0.2265625,3152
0.07421875,3153
0.16015625,3154
0.19140625,3155
0.21875,3156
0.232421875,3157
0.146484375,3158
0.130859375,3159
0.201171875,3160
0.158203125,3161
0.228515625,3162
0.185546875,3163
0.09375,3164
0.19140625,3165
0.216796875,3166
0.212890625,3167
0.20703125,3168
0.087890625,3169
0.10546875,3170
0.099609375,3171
0.181640625,3172
0.181640625,3173
0.193359375,3174
0.037109375,3175
0.125,3176
0.138671875,3177
0.130859375,3178
0.263671875,3179
0.109375,3180
0.10546875,3181
0.146484375,3182
0.2109375,3183
0.212890625,3184
0.2265625,3185
0.06640625,3186
0.2109375,3187
0.1953125,3188
0.24609375,3189
0.25,3190
0.15625,3191
0.126953125,3192
0.18359375,3193
0.275390625,3194
0.220703125,3195
0.25,3196
0.06640625,3197
0.1796875,3198
0.205078125,3199
0.326171875,3200
0.404296875,3201
0.14453125,3202
0.142578125,3203
0.1484375,3204
0.1484375,3205
0.146484375,3206
0.125,3207
0.072265625,3208
0.16796875,3209
0.154296875,3210
0.228515625,3211
0.21875,3212
0.060546875,3213
0.125,3214
0.09765625,3215
0.18359375,3216
0.17578125,3217
0.0703125,3218
0.1015625,3219
0.083984375,3220
0.1171875,3221
0.16015625,3222
0.130859375,3223
0.0625,3224
0.169921875,3225
0.15625,3226
0.134765625,3227
0.125,3228
0.06640625,3229
0.16796875,3230
0.14453125,3231
0.271484375,3232
0.24609375,3233
0.078125,3234
0.16796875,3235
0.103515625,3236
0.234375,3237
0.24609375,3238
0.22265625,3239
0.0625,3240
0.109375,3241
0.1171875,3242
0.197265625,3243
0.19140625,3244
0.09765625,3245
0.171875,3246
0.11328125,3247
0.068359375,3248
0.1015625,3249
0.1171875,3250
0.0546875,3251
0.087890625,3252
0.12890625,3253
0.10546875,3254
0.134765625,3255
0.072265625,3256
0.1015625,3257
0.0859375,3258
0.08203125,3259
0.1171875,3260
0.130859375,3261
0.04296875,3262
0.115234375,3263
0.0703125,3264
0.130859375,3265
0.09375,3266
0.109375,3267
0.1796875,3268
0.19140625,3269
0.228515625,3270
0.32421875,3271
0.05078125,3272
0.08203125,3273
0.076171875,3274
0.095703125,3275
0.173828125,3276
0.04296875,3277
0.1796875,3278
0.103515625,3279
0.140625,3280
0.201171875,3281
0.185546875,3282
0.087890625,3283
0.11328125,3284
0.1328125,3285
0.1328125,3286
0.162109375,3287
0.0859375,3288
0.154296875,3289
0.125,3290
0.166015625,3291
0.150390625,3292
0.07421875,3293
0.13671875,3294
0.029296875,3295
0.078125,3296
0.109375,3297
0.158203125,3298
0.0546875,3299
0.146484375,3300
0.103515625,3301
0.193359375,3302
0.18359375,3303
0.04296875,3304
0.140625,3305
0.08984375,3306
0.044921875,3307
0.14453125,3308
0.123046875,3309
0.119140625,3310
0.169921875,3311
0.2265625,3312
0.302734375,3313
0.16796875,3314
0.0703125,3315
0.17578125,3316
0.1484375,3317
0.14453125,3318
0.19921875,3319
0.05078125,3320
0.103515625,3321
0.150390625,3322
0.1796875,3323
0.1796875,3324
0.185546875,3325
0.044921875,3326
0.140625,3327
0.2109375,3328
0.162109375,3329
0.205078125,3330
0.109375,3331
0.16796875,3332
0.1484375,3333
0.21484375,3334
0.197265625,3335
0.0625,3336
0.056640625,3337
0.16796875,3338
0.05078125,3339
0.052734375,3340
0.095703125,3341
0.078125,3342
0.1328125,3343
0.154296875,3344
0.2109375,3345
0.255859375,3346
0.0703125,3347
0.06640625,3348
0.1015625,3349
0.15625,3350
0.17578125,3351
0.1015625,3352
0.150390625,3353
0.080078125,3354
0.1640625,3355
0.240234375,3356
0.080078125,3357
0.103515625,3358
0.142578125,3359
0.146484375,3360
0.1328125,3361
0.13671875,3362
0.0625,3363
0.11328125,3364
0.11328125,3365
0.169921875,3366
0.193359375,3367
0.05078125,3368
0.189453125,3369
0.130859375,3370
0.14453125,3371
0.3984375,3372
0.095703125,3373
0.169921875,3374
0.14453125,3375
0.220703125,3376
0.173828125,3377
0.181640625,3378
0.087890625,3379
0.205078125,3380
0.15625,3381
0.115234375,3382
0.2109375,3383
0.060546875,3384
0.14453125,3385
0.166015625,3386
0.205078125,3387
0.203125,3388
0.09765625,3389
0.083984375,3390
0.115234375,3391
0.05859375,3392
0.068359375,3393
0.107421875,3394
0.05859375,3395
0.126953125,3396
0.103515625,3397
0.05859375,3398
0.11328125,3399
0.0625,3400
0.21484375,3401
0.17578125,3402
0.24609375,3403
0.2109375,3404
0.138671875,3405
0.080078125,3406
0.158203125,3407
0.169921875,3408
0.234375,3409
0.26953125,3410
0.0625,3411
0.10546875,3412
0.138671875,3413
0.1171875,3414
0.19140625,3415
0.06640625,3416
0.138671875,3417
0.1171875,3418
0.1484375,3419
0.1484375,3420
0.091796875,3421
0.0390625,3422
0.1328125,3423
0.115234375,3424
0.1328125,3425
0.14453125,3426
0.056640625,3427
0.091796875,3428
0.08203125,3429
0.126953125,3430
0.158203125,3431
0.0625,3432
0.1328125,3433
0.125,3434
0.15625,3435
0.197265625,3436
0.109375,3437
0.083984375,3438
0.109375,3439
0.12109375,3440
0.1328125,3441
0.140625,3442
0.033203125,3443
0.119140625,3444
0.171875,3445
0.275390625,3446
0.234375,3447
0.177734375,3448
0.185546875,3449
0.2109375,3450
0.283203125,3451
0.212890625,3452
0.05859375,3453
0.13671875,3454
0.17578125,3455
0.189453125,3456
0.17578125,3457
0.146484375,3458
0.111328125,3459
0.15625,3460
0.1875,3461
0.189453125,3462
0.216796875,3463
0.068359375,3464
0.150390625,3465
0.150390625,3466
0.1484375,3467
0.16015625,3468
0.087890625,3469
0.109375,3470
0.150390625,3471
0.1875,3472
0.22265625,3473
0.1640625,3474
0.083984375,3475
0.169921875,3476
0.1953125,3477
0.208984375,3478
0.2265625,3479
0.05859375,3480
0.072265625,3481
0.1640625,3482
0.169921875,3483
0.205078125,3484
0.09375,3485
0.166015625,3486
0.1875,3487
0.2265625,3488
0.26953125,3489
0.150390625,3490
0.171875,3491
0.19921875,3492
0.228515625,3493
0.240234375,3494
0.21875,3495
0.103515625,3496
0.16796875,3497
0.111328125,3498
0.154296875,3499
0.123046875,3500
0.111328125,3501
0.109375,3502
0.150390625,3503
0.173828125,3504
0.181640625,3505
0.197265625,3506
0.08984375,3507
0.19921875,3508
0.154296875,3509
0.1796875,3510
0.1953125,3511
0.119140625,3512
0.138671875,3513
0.1328125,3514
0.232421875,3515
0.21875,3516
0.185546875,3517
0.064453125,3518
0.154296875,3519
0.154296875,3520
0.18359375,3521
0.19921875,3522
0.048828125,3523
0.123046875,3524
0.197265625,3525
0.298828125,3526
0.23828125,3527
0.216796875,3528
0.08203125,3529
0.19140625,3530
0.1484375,3531
0.201171875,3532
0.193359375,3533
0.1953125,3534
0.07421875,3535
0.18359375,3536
0.255859375,3537
0.26171875,3538
0.291015625,3539
0.140625,3540
0.1875,3541
0.16015625,3542
0.26171875,3543
0.28125,3544
0.138671875,3545
0.1171875,3546
0.232421875,3547
0.267578125,3548
0.296875,3549
0.267578125,3550
0.134765625,3551
0.130859375,3552
0.1875,3553
0.244140625,3554
0.169921875,3555
0.16015625,3556
0.08984375,3557
0.15234375,3558
0.203125,3559
0.267578125,3560
0.1953125,3561
0.07421875,3562
0.1328125,3563
0.2734375,3564
0.158203125,3565
0.08984375,3566
0.09375,3567
0.197265625,3568
0.060546875,3569
0.1328125,3570
0.17578125,3571
0.169921875,3572
0.044921875,3573
0.140625,3574
0.138671875,3575
0.107421875,3576
0.15625,3577
0.1796875,3578
0.1953125,3579
0.232421875,3580
0.23046875,3581
0.212890625,3582
0.244140625,3583
0.23828125,3584
0.2109375,3585
0.16796875,3586
0.166015625,3587
0.16796875,3588
0.322265625,3589
0.357421875,3590
0.1328125,3591
0.083984375,3592
0.109375,3593
0.12890625,3594
0.111328125,3595
0.09765625,3596
0.185546875,3597
0.19140625,3598
0.171875,3599
0.205078125,3600
0.1875,3601
0.1328125,3602
0.142578125,3603
0.16015625,3604
0.123046875,3605
0.197265625,3606
0.220703125,3607
0.134765625,3608
0.154296875,3609
0.15234375,3610
0.267578125,3611
0.302734375,3612
0.24609375,3613
0.1484375,3614
0.271484375,3615
0.3515625,3616
0.345703125,3617
0.375,3618
0.55859375,3619
0.158203125,3620
0.076171875,3621
0.29296875,3622
0.2578125,3623
0.298828125,3624
0.13671875,3625
0.171875,3626
0.197265625,3627
0.287109375,3628
0.21484375,3629
0.244140625,3630
0.099609375,3631
0.16015625,3632
0.154296875,3633
0.232421875,3634
0.1953125,3635
0.078125,3636
0.1953125,3637
0.146484375,3638
0.23046875,3639
0.26171875,3640
0.162109375,3641
0.0859375,3642
0.126953125,3643
0.158203125,3644
0.107421875,3645
0.166015625,3646
0.08984375,3647
0.107421875,3648
0.08203125,3649
0.162109375,3650
0.115234375,3651
0.09375,3652
0.140625,3653
0.14453125,3654
0.201171875,3655
0.228515625,3656
0.1328125,3657
0.060546875,3658
0.12890625,3659
0.154296875,3660
0.181640625,3661
0.171875,3662
0.037109375,3663
0.158203125,3664
0.083984375,3665
0.12890625,3666
0.205078125,3667
0.11328125,3668
0.0546875,3669
0.080078125,3670
0.2109375,3671
0.1796875,3672
0.158203125,3673
0.04296875,3674
0.169921875,3675
0.09765625,3676
0.236328125,3677
0.23828125,3678
0.09765625,3679
0.05078125,3680
0.0390625,3681
0.05859375,3682
0.091796875,3683
0.109375,3684
0.044921875,3685
0.1640625,3686
0.125,3687
0.177734375,3688
0.234375,3689
0.033203125,3690
0.03515625,3691
0.0625,3692
0.107421875,3693
0.203125,3694
0.126953125,3695
0.099609375,3696
0.158203125,3697
0.220703125,3698
0.197265625,3699
0.220703125,3700
0.06640625,3701
0.076171875,3702
0.10546875,3703
0.17578125,3704
0.1796875,3705
0.099609375,3706
0.197265625,3707
0.193359375,3708
0.259765625,3709
0.259765625,3710
0.228515625,3711
0.09765625,3712
0.16796875,3713
0.23828125,3714
0.177734375,3715
0.203125,3716
0.0625,3717
0.11328125,3718
0.150390625,3719
0.19140625,3720
0.2734375,3721
0.169921875,3722
0.103515625,3723
0.1015625,3724
0.189453125,3725
0.1796875,3726
0.08984375,3727
0.09765625,3728
0.150390625,3729
0.212890625,3730
0.166015625,3731
0.201171875,3732
0.09765625,3733
0.046875,3734
0.13671875,3735
0.123046875,3736
0.17578125,3737
0.06640625,3738
0.154296875,3739
0.1953125,3740
0.181640625,3741
0.201171875,3742
0.150390625,3743
0.02734375,3744
0.10546875,3745
0.12109375,3746
0.115234375,3747
0.150390625,3748
0.0625,3749
0.08984375,3750
0.03515625,3751
0.052734375,3752
0.15234375,3753
0.154296875,3754
0.076171875,3755
0.12109375,3756
0.134765625,3757
0.162109375,3758
0.162109375,3759
0.06640625,3760
0.13671875,3761
0.201171875,3762
0.197265625,3763
0.203125,3764
0.10546875,3765
0.080078125,3766
0.12109375,3767
0.109375,3768
0.203125,3769
0.1875,3770
0.037109375,3771
0.08984375,3772
0.125,3773
0.228515625,3774
0.17578125,3775
0.08203125,3776
0.03125,3777
0.05078125,3778
0.095703125,3779
0.16015625,3780
0.1171875,3781
0.099609375,3782
0.140625,3783
0.16015625,3784
0.240234375,3785
0.16015625,3786
0.044921875,3787
0.05859375,3788
0.072265625,3789
0.130859375,3790
0.181640625,3791
0.0859375,3792
0.126953125,3793
0.203125,3794
0.166015625,3795
0.21484375,3796
0.138671875,3797
0.048828125,3798
0.162109375,3799
0.1640625,3800
0.43359375,3801
0.3046875,3802
0.158203125,3803
0.296875,3804
0.224609375,3805
0.20703125,3806
0.2734375,3807
0.0703125,3808
0.14453125,3809
0.150390625,3810
0.2890625,3811
0.236328125,3812
0.15625,3813
0.109375,3814
0.16015625,3815
0.14453125,3816
0.126953125,3817
0.216796875,3818
0.03515625,3819
0.083984375,3820
0.08984375,3821
0.177734375,3822
0.185546875,3823
0.134765625,3824
0.10546875,3825
0.134765625,3826
0.158203125,3827
0.16796875,3828
0.150390625,3829
0.08203125,3830
0.130859375,3831
0.1015625,3832
0.173828125,3833
0.21484375,3834
0.05859375,3835
0.109375,3836
0.09375,3837
0.17578125,3838
0.13671875,3839
0.17578125,3840
0.052734375,3841
0.078125,3842
0.060546875,3843
0.17578125,3844
0.126953125,3845
0.064453125,3846
0.173828125,3847
0.138671875,3848
0.21484375,3849
0.19140625,3850
0.11328125,3851
0.11328125,3852
0.13671875,3853
0.16796875,3854
0.12109375,3855
0.099609375,3856
0.048828125,3857
0.119140625,3858
0.158203125,3859
0.1953125,3860
0.240234375,3861
0.01953125,3862
0.08203125,3863
0.142578125,3864
0.169921875,3865
0.171875,3866
0.142578125,3867
0.12890625,3868
0.185546875,3869
0.24609375,3870
0.23046875,3871
0.095703125,3872
0.1171875,3873
0.099609375,3874
0.134765625,3875
0.193359375,3876
0.23046875,3877
0.09765625,3878
0.2578125,3879
0.228515625,3880
0.25390625,3881
0.24609375,3882
0.09765625,3883
0.109375,3884
0.115234375,3885
0.1640625,3886
0.232421875,3887
0.12890625,3888
0.056640625,3889
0.1796875,3890
0.138671875,3891
0.15234375,3892
0.171875,3893
0.076171875,3894
0.2109375,3895
0.212890625,3896
0.220703125,3897
0.220703125,3898
0.09375,3899
0.080078125,3900
0.12890625,3901
0.1953125,3902
0.158203125,3903
0.1953125,3904
0.060546875,3905
0.107421875,3906
0.080078125,3907
0.185546875,3908
0.17578125,3909
0.083984375,3910
0.1953125,3911
0.208984375,3912
0.21875,3913
0.19921875,3914
0.07421875,3915
0.1484375,3916
0.11328125,3917
0.1796875,3918
0.212890625,3919
0.138671875,3920
0.064453125,3921
0.169921875,3922
0.1328125,3923
0.162109375,3924
0.197265625,3925
0.046875,3926
0.16796875,3927
0.109375,3928
0.232421875,3929
0.1796875,3930
0.060546875,3931
0.09765625,3932
0.1640625,3933
0.234375,3934
0.19140625,3935
0.087890625,3936
0.09375,3937
0.099609375,3938
0.068359375,3939
0.12109375,3940
0.232421875,3941
0.052734375,3942
0.119140625,3943
0.111328125,3944
0.154296875,3945
0.240234375,3946
0.06640625,3947
0.04296875,3948
0.083984375,3949
0.236328125,3950
0.232421875,3951
0.142578125,3952
0.169921875,3953
0.1640625,3954
0.244140625,3955
0.3125,3956
0.259765625,3957
0.205078125,3958
0.28515625,3959
0.26171875,3960
0.23046875,3961
0.33984375,3962
0.123046875,3963
0.130859375,3964
0.2265625,3965
0.21875,3966
0.32421875,3967
0.23046875,3968
0.083984375,3969
0.1640625,3970
0.18359375,3971
0.21875,3972
0.1953125,3973
0.11328125,3974
0.17578125,3975
0.205078125,3976
0.212890625,3977
0.201171875,3978
0.107421875,3979
0.11328125,3980
0.099609375,3981
0.2265625,3982
0.28515625,3983
0.173828125,3984
0.05078125,3985
0.126953125,3986
0.13671875,3987
0.171875,3988
0.1875,3989
0.060546875,3990
0.0859375,3991
0.046875,3992
0.11328125,3993
0.1875,3994
0.076171875,3995
0.162109375,3996
0.171875,3997
0.2109375,3998
0.173828125,3999
0.1640625,4000
0.07421875,4001
0.103515625,4002
0.138671875,4003
0.11328125,4004
0.193359375,4005
0.08984375,4006
0.08984375,4007
0.134765625,4008
0.12890625,4009
0.205078125,4010
0.060546875,4011
0.0859375,4012
0.095703125,4013
0.130859375,4014
0.205078125,4015
0.1328125,4016
0.056640625,4017
0.173828125,4018
0.115234375,4019
0.1796875,4020
0.181640625,4021
0.02734375,4022
0.0546875,4023
0.109375,4024
0.10546875,4025
0.15234375,4026
0.0625,4027
0.1171875,4028
0.080078125,4029
0.232421875,4030
0.16015625,4031
0.201171875,4032
0.02734375,4033
0.109375,4034
0.193359375,4035
0.26953125,4036
0.201171875,4037
0.130859375,4038
0.107421875,4039
0.171875,4040
0.1875,4041
0.185546875,4042
0.099609375,4043
0.048828125,4044
0.1875,4045
0.083984375,4046
0.119140625,4047
0.205078125,4048
0.080078125,4049
0.1328125,4050
0.150390625,4051
0.158203125,4052
0.1484375,4053
0.115234375,4054
0.0625,4055
0.0625,4056
0.16015625,4057
0.130859375,4058
0.248046875,4059
0.0703125,4060
0.1171875,4061
0.193359375,4062
0.203125,4063
0.251953125,4064
0.05859375,4065
0.12890625,4066
0.13671875,4067
0.1796875,4068
0.244140625,4069
0.1171875,4070
0.068359375,4071
0.111328125,4072
0.13671875,4073
0.154296875,4074
0.173828125,4075
0.068359375,4076
0.091796875,4077
0.142578125,4078
0.177734375,4079
0.283203125,4080
0.08984375,4081
0.1953125,4082
0.16015625,4083
0.21484375,4084
0.337890625,4085
0.193359375,4086
0.138671875,4087
0.197265625,4088
0.115234375,4089
0.150390625,4090
0.1640625,4091
0.0546875,4092
0.146484375,4093
0.10546875,4094
0.12109375,4095
0.19921875,4096
0.03515625,4097
0.083984375,4098
0.0625,4099
0.1171875,4100
0.162109375,4101
0.1328125,4102
0.111328125,4103
0.125,4104
0.103515625,4105
0.17578125,4106
0.16796875,4107
0.021484375,4108
0.1328125,4109
0.162109375,4110
0.15625,4111
0.146484375,4112
0.1015625,4113
0.068359375,4114
0.078125,4115
0.087890625,4116
0.14453125,4117
0.169921875,4118
0.029296875,4119
0.05078125,4120
0.0703125,4121
0.16015625,4122
0.26953125,4123
0.08984375,4124
0.14453125,4125
0.158203125,4126
0.224609375,4127
0.232421875,4128
0.060546875,4129
0.115234375,4130
0.11328125,4131
0.103515625,4132
0.25390625,4133
0.208984375,4134
0.142578125,4135
0.251953125,4136
0.232421875,4137
0.23046875,4138
0.228515625,4139
0.09375,4140
0.19140625,4141
0.134765625,4142
0.154296875,4143
0.232421875,4144
0.125,4145
0.044921875,4146
0.13671875,4147
0.2109375,4148
0.15234375,4149
0.162109375,4150
0.103515625,4151
0.177734375,4152
0.173828125,4153
0.23828125,4154
0.21484375,4155
0.1015625,4156
0.115234375,4157
0.08984375,4158
0.158203125,4159
0.15625,4160
0.095703125,4161
0.0625,4162
0.05078125,4163
0.08203125,4164
0.119140625,4165
0.1875,4166
0.046875,4167
0.146484375,4168
0.15625,4169
0.21875,4170
0.22265625,4171
0.06640625,4172
0.0859375,4173
0.138671875,4174
0.125,4175
0.240234375,4176
0.099609375,4177
0.05859375,4178
0.064453125,4179
0.19140625,4180
0.13671875,4181
0.154296875,4182
0.06640625,4183
0.08203125,4184
0.08984375,4185
0.162109375,4186
0.212890625,4187
0.08203125,4188
0.138671875,4189
0.08984375,4190
0.23046875,4191
0.205078125,4192
0.107421875,4193
0.072265625,4194
0.130859375,4195
0.21484375,4196
0.158203125,4197
0.251953125,4198
0.044921875,4199
0.107421875,4200
0.1484375,4201
0.16796875,4202
0.224609375,4203
0.072265625,4204
0.04296875,4205
0.078125,4206
0.1328125,4207
0.1640625,4208
0.17578125,4209
0.1015625,4210
0.115234375,4211
0.162109375,4212
0.248046875,4213
0.234375,4214
0.048828125,4215
0.09375,4216
0.109375,4217
0.08984375,4218
0.2421875,4219
0.173828125,4220
0.150390625,4221
0.193359375,4222
0.318359375,4223
0.24609375,4224
0.21484375,4225
0.046875,4226
0.12109375,4227
0.171875,4228
0.1953125,4229
0.240234375,4230
0.10546875,4231
0.12109375,4232
0.140625,4233
0.11328125,4234
0.173828125,4235
0.12890625,4236
0.13671875,4237
0.162109375,4238
0.22265625,4239
0.212890625,4240
0.1875,4241
0.1171875,4242
0.11328125,4243
0.1015625,4244
0.099609375,4245
0.158203125,4246
0.05859375,4247
0.083984375,4248
0.111328125,4249
0.12109375,4250
0.203125,4251
0.16015625,4252
0.119140625,4253
0.16015625,4254
0.16796875,4255
0.2265625,4256
0.20703125,4257
0.05078125,4258
0.04296875,4259
0.11328125,4260
0.080078125,4261
0.12890625,4262
0.0234375,4263
0.1328125,4264
0.03515625,4265
0.05859375,4266
0.107421875,4267
0.197265625,4268
0.021484375,4269
0.1328125,4270
0.13671875,4271
0.12890625,4272
0.1328125,4273
0.03515625,4274
0.16796875,4275
0.10546875,4276
0.197265625,4277
0.166015625,4278
0.173828125,4279
0.01953125,4280
0.07421875,4281
0.10546875,4282
0.16015625,4283
0.15625,4284
0.064453125,4285
0.15234375,4286
0.095703125,4287
0.134765625,4288
0.19140625,4289
0.048828125,4290
0.03125,4291
0.119140625,4292
0.0625,4293
0.130859375,4294
0.12890625,4295
0.134765625,4296
0.15234375,4297
0.189453125,4298
0.181640625,4299
0.19140625,4300
0.07421875,4301
0.1640625,4302
0.1640625,4303
0.1171875,4304
0.220703125,4305
0.0390625,4306
0.083984375,4307
0.181640625,4308
0.1875,4309
0.197265625,4310
0.23046875,4311
0.1328125,4312
0.076171875,4313
0.1328125,4314
0.220703125,4315
0.35546875,4316
0.18359375,4317
0.1875,4318
0.279296875,4319
0.2890625,4320
0.193359375,4321
0.138671875,4322
0.068359375,4323
0.189453125,4324
0.169921875,4325
0.216796875,4326
0.173828125,4327
0.078125,4328
0.150390625,4329
0.138671875,4330
0.208984375,4331
0.23046875,4332
0.0546875,4333
0.04296875,4334
0.083984375,4335
0.138671875,4336
0.208984375,4337
0.08984375,4338
0.140625,4339
0.150390625,4340
0.18359375,4341
0.19921875,4342
0.1640625,4343
0.06640625,4344
0.08984375,4345
0.111328125,4346
0.2265625,4347
0.2734375,4348
0.080078125,4349
0.1015625,4350
0.134765625,4351
0.162109375,4352
0.14453125,4353
0.150390625,4354
0.025390625,4355
0.08984375,4356
0.056640625,4357
0.197265625,4358
0.17578125,4359
0.029296875,4360
0.140625,4361
0.060546875,4362
0.189453125,4363
0.181640625,4364
0.12109375,4365
0.083984375,4366
0.11328125,4367
0.130859375,4368
0.15625,4369
0.166015625,4370
0.0390625,4371
0.091796875,4372
0.109375,4373
0.228515625,4374
0.1484375,4375
0.05859375,4376
0.037109375,4377
0.083984375,4378
0.15625,4379
0.193359375,4380
0.181640625,4381
0.099609375,4382
0.19140625,4383
0.181640625,4384
0.275390625,4385
0.2265625,4386
0.06640625,4387
0.1171875,4388
0.0703125,4389
0.177734375,4390
0.248046875,4391
0.08203125,4392
0.1875,4393
0.142578125,4394
0.23828125,4395
0.224609375,4396
0.185546875,4397
0.064453125,4398
0.087890625,4399
0.15625,4400
0.20703125,4401
0.1640625,4402
0.05078125,4403
0.12890625,4404
0.1796875,4405
0.18359375,4406
0.234375,4407
0.05859375,4408
0.123046875,4409
0.185546875,4410
0.169921875,4411
0.14453125,4412
0.162109375,4413
0.107421875,4414
0.12109375,4415
0.177734375,4416
0.203125,4417
0.212890625,4418
0.046875,4419
0.09375,4420
0.091796875,4421
0.146484375,4422
0.23828125,4423
0.1328125,4424
0.119140625,4425
0.2109375,4426
0.203125,4427
0.2265625,4428
0.140625,4429
0.015625,4430
0.046875,4431
0.05859375,4432
0.11328125,4433
0.173828125,4434
0.03515625,4435
0.033203125,4436
0.060546875,4437
0.12890625,4438
0.1796875,4439
0.142578125,4440
0.0859375,4441
0.076171875,4442
0.12109375,4443
0.21875,4444
0.173828125,4445
0.064453125,4446
0.142578125,4447
0.1640625,4448
0.255859375,4449
0.23046875,4450
0.05859375,4451
0.08203125,4452
0.1015625,4453
0.083984375,4454
0.125,4455
0.119140625,4456
0.072265625,4457
0.201171875,4458
0.142578125,4459
0.1875,4460
0.28515625,4461
0.029296875,4462
0.1015625,4463
0.154296875,4464
0.099609375,4465
0.345703125,4466
0.107421875,4467
0.078125,4468
0.17578125,4469
0.203125,4470
0.212890625,4471
0.15234375,4472
0.064453125,4473
0.28125,4474
0.32421875,4475
0.28515625,4476
0.36328125,4477
0.064453125,4478
0.181640625,4479
0.1328125,4480
0.310546875,4481
0.220703125,4482
0.142578125,4483
0.07421875,4484
0.126953125,4485
0.078125,4486
0.140625,4487
0.220703125,4488
0.109375,4489
0.14453125,4490
0.185546875,4491
0.14453125,4492
0.228515625,4493
0.150390625,4494
0.111328125,4495
0.1953125,4496
0.212890625,4497
0.197265625,4498
0.216796875,4499
0.0859375,4500
0.09765625,4501
0.140625,4502
0.220703125,4503
0.138671875,4504
0.123046875,4505
0.095703125,4506
0.0859375,4507
0.099609375,4508
0.1796875,4509
0.1171875,4510
0.095703125,4511
0.177734375,4512
0.234375,4513
0.24609375,4514
0.224609375,4515
0.05078125,4516
0.16796875,4517
0.095703125,4518
0.115234375,4519
0.236328125,4520
0.06640625,4521
0.076171875,4522
0.0390625,4523
0.05078125,4524
0.140625,4525
0.189453125,4526
0.033203125,4527
0.115234375,4528
0.146484375,4529
0.189453125,4530
0.14453125,4531
0.04296875,4532
0.12109375,4533
0.115234375,4534
0.12890625,4535
0.185546875,4536
0.1484375,4537
0.04296875,4538
0.1328125,4539
0.103515625,4540
0.14453125,4541
0.091796875,4542
0.099609375,4543
0.083984375,4544
0.138671875,4545
0.185546875,4546
0.154296875,4547
0.103515625,4548
0.0546875,4549
0.134765625,4550
0.18359375,4551
0.1640625,4552
0.154296875,4553
0.142578125,4554
0.17578125,4555
0.1484375,4556
0.203125,4557
0.2421875,4558
0.0625,4559
0.13671875,4560
0.095703125,4561
0.150390625,4562
0.185546875,4563
0.095703125,4564
0.169921875,4565
0.111328125,4566
0.1875,4567
0.1484375,4568
0.177734375,4569
0.041015625,4570
0.12890625,4571
0.13671875,4572
0.193359375,4573
0.208984375,4574
0.099609375,4575
0.16796875,4576
0.140625,4577
0.158203125,4578
0.228515625,4579
0.18359375,4580
0.04296875,4581
0.158203125,4582
0.158203125,4583
0.169921875,4584
0.2109375,4585
0.046875,4586
0.083984375,4587
0.212890625,4588
0.220703125,4589
0.1484375,4590
0.111328125,4591
0.009765625,4592
0.0625,4593
0.15625,4594
0.189453125,4595
0.15234375,4596
0.08984375,4597
0.15625,4598
0.1796875,4599
0.181640625,4600
0.1328125,4601
0.21484375,4602
0.05859375,4603
0.1953125,4604
0.13671875,4605
0.248046875,4606
0.15234375,4607
0.080078125,4608
0.15234375,4609
0.189453125,4610
0.234375,4611
0.193359375,4612
0.076171875,4613
0.0546875,4614
0.087890625,4615
0.1796875,4616
0.21484375,4617
0.091796875,4618
0.119140625,4619
0.1171875,4620
0.169921875,4621
0.140625,4622
0.12890625,4623
0.056640625,4624
0.13671875,4625
0.1484375,4626
0.173828125,4627
0.2265625,4628
0.0546875,4629
0.087890625,4630
0.13671875,4631
0.171875,4632
0.2265625,4633
0.119140625,4634
0.13671875,4635
0.189453125,4636
0.19140625,4637
0.1875,4638
0.134765625,4639
0.1328125,4640
0.1484375,4641
0.146484375,4642
0.171875,4643
0.23046875,4644
0.03125,4645
0.08203125,4646
0.12109375,4647
0.17578125,4648
0.283203125,4649
0.169921875,4650
0.1171875,4651
0.259765625,4652
0.3203125,4653
0.361328125,4654
0.1953125,4655
0.09765625,4656
0.255859375,4657
0.298828125,4658
0.2421875,4659
0.328125,4660
0.0546875,4661
0.072265625,4662
0.154296875,4663
0.083984375,4664
0.14453125,4665
0.14453125,4666
0.080078125,4667
0.08203125,4668
0.16015625,4669
0.173828125,4670
0.193359375,4671
0.03125,4672
0.1328125,4673
0.1328125,4674
0.1640625,4675
0.19921875,4676
0.052734375,4677
0.046875,4678
0.064453125,4679
0.095703125,4680
0.111328125,4681
0.107421875,4682
0.126953125,4683
0.232421875,4684
0.2265625,4685
0.146484375,4686
0.13671875,4687
0.0703125,4688
0.0859375,4689
0.126953125,4690
0.107421875,4691
0.16796875,4692
0.029296875,4693
0.08984375,4694
0.10546875,4695
0.087890625,4696
0.080078125,4697
0.1328125,4698
0.037109375,4699
0.15234375,4700
0.146484375,4701
0.216796875,4702
0.138671875,4703
0.07421875,4704
0.140625,4705
0.142578125,4706
0.125,4707
0.154296875,4708
0.091796875,4709
0.068359375,4710
0.08984375,4711
0.064453125,4712
0.08984375,4713
0.091796875,4714
0.068359375,4715
0.140625,4716
0.13671875,4717
0.27734375,4718
0.255859375,4719
0.03515625,4720
0.11328125,4721
0.037109375,4722
0.05078125,4723
0.123046875,4724
0.083984375,4725
0.150390625,4726
0.15625,4727
0.2578125,4728
0.234375,4729
0.205078125,4730
0.0625,4731
0.091796875,4732
0.0859375,4733
0.111328125,4734
0.201171875,4735
0.06640625,4736
0.060546875,4737
0.138671875,4738
0.12890625,4739
0.14453125,4740
0.130859375,4741
0.060546875,4742
0.06640625,4743
0.078125,4744
0.134765625,4745
0.271484375,4746
0.041015625,4747
0.1015625,4748
0.123046875,4749
0.126953125,4750
0.185546875,4751
0.099609375,4752
0.10546875,4753
0.107421875,4754
0.154296875,4755
0.294921875,4756
0.125,4757
0.044921875,4758
0.08984375,4759
0.162109375,4760
0.228515625,4761
0.224609375,4762
0.046875,4763
0.037109375,4764
0.046875,4765
0.0546875,4766
0.14453125,4767
0.12890625,4768
0.056640625,4769
0.21484375,4770
0.189453125,4771
0.177734375,4772
0.18359375,4773
0.033203125,4774
0.0625,4775
0.123046875,4776
0.171875,4777
0.32421875,4778
0.0625,4779
0.123046875,4780
0.0703125,4781
0.21875,4782
0.2578125,4783
0.173828125,4784
0.02734375,4785
0.078125,4786
0.0625,4787
0.115234375,4788
0.18359375,4789
0.10546875,4790
0.16015625,4791
0.126953125,4792
0.171875,4793
0.154296875,4794
0.09375,4795
0.087890625,4796
0.13671875,4797
0.171875,4798
0.24609375,4799
0.1640625,4800
0.02734375,4801
0.0859375,4802
0.08203125,4803
0.216796875,4804
0.169921875,4805
0.0234375,4806
0.0390625,4807
0.080078125,4808
0.076171875,4809
0.138671875,4810
0.1328125,4811
0.09375,4812
0.076171875,4813
0.18359375,4814
0.21484375,4815
0.142578125,4816
0.046875,4817
0.16796875,4818
0.056640625,4819
0.10546875,4820
0.17578125,4821
0.04296875,4822
0.140625,4823
0.111328125,4824
0.17578125,4825
0.181640625,4826
0.0546875,4827
0.07421875,4828
0.076171875,4829
0.1015625,4830
0.13671875,4831
0.15625,4832
0.11328125,4833
0.099609375,4834
0.0859375,4835
0.08203125,4836
0.1015625,4837
0.052734375,4838
0.16015625,4839
0.181640625,4840
0.185546875,4841
0.208984375,4842
0.03515625,4843
0.1328125,4844
0.03515625,4845
0.1796875,4846
0.1875,4847
0.21484375,4848
0.05859375,4849
0.1328125,4850
0.0625,4851
0.119140625,4852
0.16796875,4853
0.068359375,4854
0.19921875,4855
0.205078125,4856
0.232421875,4857
0.228515625,4858
0.169921875,4859
0.103515625,4860
0.064453125,4861
0.140625,4862
0.21484375,4863
0.103515625,4864
0.041015625,4865
0.08984375,4866
0.140625,4867
0.205078125,4868
0.19921875,4869
0.05078125,4870
0.08984375,4871
0.15234375,4872
0.21875,4873
0.220703125,4874
0.068359375,4875
0.103515625,4876
0.109375,4877
0.107421875,4878
0.125,4879
0.111328125,4880
0.044921875,4881
0.0703125,4882
0.046875,4883
0.03125,4884
0.123046875,4885
0.0390625,4886
0.146484375,4887
0.125,4888
0.26171875,4889
0.1953125,4890
0.181640625,4891
0.044921875,4892
0.0859375,4893
0.103515625,4894
0.1640625,4895
0.140625,4896
0.1015625,4897
0.24609375,4898
0.162109375,4899
0.208984375,4900
0.138671875,4901
0.205078125,4902
0.041015625,4903
0.17578125,4904
0.109375,4905
0.12890625,4906
0.158203125,4907
0.037109375,4908
0.138671875,4909
0.107421875,4910
0.169921875,4911
0.14453125,4912
0.109375,4913
0.041015625,4914
0.12109375,4915
0.064453125,4916
0.15234375,4917
0.140625,4918
0.076171875,4919
0.11328125,4920
0.125,4921
0.103515625,4922
0.2109375,4923
0.0546875,4924
0.12109375,4925
0.138671875,4926
0.14453125,4927
0.232421875,4928
0.046875,4929
0.060546875,4930
0.08984375,4931
0.177734375,4932
0.20703125,4933
0.22265625,4934
0.03515625,4935
0.0703125,4936
0.123046875,4937
0.10546875,4938
0.181640625,4939
0.080078125,4940
0.140625,4941
0.166015625,4942
0.251953125,4943
0.283203125,4944
0.099609375,4945
0.076171875,4946
0.095703125,4947
0.12890625,4948
0.234375,4949
0.166015625,4950
0.041015625,4951
0.14453125,4952
0.1796875,4953
0.154296875,4954
0.12109375,4955
0.060546875,4956
0.078125,4957
0.0625,4958
0.109375,4959
0.1953125,4960
0.13671875,4961
0.107421875,4962
0.12890625,4963
0.091796875,4964
0.162109375,4965
0.169921875,4966
0.068359375,4967
0.12109375,4968
0.109375,4969
0.17578125,4970
0.208984375,4971
0.0390625,4972
0.07421875,4973
0.068359375,4974
0.16015625,4975
0.0625,4976
0.21484375,4977
0.046875,4978
0.1171875,4979
0.123046875,4980
0.166015625,4981
0.220703125,4982
0.0546875,4983
0.15234375,4984
0.138671875,4985
0.14453125,4986
0.171875,4987
0.16796875,4988
0.095703125,4989
0.13671875,4990
0.171875,4991
0.109375,4992
0.26171875,4993
0.068359375,4994
0.10546875,4995
0.14453125,4996
0.22265625,4997
0.177734375,4998
0.189453125,4999
0.052734375,5000
0.0625,5001
0.056640625,5002
0.173828125,5003
0.20703125,5004
0.107421875,5005
0.109375,5006
0.087890625,5007
0.09765625,5008
0.208984375,5009
0.07421875,5010
0.16015625,5011
0.142578125,5012
0.24609375,5013
0.1953125,5014
0.11328125,5015
0.037109375,5016
0.08203125,5017
0.16796875,5018
0.232421875,5019
0.169921875,5020
0.05859375,5021
0.083984375,5022
0.0625,5023
0.130859375,5024
0.294921875,5025
0.138671875,5026
0.16015625,5027
0.1640625,5028
0.189453125,5029
0.216796875,5030
0.1953125,5031
0.025390625,5032
0.103515625,5033
0.1640625,5034
0.22265625,5035
0.22265625,5036
0.056640625,5037
0.0703125,5038
0.119140625,5039
0.107421875,5040
0.208984375,5041
0.146484375,5042
0.0546875,5043
0.095703125,5044
0.08203125,5045
0.185546875,5046
0.23828125,5047
0.095703125,5048
0.11328125,5049
0.078125,5050
0.078125,5051
0.1484375,5052
0.119140625,5053
0.052734375,5054
0.150390625,5055
0.13671875,5056
0.15234375,5057
0.185546875,5058
0.0390625,5059
0.16796875,5060
0.171875,5061
0.310546875,5062
0.181640625,5063
0.154296875,5064
0.04296875,5065
0.08203125,5066
0.064453125,5067
0.09765625,5068
0.12109375,5069
0.083984375,5070
0.21875,5071
0.1953125,5072
0.24609375,5073
0.208984375,5074
0.033203125,5075
0.064453125,5076
0.103515625,5077
0.1328125,5078
0.20703125,5079
0.11328125,5080
0.09375,5081
0.181640625,5082
0.19140625,5083
0.2109375,5084
0.23828125,5085
0.033203125,5086
0.109375,5087
0.03125,5088
0.087890625,5089
0.12109375,5090
0.07421875,5091
0.126953125,5092
0.130859375,5093
0.1875,5094
0.150390625,5095
0.1796875,5096
0.044921875,5097
0.1796875,5098
0.1640625,5099
0.19140625,5100
0.16015625,5101
0.04296875,5102
0.05859375,5103
0.08984375,5104
0.15625,5105
0.171875,5106
0.0625,5107
0.08203125,5108
0.041015625,5109
0.1953125,5110
0.240234375,5111
0.16015625,5112
0.08984375,5113
0.140625,5114
0.1953125,5115
0.203125,5116
0.216796875,5117
0.033203125,5118
0.107421875,5119
0.12890625,5120
0.1796875,5121
0.228515625,5122
0.060546875,5123
0.1484375,5124
0.12109375,5125
0.173828125,5126
0.263671875,5127
0.138671875,5128
0.044921875,5129
0.111328125,5130
0.072265625,5131
0.1328125,5132
0.203125,5133
0.12890625,5134
0.076171875,5135
0.126953125,5136
0.24609375,5137
0.2265625,5138
0.09765625,5139
0.068359375,5140
0.09765625,5141
0.181640625,5142
0.169921875,5143
0.107421875,5144
0.044921875,5145
0.09375,5146
0.134765625,5147
0.158203125,5148
0.2265625,5149
0.056640625,5150
0.033203125,5151
0.044921875,5152
0.103515625,5153
0.177734375,5154
0.064453125,5155
0.083984375,5156
0.1953125,5157
0.1875,5158
0.193359375,5159
0.169921875,5160
0.0390625,5161
0.109375,5162
0.08984375,5163
0.12109375,5164
0.146484375,5165
0.05078125,5166
0.09765625,5167
0.201171875,5168
0.18359375,5169
0.236328125,5170
0.23046875,5171
0.046875,5172
0.06640625,5173
0.068359375,5174
0.181640625,5175
0.158203125,5176
0.0390625,5177
0.10546875,5178
0.056640625,5179
0.078125,5180
0.109375,5181
0.103515625,5182
0.044921875,5183
0.14453125,5184
0.205078125,5185
0.205078125,5186
0.15625,5187
0.03515625,5188
0.0859375,5189
0.203125,5190
0.224609375,5191
0.275390625,5192
0.076171875,5193
0.03125,5194
0.06640625,5195
0.103515625,5196
0.23046875,5197
0.12890625,5198
0.1953125,5199
0.15234375,5200
0.201171875,5201
0.224609375,5202
0.19140625,5203
0.033203125,5204
0.126953125,5205
0.1640625,5206
0.12890625,5207
0.302734375,5208
0.04296875,5209
0.06640625,5210
0.046875,5211
0.08984375,5212
0.052734375,5213
0.177734375,5214
0.017578125,5215
0.125,5216
0.171875,5217
0.21875,5218
0.12109375,5219
0.158203125,5220
0.14453125,5221
0.15625,5222
0.21484375,5223
0.25390625,5224
0.06640625,5225
0.041015625,5226
0.05859375,5227
0.1171875,5228
0.140625,5229
0.080078125,5230
0.076171875,5231
0.1328125,5232
0.181640625,5233
0.173828125,5234
0.19921875,5235
0.03125,5236
0.1328125,5237
0.08203125,5238
0.11328125,5239
0.212890625,5240
0.029296875,5241
0.134765625,5242
0.115234375,5243
0.177734375,5244
0.263671875,5245
0.150390625,5246
0.1015625,5247
0.17578125,5248
0.1875,5249
0.2265625,5250
0.283203125,5251
0.0625,5252
0.15234375,5253
0.146484375,5254
0.23828125,5255
0.2421875,5256
0.162109375,5257
0.048828125,5258
0.12109375,5259
0.091796875,5260
0.142578125,5261
0.2109375,5262
0.029296875,5263
0.109375,5264
0.095703125,5265
0.05859375,5266
0.197265625,5267
0.12890625,5268
0.1171875,5269
0.1171875,5270
0.166015625,5271
0.296875,5272
0.076171875,5273
0.033203125,5274
0.09765625,5275
0.1484375,5276
0.13671875,5277
0.21875,5278
0.046875,5279
0.09765625,5280
0.029296875,5281
0.142578125,5282
0.283203125,5283
0.064453125,5284
0.158203125,5285
0.19140625,5286
0.25390625,5287
0.21875,5288
0.181640625,5289
0.017578125,5290
0.1171875,5291
0.115234375,5292
0.107421875,5293
0.19140625,5294
0.052734375,5295
0.16796875,5296
0.171875,5297
0.197265625,5298
0.208984375,5299
0.05859375,5300
0.068359375,5301
0.109375,5302
0.05859375,5303
0.1796875,5304
0.091796875,5305
0.083984375,5306
0.09375,5307
0.15234375,5308
0.1796875,5309
0.162109375,5310
0.056640625,5311
0.158203125,5312
0.171875,5313
0.248046875,5314
0.2265625,5315
0.0625,5316
0.13671875,5317
0.0859375,5318
0.1171875,5319
0.236328125,5320
0.17578125,5321
0.0625,5322
0.1484375,5323
0.09765625,5324
0.15234375,5325
0.177734375,5326
0.11328125,5327
0.158203125,5328
0.26171875,5329
0.2578125,5330
0.2421875,5331
0.046875,5332
0.111328125,5333
0.1171875,5334
0.138671875,5335
0.21875,5336
0.1640625,5337
0.193359375,5338
0.23046875,5339
0.26953125,5340
0.2734375,5341
0.328125,5342
0.103515625,5343
0.12890625,5344
0.251953125,5345
0.265625,5346
0.283203125,5347
0.25390625,5348
0.04296875,5349
0.17578125,5350
0.203125,5351
0.20703125,5352
0.18359375,5353
0.1015625,5354
0.056640625,5355
0.140625,5356
0.15234375,5357
0.080078125,5358
0.142578125,5359
0.04296875,5360
0.1015625,5361
0.091796875,5362
0.091796875,5363
0.216796875,5364
0.046875,5365
0.0546875,5366
0.15625,5367
0.421875,5368
0.32421875,5369
0.09765625,5370
0.107421875,5371
0.083984375,5372
0.134765625,5373
0.142578125,5374
0.185546875,5375
0.07421875,5376
0.171875,5377
0.21484375,5378
0.216796875,5379
0.275390625,5380
0.052734375,5381
0.197265625,5382
0.2265625,5383
0.2265625,5384
0.279296875,5385
0.123046875,5386
0.080078125,5387
0.16015625,5388
0.1875,5389
0.150390625,5390
0.181640625,5391
0.111328125,5392
0.18359375,5393
0.134765625,5394
0.146484375,5395
0.234375,5396
0.0625,5397
0.072265625,5398
0.076171875,5399
0.12109375,5400
0.189453125,5401
0.099609375,5402
0.064453125,5403
0.08203125,5404
0.083984375,5405
0.138671875,5406
0.138671875,5407
0.029296875,5408
0.0859375,5409
0.056640625,5410
0.111328125,5411
0.24609375,5412
0.130859375,5413
0.10546875,5414
0.119140625,5415
0.154296875,5416
0.197265625,5417
0.154296875,5418
0.201171875,5419
0.203125,5420
0.26953125,5421
0.26171875,5422
0.26953125,5423
0.078125,5424
0.1875,5425
0.205078125,5426
0.234375,5427
0.275390625,5428
0.158203125,5429
0.05859375,5430
0.115234375,5431
0.15625,5432
0.326171875,5433
0.2265625,5434
0.0703125,5435
0.19921875,5436
0.166015625,5437
0.220703125,5438
0.205078125,5439
0.1484375,5440
0.05078125,5441
0.19140625,5442
0.158203125,5443
0.19140625,5444
0.189453125,5445
0.0390625,5446
0.0703125,5447
0.09765625,5448
0.15625,5449
0.197265625,5450
0.111328125,5451
0.01953125,5452
0.103515625,5453
0.08203125,5454
0.1953125,5455
0.142578125,5456
0.115234375,5457
0.19140625,5458
0.19140625,5459
0.15625,5460
0.21484375,5461
0.078125,5462
0.125,5463
0.115234375,5464
0.166015625,5465
0.251953125,5466
0.193359375,5467
0.146484375,5468
0.2109375,5469
0.27734375,5470
0.23828125,5471
0.228515625,5472
0.0546875,5473
0.15625,5474
0.14453125,5475
0.19921875,5476
0.14453125,5477
0.11328125,5478
0.1953125,5479
0.15234375,5480
0.140625,5481
0.234375,5482
0.140625,5483
0.1328125,5484
0.27734375,5485
0.267578125,5486
0.240234375,5487
0.197265625,5488
0.052734375,5489
0.1640625,5490
0.2109375,5491
0.30078125,5492
0.3046875,5493
0.083984375,5494
0.103515625,5495
0.0625,5496
0.28515625,5497
0.251953125,5498
0.12890625,5499
0.134765625,5500
0.234375,5501
0.2421875,5502
0.255859375,5503
0.23828125,5504
0.087890625,5505
0.1953125,5506
0.193359375,5507
0.1640625,5508
0.271484375,5509
0.107421875,5510
0.173828125,5511
0.1953125,5512
0.244140625,5513
0.23046875,5514
0.18359375,5515
0.103515625,5516
0.150390625,5517
0.205078125,5518
0.19921875,5519
0.16015625,5520
0.076171875,5521
0.1953125,5522
0.169921875,5523
0.19921875,5524
0.197265625,5525
0.04296875,5526
0.0859375,5527
0.13671875,5528
0.1171875,5529
0.18359375,5530
0.15234375,5531
0.087890625,5532
0.03515625,5533
0.044921875,5534
0.0703125,5535
0.173828125,5536
0.068359375,5537
0.0546875,5538
0.0703125,5539
0.140625,5540
0.19921875,5541
0.123046875,5542
0.1328125,5543
0.078125,5544
0.208984375,5545
0.29296875,5546
0.13671875,5547
0.169921875,5548
0.1875,5549
0.296875,5550
0.337890625,5551
0.236328125,5552
0.068359375,5553
0.234375,5554
0.248046875,5555
0.26171875,5556
0.25390625,5557
0.115234375,5558
0.072265625,5559
0.216796875,5560
0.189453125,5561
0.240234375,5562
0.1796875,5563
0.146484375,5564
0.22265625,5565
0.38671875,5566
0.423828125,5567
0.333984375,5568
0.16015625,5569
0.22265625,5570
0.173828125,5571
0.22265625,5572
0.287109375,5573
0.16015625,5574
0.02734375,5575
0.068359375,5576
0.0234375,5577
0.193359375,5578
0.234375,5579
0.05859375,5580
0.05078125,5581
0.0625,5582
0.212890625,5583
0.138671875,5584
0.08984375,5585
0.138671875,5586
0.10546875,5587
0.150390625,5588
0.208984375,5589
0.162109375,5590
0.05078125,5591
0.23828125,5592
0.228515625,5593
0.271484375,5594
0.26171875,5595
0.1328125,5596
0.1796875,5597
0.142578125,5598
0.2109375,5599
0.1796875,5600
0.109375,5601
0.060546875,5602
0.130859375,5603
0.23046875,5604
0.232421875,5605
0.1328125,5606
0.076171875,5607
0.166015625,5608
0.3046875,5609
0.34765625,5610
0.2734375,5611
0.1875,5612
0.265625,5613
0.21875,5614
0.2734375,5615
0.1640625,5616
0.134765625,5617
0.08203125,5618
0.123046875,5619
0.140625,5620
0.17578125,5621
0.15234375,5622
0.048828125,5623
0.091796875,5624
0.078125,5625
0.142578125,5626
0.17578125,5627
0.05078125,5628
0.126953125,5629
0.177734375,5630
0.12109375,5631
0.203125,5632
0.068359375,5633
0.11328125,5634
0.095703125,5635
0.171875,5636
0.1875,5637
0.15625,5638
0.068359375,5639
0.30078125,5640
0.240234375,5641
0.30078125,5642
0.265625,5643
0.080078125,5644
0.15625,5645
0.162109375,5646
0.212890625,5647
0.2265625,5648
0.072265625,5649
0.126953125,5650
0.1171875,5651
0.15234375,5652
0.185546875,5653
0.169921875,5654
0.072265625,5655
0.1484375,5656
0.287109375,5657
0.2265625,5658
0.23828125,5659
0.041015625,5660
0.193359375,5661
0.1796875,5662
0.21875,5663
0.29296875,5664
0.064453125,5665
0.0703125,5666
0.083984375,5667
0.37109375,5668
0.41796875,5669
0.18359375,5670
0.09765625,5671
0.1796875,5672
0.244140625,5673
0.220703125,5674
0.224609375,5675
0.0703125,5676
0.17578125,5677
0.1484375,5678
0.154296875,5679
0.16796875,5680
0.185546875,5681
0.087890625,5682
0.216796875,5683
0.201171875,5684
0.259765625,5685
0.294921875,5686
0.1015625,5687
0.28515625,5688
0.3046875,5689
0.341796875,5690
0.32421875,5691
0.078125,5692
0.177734375,5693
0.169921875,5694
0.22265625,5695
0.216796875,5696
0.13671875,5697
0.0546875,5698
0.12109375,5699
0.1484375,5700
0.126953125,5701
0.248046875,5702
0.115234375,5703
0.107421875,5704
0.197265625,5705
0.1328125,5706
0.12109375,5707
0.142578125,5708
0.044921875,5709
0.078125,5710
0.115234375,5711
0.251953125,5712
0.248046875,5713
0.07421875,5714
0.111328125,5715
0.25390625,5716
0.298828125,5717
0.330078125,5718
0.05078125,5719
0.150390625,5720
0.22265625,5721
0.2421875,5722
0.326171875,5723
0.287109375,5724
0.037109375,5725
0.19921875,5726
0.251953125,5727
0.185546875,5728
0.267578125,5729
0.060546875,5730
0.111328125,5731
0.1015625,5732
0.14453125,5733
0.16015625,5734
0.15625,5735
0.076171875,5736
0.125,5737
0.068359375,5738
0.189453125,5739
0.173828125,5740
0.05859375,5741
0.12890625,5742
0.109375,5743
0.166015625,5744
0.173828125,5745
0.064453125,5746
0.07421875,5747
0.056640625,5748
0.13671875,5749
0.166015625,5750
0.220703125,5751
0.0546875,5752
0.076171875,5753
0.107421875,5754
0.078125,5755
0.15625,5756
0.068359375,5757
0.13671875,5758
0.125,5759
0.16796875,5760
0.240234375,5761
0.08984375,5762
0.15234375,5763
0.271484375,5764
0.20703125,5765
0.24609375,5766
0.181640625,5767
0.041015625,5768
0.220703125,5769
0.185546875,5770
0.189453125,5771
0.24609375,5772
0.08203125,5773
0.16796875,5774
0.095703125,5775
0.255859375,5776
0.240234375,5777
0.07421875,5778
0.103515625,5779
0.28125,5780
0.232421875,5781
0.2890625,5782
0.3125,5783
0.1640625,5784
0.2109375,5785
0.212890625,5786
0.279296875,5787
0.224609375,5788
0.060546875,5789
0.123046875,5790
0.14453125,5791
0.154296875,5792
0.162109375,5793
0.16015625,5794
0.021484375,5795
0.14453125,5796
0.30859375,5797
0.46484375,5798
0.267578125,5799
0.052734375,5800
0.111328125,5801
0.12109375,5802
0.123046875,5803
0.208984375,5804
0.10546875,5805
0.15234375,5806
0.123046875,5807
0.10546875,5808
0.169921875,5809
0.158203125,5810
0.083984375,5811
0.212890625,5812
0.2578125,5813
0.2890625,5814
0.3046875,5815
0.09765625,5816
0.142578125,5817
0.138671875,5818
0.173828125,5819
0.1796875,5820
0.13671875,5821
0.15625,5822
0.17578125,5823
0.2265625,5824
0.17578125,5825
0.181640625,5826
0.046875,5827
0.189453125,5828
0.142578125,5829
0.283203125,5830
0.248046875,5831
0.09765625,5832
0.15625,5833
0.1328125,5834
0.279296875,5835
0.28125,5836
0.1640625,5837
0.064453125,5838
0.12890625,5839
0.140625,5840
0.255859375,5841
0.166015625,5842
0.103515625,5843
0.2265625,5844
0.2578125,5845
0.271484375,5846
0.3203125,5847
0.111328125,5848
0.11328125,5849
0.126953125,5850
0.27734375,5851
0.296875,5852
0.19140625,5853
0.076171875,5854
0.1953125,5855
0.19921875,5856
0.263671875,5857
0.34375,5858
0.08984375,5859
0.16796875,5860
0.166015625,5861
0.21484375,5862
0.265625,5863
0.162109375,5864
0.103515625,5865
0.203125,5866
0.1796875,5867
0.17578125,5868
0.189453125,5869
0.044921875,5870
0.109375,5871
0.146484375,5872
0.107421875,5873
0.205078125,5874
0.10546875,5875
0.07421875,5876
0.103515625,5877
0.115234375,5878
0.12890625,5879
0.162109375,5880
0.103515625,5881
0.25,5882
0.197265625,5883
0.171875,5884
0.1796875,5885
0.111328125,5886
0.12890625,5887
0.123046875,5888
0.16796875,5889
0.408203125,5890
0.193359375,5891
0.1015625,5892
0.220703125,5893
0.240234375,5894
0.357421875,5895
0.19140625,5896
0.0859375,5897
0.19921875,5898
0.197265625,5899
0.20703125,5900
0.265625,5901
0.078125,5902
0.130859375,5903
0.12890625,5904
0.2578125,5905
0.220703125,5906
0.130859375,5907
0.103515625,5908
0.181640625,5909
0.16796875,5910
0.205078125,5911
0.216796875,5912
0.04296875,5913
0.05859375,5914
0.080078125,5915
0.09375,5916
0.216796875,5917
0.03515625,5918
0.078125,5919
0.099609375,5920
0.08984375,5921
0.212890625,5922
0.107421875,5923
0.072265625,5924
0.044921875,5925
0.123046875,5926
0.166015625,5927
0.21484375,5928
0.068359375,5929
0.109375,5930
0.09765625,5931
0.201171875,5932
0.19921875,5933
0.05859375,5934
0.142578125,5935
0.228515625,5936
0.255859375,5937
0.291015625,5938
0.05078125,5939
0.173828125,5940
0.24609375,5941
0.166015625,5942
0.26171875,5943
0.193359375,5944
0.0546875,5945
0.26953125,5946
0.369140625,5947
0.15625,5948
0.1796875,5949
0.0625,5950
0.1796875,5951
0.22265625,5952
0.2265625,5953
0.185546875,5954
0.130859375,5955
0.146484375,5956
0.09765625,5957
0.099609375,5958
0.05859375,5959
0.076171875,5960
0.072265625,5961
0.08203125,5962
0.080078125,5963
0.07421875,5964
0.103515625,5965
0.05859375,5966
0.158203125,5967
0.107421875,5968
0.158203125,5969
0.20703125,5970
0.15625,5971
0.12890625,5972
0.166015625,5973
0.09765625,5974
0.142578125,5975
0.171875,5976
0.037109375,5977
0.1953125,5978
0.11328125,5979
0.115234375,5980
0.2109375,5981
0.09765625,5982
0.2265625,5983
0.205078125,5984
0.302734375,5985
0.302734375,5986
0.169921875,5987
0.107421875,5988
0.2109375,5989
0.251953125,5990
0.2265625,5991
0.123046875,5992
0.119140625,5993
0.126953125,5994
0.16796875,5995
0.171875,5996
0.26953125,5997
0.08984375,5998
0.20703125,5999
0.23828125,6000
0.23046875,6001
0.189453125,6002
0.06640625,6003
0.197265625,6004
0.115234375,6005
0.25,6006
0.259765625,6007
0.21875,6008
0.103515625,6009
0.189453125,6010
0.205078125,6011
0.13671875,6012
0.126953125,6013
0.119140625,6014
0.2734375,6015
0.22265625,6016
0.236328125,6017
0.2890625,6018
0.076171875,6019
0.16796875,6020
0.138671875,6021
0.326171875,6022
0.25,6023
0.138671875,6024
0.146484375,6025
0.24609375,6026
0.263671875,6027
0.236328125,6028
0.2109375,6029
0.107421875,6030
0.205078125,6031
0.22265625,6032
0.220703125,6033
0.26953125,6034
0.095703125,6035
0.162109375,6036
0.19140625,6037
0.19140625,6038
0.173828125,6039
0.154296875,6040
0.076171875,6041
0.134765625,6042
0.1015625,6043
0.15234375,6044
0.173828125,6045
0.06640625,6046
0.109375,6047
0.169921875,6048
0.205078125,6049
0.201171875,6050
0.1640625,6051
0.068359375,6052
0.150390625,6053
0.1171875,6054
0.18359375,6055
0.158203125,6056
0.099609375,6057
0.2265625,6058
0.267578125,6059
0.259765625,6060
0.20703125,6061
0.1015625,6062
0.15625,6063
0.130859375,6064
0.205078125,6065
0.18359375,6066
0.130859375,6067
0.091796875,6068
0.1796875,6069
0.171875,6070
0.169921875,6071
0.19140625,6072
0.05859375,6073
0.123046875,6074
0.1328125,6075
0.19921875,6076
0.25,6077
0.109375,6078
0.11328125,6079
0.123046875,6080
0.08984375,6081
0.169921875,6082
0.251953125,6083
0.10546875,6084
0.1328125,6085
0.150390625,6086
0.16015625,6087
0.193359375,6088
0.12109375,6089
0.150390625,6090
0.16015625,6091
0.19921875,6092
0.16796875,6093
0.203125,6094
0.0546875,6095
0.1484375,6096
0.140625,6097
0.162109375,6098
0.248046875,6099
0.119140625,6100
0.220703125,6101
0.181640625,6102
0.279296875,6103
0.1796875,6104
0.169921875,6105
0.076171875,6106
0.1328125,6107
0.0859375,6108
0.130859375,6109
0.224609375,6110
0.072265625,6111
0.15234375,6112
0.12109375,6113
0.134765625,6114
0.16796875,6115
0.19921875,6116
0.06640625,6117
0.1953125,6118
0.154296875,6119
0.177734375,6120
0.181640625,6121
0.091796875,6122
0.23046875,6123
0.15625,6124
0.23046875,6125
0.255859375,6126
0.166015625,6127
0.0859375,6128
0.197265625,6129
0.169921875,6130
0.2265625,6131
0.18359375,6132
0.056640625,6133
0.18359375,6134
0.216796875,6135
0.1328125,6136
0.236328125,6137
0.0625,6138
0.109375,6139
0.146484375,6140
0.20703125,6141
0.19921875,6142
0.138671875,6143
0.169921875,6144
0.1640625,6145
0.189453125,6146
0.18359375,6147
0.208984375,6148
0.087890625,6149
0.140625,6150
0.1796875,6151
0.16796875,6152
0.1796875,6153
0.14453125,6154
0.1484375,6155
0.21484375,6156
0.234375,6157
0.314453125,6158
0.26953125,6159
0.12109375,6160
0.28125,6161
0.22265625,6162
0.302734375,6163
0.298828125,6164
0.15625,6165
0.142578125,6166
0.216796875,6167
0.25390625,6168
0.279296875,6169
0.142578125,6170
0.095703125,6171
0.255859375,6172
0.23046875,6173
0.298828125,6174
0.14453125,6175
0.1640625,6176
0.212890625,6177
0.29296875,6178
0.23046875,6179
0.21484375,6180
0.083984375,6181
0.236328125,6182
0.26953125,6183
0.27734375,6184
0.2578125,6185
0.10546875,6186
0.236328125,6187
0.3203125,6188
0.294921875,6189
0.310546875,6190
0.232421875,6191
0.154296875,6192
0.22265625,6193
0.279296875,6194
0.298828125,6195
0.224609375,6196
0.1015625,6197
0.25,6198
0.244140625,6199
0.3203125,6200
0.248046875,6201
0.08203125,6202
0.142578125,6203
0.203125,6204
0.234375,6205
0.259765625,6206
0.16015625,6207
0.169921875,6208
0.142578125,6209
0.12890625,6210
0.09765625,6211
0.1953125,6212
0.083984375,6213
0.0859375,6214
0.0859375,6215
0.095703125,6216
0.2578125,6217
0.087890625,6218
0.07421875,6219
0.119140625,6220
0.13671875,6221
0.234375,6222
0.173828125,6223
0.048828125,6224
0.126953125,6225
0.177734375,6226
0.125,6227
0.205078125,6228
0.10546875,6229
0.14453125,6230
0.1171875,6231
0.126953125,6232
0.150390625,6233
0.125,6234
0.0859375,6235
0.103515625,6236
0.12109375,6237
0.103515625,6238
0.15234375,6239
0.05078125,6240
0.099609375,6241
0.08984375,6242
0.08203125,6243
0.125,6244
0.060546875,6245
0.060546875,6246
0.099609375,6247
0.126953125,6248
0.126953125,6249
0.208984375,6250
0.11328125,6251
0.185546875,6252
0.166015625,6253
0.212890625,6254
0.2265625,6255
0.087890625,6256
0.123046875,6257
0.080078125,6258
0.1328125,6259
0.201171875,6260
0.15625,6261
0.072265625,6262
0.193359375,6263
0.13671875,6264
0.154296875,6265
0.162109375,6266
0.037109375,6267
0.099609375,6268
0.09765625,6269
0.140625,6270
0.208984375,6271
0.0859375,6272
0.177734375,6273
0.15234375,6274
0.2109375,6275
0.14453125,6276
0.181640625,6277
0.083984375,6278
0.1015625,6279
0.078125,6280
0.1015625,6281
0.15625,6282
0.064453125,6283
0.109375,6284
0.0703125,6285
0.080078125,6286
0.09375,6287
0.103515625,6288
0.0859375,6289
0.123046875,6290
0.078125,6291
0.119140625,6292
0.0703125,6293
0.123046875,6294
0.08984375,6295
0.099609375,6296
0.09765625,6297
0.189453125,6298
0.068359375,6299
0.09375,6300
0.134765625,6301
0.109375,6302
0.21875,6303
0.078125,6304
0.064453125,6305
0.05078125,6306
0.12109375,6307
0.201171875,6308
0.17578125,6309
0.052734375,6310
0.171875,6311
0.185546875,6312
0.208984375,6313
0.234375,6314
0.064453125,6315
0.15234375,6316
0.177734375,6317
0.173828125,6318
0.25390625,6319
0.10546875,6320
0.15234375,6321
0.166015625,6322
0.201171875,6323
0.265625,6324
0.19921875,6325
0.10546875,6326
0.27734375,6327
0.234375,6328
0.32421875,6329
0.333984375,6330
0.091796875,6331
0.3203125,6332
0.240234375,6333
0.333984375,6334
0.287109375,6335
0.18359375,6336
0.087890625,6337
0.228515625,6338
0.171875,6339
0.25390625,6340
0.146484375,6341
0.115234375,6342
0.16796875,6343
0.23046875,6344
0.283203125,6345
0.1484375,6346
0.171875,6347
0.236328125,6348
0.330078125,6349
0.291015625,6350
0.216796875,6351
0.09765625,6352
0.126953125,6353
0.232421875,6354
0.296875,6355
0.216796875,6356
0.119140625,6357
0.16015625,6358
0.2578125,6359
0.296875,6360
0.349609375,6361
0.244140625,6362
0.099609375,6363
0.265625,6364
0.30078125,6365
0.333984375,6366
0.357421875,6367
0.169921875,6368
0.134765625,6369
0.27734375,6370
0.265625,6371
0.255859375,6372
0.232421875,6373
0.083984375,6374
0.19921875,6375
0.20703125,6376
0.21875,6377
0.23046875,6378
0.15234375,6379
0.11328125,6380
0.251953125,6381
0.1875,6382
0.15234375,6383
0.17578125,6384
0.056640625,6385
0.19140625,6386
0.13671875,6387
0.208984375,6388
0.2578125,6389
0.087890625,6390
0.134765625,6391
0.111328125,6392
0.09765625,6393
0.1796875,6394
0.140625,6395
0.044921875,6396
0.14453125,6397
0.17578125,6398
0.26171875,6399
0.26953125,6400
0.091796875,6401
0.158203125,6402
0.1796875,6403
0.166015625,6404
0.201171875,6405
0.171875,6406
0.078125,6407
0.19140625,6408
0.1796875,6409
0.23046875,6410
0.17578125,6411
0.044921875,6412
0.21484375,6413
0.205078125,6414
0.185546875,6415
0.224609375,6416
0.162109375,6417
0.08984375,6418
0.1640625,6419
0.15234375,6420
0.203125,6421
0.158203125,6422
0.154296875,6423
0.1484375,6424
0.2421875,6425
0.2421875,6426
0.25390625,6427
0.107421875,6428
0.119140625,6429
0.185546875,6430
0.212890625,6431
0.314453125,6432
0.083984375,6433
0.083984375,6434
0.14453125,6435
0.109375,6436
0.111328125,6437
0.234375,6438
0.078125,6439
0.109375,6440
0.091796875,6441
0.232421875,6442
0.21484375,6443
0.099609375,6444
0.228515625,6445
0.107421875,6446
0.248046875,6447
0.193359375,6448
0.201171875,6449
0.091796875,6450
0.09765625,6451
0.138671875,6452
0.23828125,6453
0.203125,6454
0.052734375,6455
0.146484375,6456
0.146484375,6457
0.18359375,6458
0.2109375,6459
0.166015625,6460
0.076171875,6461
0.189453125,6462
0.138671875,6463
0.154296875,6464
0.13671875,6465
0.09375,6466
0.126953125,6467
0.099609375,6468
0.14453125,6469
0.15625,6470
0.0703125,6471
0.119140625,6472
0.12890625,6473
0.16796875,6474
0.21875,6475
0.1171875,6476
0.1875,6477
0.125,6478
0.171875,6479
0.140625,6480
0.205078125,6481
0.087890625,6482
0.1484375,6483
0.162109375,6484
0.25390625,6485
0.158203125,6486
0.091796875,6487
0.15234375,6488
0.2109375,6489
0.236328125,6490
0.271484375,6491
0.208984375,6492
0.095703125,6493
0.1953125,6494
0.19921875,6495
0.1796875,6496
0.18359375,6497
0.10546875,6498
0.2421875,6499
0.26171875,6500
0.32421875,6501
0.328125,6502
0.1171875,6503
0.16015625,6504
0.171875,6505
0.212890625,6506
0.208984375,6507
0.185546875,6508
0.10546875,6509
0.1875,6510
0.1328125,6511
0.1953125,6512
0.23046875,6513
0.08203125,6514
0.1953125,6515
0.228515625,6516
0.341796875,6517
0.232421875,6518
0.130859375,6519
0.26171875,6520
0.3203125,6521
0.296875,6522
0.251953125,6523
0.115234375,6524
0.23046875,6525
0.154296875,6526
0.326171875,6527
0.26953125,6528
0.1484375,6529
0.265625,6530
0.26171875,6531
0.31640625,6532
0.365234375,6533
0.189453125,6534
0.185546875,6535
0.330078125,6536
0.216796875,6537
0.251953125,6538
0.173828125,6539
0.15625,6540
0.2421875,6541
0.28125,6542
0.306640625,6543
0.28125,6544
0.166015625,6545
0.123046875,6546
0.25390625,6547
0.255859375,6548
0.25,6549
0.232421875,6550
0.08203125,6551
0.17578125,6552
0.169921875,6553
0.1640625,6554
0.181640625,6555
0.05859375,6556
0.123046875,6557
0.1796875,6558
0.2255859375,6559
0.18359375,6560
0.134765625,6561
0.064453125,6562
0.15234375,6563
0.150390625,6564
0.177734375,6565
0.201171875,6566
0.09375,6567
0.140625,6568
0.181640625,6569
0.15234375,6570
0.173828125,6571
0.1015625,6572
0.12109375,6573
0.1015625,6574
0.083984375,6575
0.13671875,6576
0.22265625,6577
0.052734375,6578
0.111328125,6579
0.109375,6580
0.107421875,6581
0.169921875,6582
0.103515625,6583
0.16015625,6584
0.140625,6585
0.197265625,6586
0.28125,6587
0.1875,6588
0.15625,6589
0.111328125,6590
0.205078125,6591
0.2265625,6592
0.123046875,6593
0.068359375,6594
0.23046875,6595
0.15625,6596
0.228515625,6597
0.248046875,6598
0.08203125,6599
0.171875,6600
0.1640625,6601
0.134765625,6602
0.17578125,6603
0.09375,6604
0.140625,6605
0.150390625,6606
0.15234375,6607
0.16796875,6608
0.267578125,6609
0.087890625,6610
0.142578125,6611
0.125,6612
0.16796875,6613
0.24609375,6614
0.099609375,6615
0.21875,6616
0.17578125,6617
0.22265625,6618
0.26953125,6619
0.11328125,6620
0.126953125,6621
0.13671875,6622
0.125,6623
0.111328125,6624
0.087890625,6625
0.1015625,6626
0.177734375,6627
0.103515625,6628
0.08203125,6629
0.08984375,6630
0.07421875,6631
0.1640625,6632
0.1328125,6633
0.169921875,6634
0.193359375,6635
0.138671875,6636
0.1328125,6637
0.119140625,6638
0.087890625,6639
0.0703125,6640
0.16796875,6641
0.095703125,6642
0.125,6643
0.126953125,6644
0.13671875,6645
0.208984375,6646
0.048828125,6647
0.109375,6648
0.1484375,6649
0.1328125,6650
0.1328125,6651
0.205078125,6652
0.072265625,6653
0.10546875,6654
0.087890625,6655
0.109375,6656
0.236328125,6657
0.15625,6658
0.146484375,6659
0.19921875,6660
0.177734375,6661
0.1796875,6662
0.15234375,6663
0.056640625,6664
0.19140625,6665
0.23828125,6666
0.212890625,6667
0.21875,6668
0.095703125,6669
0.283203125,6670
0.296875,6671
0.326171875,6672
0.359375,6673
0.1484375,6674
0.19921875,6675
0.228515625,6676
0.236328125,6677
0.24609375,6678
0.23828125,6679
0.109375,6680
0.2109375,6681
0.21875,6682
0.24609375,6683
0.197265625,6684
0.1015625,6685
0.19140625,6686
0.21875,6687
0.3046875,6688
0.232421875,6689
0.09765625,6690
0.29296875,6691
0.310546875,6692
0.3515625,6693
0.353515625,6694
0.0859375,6695
0.228515625,6696
0.19140625,6697
0.267578125,6698
0.28125,6699
0.166015625,6700
0.1484375,6701
0.224609375,6702
0.28125,6703
0.27734375,6704
0.224609375,6705
0.111328125,6706
0.232421875,6707
0.283203125,6708
0.265625,6709
0.365234375,6710
0.3515625,6711
0.13671875,6712
0.224609375,6713
0.369140625,6714
0.361328125,6715
0.376953125,6716
0.216796875,6717
0.220703125,6718
0.2734375,6719
0.349609375,6720
0.291015625,6721
0.287109375,6722
0.19921875,6723
0.15234375,6724
0.212890625,6725
0.23828125,6726
0.26171875,6727
0.2109375,6728
0.09375,6729
0.2109375,6730
0.13671875,6731
0.1953125,6732
0.26171875,6733
0.201171875,6734
0.12109375,6735
0.19921875,6736
0.193359375,6737
0.15234375,6738
0.24609375,6739
0.083984375,6740
0.08203125,6741
0.095703125,6742
0.17578125,6743
0.19921875,6744
0.0625,6745
0.130859375,6746
0.140625,6747
0.2109375,6748
0.177734375,6749
0.140625,6750
0.107421875,6751
0.21875,6752
0.251953125,6753
0.3359375,6754
0.234375,6755
0.203125,6756
0.236328125,6757
0.2890625,6758
0.2890625,6759
0.26171875,6760
0.1953125,6761
0.197265625,6762
0.2734375,6763
0.384765625,6764
0.30859375,6765
0.1484375,6766
0.271484375,6767
0.216796875,6768
0.255859375,6769
0.34375,6770
0.271484375,6771
0.095703125,6772
0.16796875,6773
0.169921875,6774
0.12890625,6775
0.15625,6776
0.08203125,6777
0.296875,6778
0.287109375,6779
0.34375,6780
0.177734375,6781
0.203125,6782
0.076171875,6783
0.166015625,6784
0.150390625,6785
0.16015625,6786
0.095703125,6787
0.052734375,6788
0.1015625,6789
0.1015625,6790
0.138671875,6791
0.23046875,6792
0.0546875,6793
0.138671875,6794
0.298828125,6795
0.306640625,6796
0.291015625,6797
0.126953125,6798
0.28125,6799
0.232421875,6800
0.30859375,6801
0.31640625,6802
0.3125,6803
0.083984375,6804
0.322265625,6805
0.357421875,6806
0.306640625,6807
0.111328125,6808
0.234375,6809
0.181640625,6810
0.28125,6811
0.19140625,6812
0.26171875,6813
0.09765625,6814
0.15234375,6815
0.19921875,6816
0.31640625,6817
0.24609375,6818
0.0546875,6819
0.1875,6820
0.185546875,6821
0.158203125,6822
0.1796875,6823
0.16015625,6824
0.064453125,6825
0.14453125,6826
0.1796875,6827
0.119140625,6828
0.10546875,6829
0.0859375,6830
0.12890625,6831
0.12890625,6832
0.11328125,6833
0.107421875,6834
0.076171875,6835
0.134765625,6836
0.130859375,6837
0.30859375,6838
0.283203125,6839
0.15625,6840
0.2734375,6841
0.208984375,6842
0.28125,6843
0.345703125,6844
0.28515625,6845
0.080078125,6846
0.236328125,6847
0.3203125,6848
0.283203125,6849
0.208984375,6850
0.15234375,6851
0.25,6852
0.32421875,6853
0.298828125,6854
0.29296875,6855
0.171875,6856
0.13671875,6857
0.232421875,6858
0.25,6859
0.404296875,6860
0.2421875,6861
0.056640625,6862
0.2109375,6863
0.208984375,6864
0.19921875,6865
0.1796875,6866
0.1796875,6867
0.048828125,6868
0.1015625,6869
0.05078125,6870
0.08984375,6871
0.12109375,6872
0.06640625,6873
0.17578125,6874
0.173828125,6875
0.19140625,6876
0.240234375,6877
0.080078125,6878
0.23046875,6879
0.142578125,6880
0.36328125,6881
0.25390625,6882
0.08203125,6883
0.29296875,6884
0.287109375,6885
0.21875,6886
0.25,6887
0.205078125,6888
0.14453125,6889
0.205078125,6890
0.1796875,6891
0.197265625,6892
0.08984375,6893
0.25,6894
0.1796875,6895
0.279296875,6896
0.220703125,6897
0.2734375,6898
0.05859375,6899
0.109375,6900
0.04296875,6901
0.060546875,6902
0.177734375,6903
0.11328125,6904
0.083984375,6905
0.15625,6906
0.224609375,6907
0.19921875,6908
0.21875,6909
0.08203125,6910
0.068359375,6911
0.05078125,6912
0.171875,6913
0.26171875,6914
0.083984375,6915
0.068359375,6916
0.154296875,6917
0.173828125,6918
0.185546875,6919
0.162109375,6920
0.04296875,6921
0.279296875,6922
0.244140625,6923
0.26171875,6924
0.283203125,6925
0.109375,6926
0.1484375,6927
0.24609375,6928
0.3203125,6929
0.32421875,6930
0.232421875,6931
0.232421875,6932
0.240234375,6933
0.33984375,6934
0.36328125,6935
0.111328125,6936
0.185546875,6937
0.14453125,6938
0.265625,6939
0.306640625,6940
0.26953125,6941
0.083984375,6942
0.1796875,6943
0.111328125,6944
0.08984375,6945
0.115234375,6946
0.06640625,6947
0.23046875,6948
0.17578125,6949
0.234375,6950
0.298828125,6951
0.220703125,6952
0.056640625,6953
0.19140625,6954
0.15234375,6955
0.123046875,6956
0.171875,6957
0.12890625,6958
0.173828125,6959
0.12890625,6960
0.169921875,6961
0.193359375,6962
0.12109375,6963
0.189453125,6964
0.248046875,6965
0.322265625,6966
0.318359375,6967
0.134765625,6968
0.30859375,6969
0.2578125,6970
0.3125,6971
0.3046875,6972
0.2578125,6973
0.130859375,6974
0.216796875,6975
0.279296875,6976
0.373046875,6977
0.216796875,6978
0.2109375,6979
0.1953125,6980
0.3125,6981
0.345703125,6982
0.31640625,6983
0.15234375,6984
0.140625,6985
0.16796875,6986
0.09375,6987
0.099609375,6988
0.095703125,6989
0.169921875,6990
0.16796875,6991
0.119140625,6992
0.10546875,6993
0.1640625,6994
0.087890625,6995
0.0703125,6996
0.173828125,6997
0.15625,6998
0.115234375,6999
0.05078125,7000
0.14453125,7001
0.115234375,7002
0.111328125,7003
0.046875,7004
0.1328125,7005
0.060546875,7006
0.1875,7007
0.294921875,7008
0.314453125,7009
0.25390625,7010
0.103515625,7011
0.26171875,7012
0.333984375,7013
0.31640625,7014
0.330078125,7015
0.3125,7016
0.12109375,7017
0.26953125,7018
0.326171875,7019
0.294921875,7020
0.12890625,7021
0.228515625,7022
0.234375,7023
0.158203125,7024
0.283203125,7025
0.26171875,7026
0.17578125,7027
0.111328125,7028
0.16015625,7029
0.193359375,7030
0.203125,7031
0.11328125,7032
0.052734375,7033
0.27734375,7034
0.19140625,7035
0.22265625,7036
0.078125,7037
0.15625,7038
0.181640625,7039
0.107421875,7040
0.0703125,7041
0.099609375,7042
0.181640625,7043
0.125,7044
0.076171875,7045
0.037109375,7046
0.1484375,7047
0.22265625,7048
0.208984375,7049
0.150390625,7050
0.123046875,7051
0.23828125,7052
0.29296875,7053
0.30859375,7054
0.2734375,7055
0.240234375,7056
0.205078125,7057
0.208984375,7058
0.26171875,7059
0.232421875,7060
0.326171875,7061
0.30078125,7062
0.228515625,7063
0.27734375,7064
0.19921875,7065
0.201171875,7066
0.201171875,7067
0.138671875,7068
0.056640625,7069
0.0390625,7070
0.197265625,7071
0.13671875,7072
0.0859375,7073
0.037109375,7074
0.03125,7075
0.12109375,7076
0.201171875,7077
0.18359375,7078
0.056640625,7079
0.01953125,7080
0.033203125,7081
0.16015625,7082
0.234375,7083
0.1875,7084
0.080078125,7085
0.0234375,7086
0.046875,7087
0.140625,7088
0.271484375,7089
0.134765625,7090
0.03515625,7091
0.029296875,7092
0.125,7093
0.248046875,7094
0.203125,7095
0.23046875,7096
0.068359375,7097
0.203125,7098
0.275390625,7099
0.052734375,7100
0.08203125,7101
0.162109375,7102
0.28515625,7103
0.203125,7104
0.2890625,7105
0.2421875,7106
0.234375,7107
0.11328125,7108
0.1171875,7109
0.16796875,7110
0.095703125,7111
0.078125,7112
0.046875,7113
0.029296875,7114
0.0625,7115
0.09765625,7116
0.29296875,7117
0.25,7118
0.2890625,7119
0.283203125,7120
0.224609375,7121
0.185546875,7122
0.12109375,7123
0.029296875,7124
0.052734375,7125
0.2109375,7126
0.138671875,7127
0.125,7128
0.0390625,7129
0.03515625,7130
0.109375,7131
0.25390625,7132
0.30078125,7133
0.26171875,7134
0.23828125,7135
0.123046875,7136
0.1875,7137
0.14453125,7138
0.068359375,7139
0.078125,7140
0.146484375,7141
0.220703125,7142
0.06640625,7143
0.03515625,7144
0.009765625,7145
0.01171875,7146
0.01953125,7147
0.08203125,7148
0.21484375,7149
0.3203125,7150
0.283203125,7151
0.291015625,7152
0.224609375,7153
0.193359375,7154
0.171875,7155
0.05078125,7156
0.13671875,7157
0.146484375,7158
0.208984375,7159
0.111328125,7160
0.03515625,7161
0.046875,7162
0.041015625,7163
0.1796875,7164
0.28125,7165
0.232421875,7166
0.251953125,7167
0.26171875,7168
0.279296875,7169
0.236328125,7170
0.16796875,7171
0.08984375,7172
0.0703125,7173
0.09765625,7174
0.162109375,7175
0.0390625,7176
0.08203125,7177
0.115234375,7178
0.23046875,7179
0.265625,7180
0.2109375,7181
0.255859375,7182
0.287109375,7183
0.298828125,7184
0.267578125,7185
0.248046875,7186
0.072265625,7187
0.171875,7188
0.146484375,7189
0.208984375,7190
0.2109375,7191
0.19140625,7192
0.130859375,7193
0.044921875,7194
0.056640625,7195
0.232421875,7196
0.28125,7197
0.26171875,7198
0.169921875,7199
0.173828125,7200
0.240234375,7201
0.291015625,7202
0.30859375,7203
0.28515625,7204
0.23828125,7205
0.248046875,7206
0.248046875,7207
0.130859375,7208
0.02734375,7209
0.029296875,7210
0.123046875,7211
0.1875,7212
0.029296875,7213
0.033203125,7214
0.025390625,7215
0.060546875,7216
0.171875,7217
0.26171875,7218
0.291015625,7219
0.302734375,7220
0.25390625,7221
0.287109375,7222
0.234375,7223
0.09375,7224
0.078125,7225
0.0546875,7226
0.171875,7227
0.2734375,7228
0.013671875,7229
0.11328125,7230
0.107421875,7231
0.158203125,7232
0.3203125,7233
0.224609375,7234
0.236328125,7235
0.283203125,7236
0.220703125,7237
0.17578125,7238
0.103515625,7239
0.068359375,7240
0.04296875,7241
0.029296875,7242
0.048828125,7243
0.130859375,7244
0.201171875,7245
0.234375,7246
0.23828125,7247
0.1328125,7248
0.134765625,7249
0.056640625,7250
0.048828125,7251
0.142578125,7252
0.08984375,7253
0.123046875,7254
0.044921875,7255
0.013671875,7256
0.015625,7257
0.052734375,7258
0.15625,7259
0.228515625,7260
0.205078125,7261
0.14453125,7262
0.162109375,7263
0.099609375,7264
0.21484375,7265
0.0859375,7266
0.080078125,7267
0.158203125,7268
0.181640625,7269
0.15625,7270
0.189453125,7271
0.04296875,7272
0.140625,7273
0.162109375,7274
0.271484375,7275
0.298828125,7276
0.15625,7277
0.19140625,7278
0.2421875,7279
0.20703125,7280
0.125,7281
0.048828125,7282
0.03515625,7283
0.03125,7284
0.037109375,7285
0.16796875,7286
0.177734375,7287
0.185546875,7288
0.205078125,7289
0.203125,7290
0.205078125,7291
0.203125,7292
0.025390625,7293
0.068359375,7294
0.099609375,7295
0.13671875,7296
0.0390625,7297
0.03515625,7298
0.015625,7299
0.03125,7300
0.083984375,7301
0.2265625,7302
0.2421875,7303
0.25390625,7304
0.267578125,7305
0.060546875,7306
0.16015625,7307
0.15625,7308
0.150390625,7309
0.095703125,7310
0.08984375,7311
0.13671875,7312
0.02734375,7313
0.041015625,7314
0.0390625,7315
0.09765625,7316
0.02734375,7317
0.0859375,7318
0.14453125,7319
0.24609375,7320
0.306640625,7321
0.208984375,7322
0.2109375,7323
0.220703125,7324
0.22265625,7325
0.15625,7326
0.130859375,7327
0.181640625,7328
0.1875,7329
0.095703125,7330
0.03515625,7331
0.015625,7332
0.0859375,7333
0.01171875,7334
0.1015625,7335
0.064453125,7336
0.205078125,7337
0.201171875,7338
0.16015625,7339
0.23828125,7340
0.060546875,7341
0.02734375,7342
0.0390625,7343
0.1484375,7344
0.046875,7345
0.07421875,7346
0.126953125,7347
0.142578125,7348
0.18359375,7349
0.244140625,7350
0.185546875,7351
0.21484375,7352
0.17578125,7353
0.1796875,7354
0.216796875,7355
0.044921875,7356
0.12890625,7357
0.18359375,7358
0.23828125,7359
0.23046875,7360
0.162109375,7361
0.232421875,7362
0.240234375,7363
0.15234375,7364
0.162109375,7365
0.259765625,7366
0.119140625,7367
0.0703125,7368
0.048828125,7369
0.041015625,7370
0.111328125,7371
0.2578125,7372
0.29296875,7373
0.279296875,7374
0.26171875,7375
0.27734375,7376
0.25,7377
0.1171875,7378
0.009765625,7379
0.015625,7380
0.06640625,7381
0.056640625,7382
0.025390625,7383
0.021484375,7384
0.017578125,7385
0.064453125,7386
0.162109375,7387
0.2578125,7388
0.27734375,7389
0.2890625,7390
0.294921875,7391
0.248046875,7392
0.181640625,7393
0.06640625,7394
0.01953125,7395
0.013671875,7396
0.0546875,7397
0.197265625,7398
0.111328125,7399
0.076171875,7400
0.19921875,7401
0.171875,7402
0.275390625,7403
0.314453125,7404
0.21875,7405
0.20703125,7406
0.212890625,7407
0.31640625,7408
0.173828125,7409
0.076171875,7410
0.041015625,7411
0.060546875,7412
0.095703125,7413
0.1328125,7414
0.259765625,7415
0.294921875,7416
0.265625,7417
0.2734375,7418
0.310546875,7419
0.115234375,7420
0.0390625,7421
0.021484375,7422
0.125,7423
0.130859375,7424
0.119140625,7425
0.169921875,7426
0.1171875,7427
0.142578125,7428
0.158203125,7429
0.212890625,7430
0.14453125,7431
0.23828125,7432
0.26953125,7433
0.224609375,7434
0.1640625,7435
0.1015625,7436
0.26953125,7437
0.220703125,7438
0.19921875,7439
0.263671875,7440
0.03515625,7441
0.1953125,7442
0.17578125,7443
0.4296875,7444
0.37109375,7445
0.306640625,7446
0.091796875,7447
0.25390625,7448
0.296875,7449
0.177734375,7450
0.181640625,7451
0.16796875,7452
0.177734375,7453
0.205078125,7454
0.205078125,7455
0.30859375,7456
0.111328125,7457
0.056640625,7458
0.162109375,7459
0.26171875,7460
0.216796875,7461
0.212890625,7462
0.044921875,7463
0.0859375,7464
0.04296875,7465
0.103515625,7466
0.205078125,7467
0.05859375,7468
0.0390625,7469
0.05078125,7470
0.03515625,7471
0.0625,7472
0.125,7473
0.103515625,7474
0.14453125,7475
0.16796875,7476
0.20703125,7477
0.185546875,7478
0.056640625,7479
0.13671875,7480
0.18359375,7481
0.15234375,7482
0.14453125,7483
0.123046875,7484
0.015625,7485
0.033203125,7486
0.03125,7487
0.07421875,7488
0.1328125,7489
0.048828125,7490
0.1171875,7491
0.138671875,7492
0.2265625,7493
0.169921875,7494
0.08203125,7495
0.201171875,7496
0.09765625,7497
0.228515625,7498
0.25390625,7499
0.046875,7500
0.1015625,7501
0.05078125,7502
0.052734375,7503
0.0625,7504
0.150390625,7505
0.048828125,7506
0.12109375,7507
0.138671875,7508
0.1484375,7509
0.232421875,7510
0.044921875,7511
0.14453125,7512
0.033203125,7513
0.15625,7514
0.173828125,7515
0.158203125,7516
0.04296875,7517
0.193359375,7518
0.26953125,7519
0.201171875,7520
0.236328125,7521
0.029296875,7522
0.130859375,7523
0.1171875,7524
0.1640625,7525
0.205078125,7526
0.15234375,7527
0.064453125,7528
0.15234375,7529
0.169921875,7530
0.22265625,7531
0.20703125,7532
0.078125,7533
0.10546875,7534
0.09375,7535
0.13671875,7536
0.18359375,7537
0.142578125,7538
0.162109375,7539
0.1484375,7540
0.166015625,7541
0.228515625,7542
0.0859375,7543
0.08984375,7544
0.12890625,7545
0.154296875,7546
0.12890625,7547
0.158203125,7548
0.037109375,7549
0.0703125,7550
0.072265625,7551
0.14453125,7552
0.25,7553
0.0625,7554
0.044921875,7555
0.046875,7556
0.10546875,7557
0.10546875,7558
0.10546875,7559
0.111328125,7560
0.17578125,7561
0.181640625,7562
0.205078125,7563
0.103515625,7564
0.04296875,7565
0.099609375,7566
0.083984375,7567
0.06640625,7568
0.21484375,7569
0.05859375,7570
0.115234375,7571
0.10546875,7572
0.15234375,7573
0.25,7574
0.19140625,7575
0.087890625,7576
0.078125,7577
0.08203125,7578
0.162109375,7579
0.154296875,7580
0.048828125,7581
0.126953125,7582
0.087890625,7583
0.08203125,7584
0.169921875,7585
0.06640625,7586
0.10546875,7587
0.1328125,7588
0.166015625,7589
0.146484375,7590
0.142578125,7591
0.078125,7592
0.1171875,7593
0.080078125,7594
0.09375,7595
0.23828125,7596
0.0234375,7597
0.09375,7598
0.04296875,7599
0.1015625,7600
0.173828125,7601
0.11328125,7602
0.109375,7603
0.169921875,7604
0.23046875,7605
0.234375,7606
0.095703125,7607
0.046875,7608
0.126953125,7609
0.142578125,7610
0.064453125,7611
0.14453125,7612
0.068359375,7613
0.068359375,7614
0.091796875,7615
0.248046875,7616
0.310546875,7617
0.052734375,7618
0.072265625,7619
0.12109375,7620
0.150390625,7621
0.181640625,7622
0.177734375,7623
0.0625,7624
0.111328125,7625
0.1015625,7626
0.078125,7627
0.21875,7628
0.04296875,7629
0.15234375,7630
0.1953125,7631
0.146484375,7632
0.2734375,7633
0.158203125,7634
0.025390625,7635
0.12890625,7636
0.11328125,7637
0.201171875,7638
0.197265625,7639
0.05078125,7640
0.08203125,7641
0.06640625,7642
0.09765625,7643
0.265625,7644
0.099609375,7645
0.1328125,7646
0.19921875,7647
0.220703125,7648
0.291015625,7649
0.1640625,7650
0.021484375,7651
0.06640625,7652
0.12890625,7653
0.15625,7654
0.234375,7655
0.037109375,7656
0.078125,7657
0.07421875,7658
0.0546875,7659
0.0625,7660
0.080078125,7661
0.10546875,7662
0.134765625,7663
0.205078125,7664
0.181640625,7665
0.205078125,7666
0.056640625,7667
0.16015625,7668
0.1171875,7669
0.140625,7670
0.2265625,7671
0.16015625,7672
0.0390625,7673
0.09375,7674
0.10546875,7675
0.173828125,7676
0.25390625,7677
0.060546875,7678
0.173828125,7679
0.15625,7680
0.212890625,7681
0.134765625,7682
0.11328125,7683
0.025390625,7684
0.09375,7685
0.12109375,7686
0.171875,7687
0.2421875,7688
0.0546875,7689
0.162109375,7690
0.236328125,7691
0.19140625,7692
0.208984375,7693
0.111328125,7694
0.0859375,7695
0.091796875,7696
0.203125,7697
0.25390625,7698
0.29296875,7699
0.06640625,7700
0.17578125,7701
0.13671875,7702
0.240234375,7703
0.248046875,7704
0.130859375,7705
0.099609375,7706
0.109375,7707
0.10546875,7708
0.16015625,7709
0.1484375,7710
0.064453125,7711
0.171875,7712
0.126953125,7713
0.177734375,7714
0.2578125,7715
0.0703125,7716
0.15625,7717
0.146484375,7718
0.24609375,7719
0.19140625,7720
0.140625,7721
0.037109375,7722
0.171875,7723
0.0859375,7724
0.11328125,7725
0.20703125,7726
0.041015625,7727
0.03515625,7728
0.0390625,7729
0.0859375,7730
0.171875,7731
0.091796875,7732
0.12890625,7733
0.130859375,7734
0.2265625,7735
0.240234375,7736
0.123046875,7737
0.048828125,7738
0.11328125,7739
0.115234375,7740
0.162109375,7741
0.259765625,7742
0.05859375,7743
0.134765625,7744
0.125,7745
0.244140625,7746
0.28125,7747
0.125,7748
0.046875,7749
0.072265625,7750
0.09375,7751
0.19921875,7752
0.150390625,7753
0.0703125,7754
0.08984375,7755
0.11328125,7756
0.203125,7757
0.171875,7758
0.078125,7759
0.13671875,7760
0.125,7761
0.21875,7762
0.232421875,7763
0.17578125,7764
0.072265625,7765
0.1015625,7766
0.1328125,7767
0.21875,7768
0.259765625,7769
0.04296875,7770
0.06640625,7771
0.0859375,7772
0.154296875,7773
0.287109375,7774
0.109375,7775
0.1875,7776
0.19140625,7777
0.2265625,7778
0.255859375,7779
0.248046875,7780
0.029296875,7781
0.111328125,7782
0.11328125,7783
0.142578125,7784
0.1640625,7785
0.080078125,7786
0.212890625,7787
0.240234375,7788
0.3046875,7789
0.349609375,7790
0.208984375,7791
0.087890625,7792
0.20703125,7793
0.1640625,7794
0.283203125,7795
0.205078125,7796
0.07421875,7797
0.138671875,7798
0.08984375,7799
0.08203125,7800
0.087890625,7801
0.2109375,7802
0.0625,7803
0.11328125,7804
0.18359375,7805
0.408203125,7806
0.2109375,7807
0.0546875,7808
0.08203125,7809
0.080078125,7810
0.05078125,7811
0.14453125,7812
0.08203125,7813
0.05859375,7814
0.060546875,7815
0.07421875,7816
0.1015625,7817
0.1640625,7818
0.060546875,7819
0.19140625,7820
0.189453125,7821
0.16796875,7822
0.17578125,7823
0.05078125,7824
0.1171875,7825
0.123046875,7826
0.1171875,7827
0.1796875,7828
0.0625,7829
0.17578125,7830
0.083984375,7831
0.2734375,7832
0.34375,7833
0.216796875,7834
0.046875,7835
0.0859375,7836
0.072265625,7837
0.0859375,7838
0.14453125,7839
0.1015625,7840
0.1328125,7841
0.11328125,7842
0.123046875,7843
0.318359375,7844
0.12109375,7845
0.052734375,7846
0.17578125,7847
0.15625,7848
0.12109375,7849
0.1328125,7850
0.08203125,7851
0.076171875,7852
0.1484375,7853
0.1484375,7854
0.16796875,7855
0.05859375,7856
0.08203125,7857
0.046875,7858
0.05859375,7859
0.1328125,7860
0.123046875,7861
0.091796875,7862
0.1015625,7863
0.154296875,7864
0.185546875,7865
0.12109375,7866
0.083984375,7867
0.228515625,7868
0.15625,7869
0.15625,7870
0.16796875,7871
0.06640625,7872
0.125,7873
0.11328125,7874
0.1015625,7875
0.1953125,7876
0.0546875,7877
0.03125,7878
0.0625,7879
0.10546875,7880
0.146484375,7881
0.109375,7882
0.1015625,7883
0.146484375,7884
0.1484375,7885
0.185546875,7886
0.16796875,7887
0.025390625,7888
0.15234375,7889
0.212890625,7890
0.2734375,7891
0.19140625,7892
0.08984375,7893
0.099609375,7894
0.17578125,7895
0.11328125,7896
0.115234375,7897
0.12109375,7898
0.060546875,7899
0.046875,7900
0.044921875,7901
0.080078125,7902
0.099609375,7903
0.068359375,7904
0.14453125,7905
0.13671875,7906
0.169921875,7907
0.16015625,7908
0.04296875,7909
0.103515625,7910
0.068359375,7911
0.0859375,7912
0.125,7913
0.05078125,7914
0.095703125,7915
0.107421875,7916
0.09375,7917
0.1015625,7918
0.109375,7919
0.052734375,7920
0.1328125,7921
0.103515625,7922
0.138671875,7923
0.11328125,7924
0.08203125,7925
0.1171875,7926
0.134765625,7927
0.08984375,7928
0.18359375,7929
0.0390625,7930
0.046875,7931
0.087890625,7932
0.0859375,7933
0.150390625,7934
0.1953125,7935
0.037109375,7936
0.08984375,7937
0.029296875,7938
0.06640625,7939
0.14453125,7940
0.05859375,7941
0.09375,7942
0.103515625,7943
0.078125,7944
0.17578125,7945
0.115234375,7946
0.044921875,7947
0.140625,7948
0.12109375,7949
0.10546875,7950
0.15625,7951
0.0546875,7952
0.123046875,7953
0.09765625,7954
0.12109375,7955
0.244140625,7956
0.064453125,7957
0.06640625,7958
0.125,7959
0.08203125,7960
0.185546875,7961
0.259765625,7962
0.11328125,7963
0.265625,7964
0.302734375,7965
0.470703125,7966
0.244140625,7967
0.08984375,7968
0.119140625,7969
0.12890625,7970
0.115234375,7971
0.16796875,7972
0.115234375,7973
0.115234375,7974
0.111328125,7975
0.08984375,7976
0.087890625,7977
0.19140625,7978
0.04296875,7979
0.11328125,7980
0.080078125,7981
0.06640625,7982
0.13671875,7983
0.146484375,7984
0.041015625,7985
0.0625,7986
0.05859375,7987
0.07421875,7988
0.15625,7989
0.0546875,7990
0.1484375,7991
0.13671875,7992
0.212890625,7993
0.154296875,7994
0.09375,7995
0.140625,7996
0.126953125,7997
0.138671875,7998
0.23046875,7999
0.12890625,8000
0.125,8001
0.201171875,8002
0.16796875,8003
0.15234375,8004
0.228515625,8005
0.05859375,8006
0.0703125,8007
0.06640625,8008
0.064453125,8009
0.12109375,8010
0.125,8011
0.138671875,8012
0.19140625,8013
0.419921875,8014
0.318359375,8015
0.16796875,8016
0.109375,8017
0.099609375,8018
0.119140625,8019
0.17578125,8020
0.3203125,8021
0.08984375,8022
0.13671875,8023
0.10546875,8024
0.18359375,8025
0.1875,8026
0.099609375,8027
0.09375,8028
0.115234375,8029
0.18359375,8030
0.26953125,8031
0.240234375,8032
0.115234375,8033
0.134765625,8034
0.11328125,8035
0.185546875,8036
0.25,8037
0.140625,8038
0.16015625,8039
0.11328125,8040
0.31640625,8041
0.271484375,8042
0.1171875,8043
0.1875,8044
0.2265625,8045
0.296875,8046
0.224609375,8047
0.171875,8048
0.099609375,8049
0.20703125,8050
0.220703125,8051
0.17578125,8052
0.208984375,8053
0.130859375,8054
0.2109375,8055
0.173828125,8056
0.23046875,8057
0.2265625,8058
0.171875,8059
0.1015625,8060
0.154296875,8061
0.19140625,8062
0.177734375,8063
0.21484375,8064
0.07421875,8065
0.095703125,8066
0.16015625,8067
0.240234375,8068
0.26171875,8069
0.15625,8070
0.1171875,8071
0.134765625,8072
0.171875,8073
0.1640625,8074
0.19140625,8075
0.11328125,8076
0.205078125,8077
0.158203125,8078
0.171875,8079
0.30859375,8080
0.076171875,8081
0.1171875,8082
0.126953125,8083
0.244140625,8084
0.26171875,8085
0.138671875,8086
0.158203125,8087
0.255859375,8088
0.2109375,8089
0.232421875,8090
0.166015625,8091
0.072265625,8092
0.1640625,8093
0.16015625,8094
0.177734375,8095
0.201171875,8096
0.134765625,8097
0.150390625,8098
0.177734375,8099
0.216796875,8100
0.18359375,8101
0.1953125,8102
0.0703125,8103
0.16796875,8104
0.130859375,8105
0.189453125,8106
0.20703125,8107
0.087890625,8108
0.115234375,8109
0.1015625,8110
0.212890625,8111
0.20703125,8112
0.197265625,8113
0.046875,8114
0.09765625,8115
0.111328125,8116
0.1484375,8117
0.1953125,8118
0.123046875,8119
0.1640625,8120
0.162109375,8121
0.205078125,8122
0.220703125,8123
0.25390625,8124
0.08203125,8125
0.16796875,8126
0.15234375,8127
0.1953125,8128
0.146484375,8129
0.048828125,8130
0.1328125,8131
0.115234375,8132
0.1640625,8133
0.140625,8134
0.12890625,8135
0.060546875,8136
0.16796875,8137
0.10546875,8138
0.15234375,8139
0.140625,8140
0.05859375,8141
0.181640625,8142
0.205078125,8143
0.197265625,8144
0.21484375,8145
0.185546875,8146
0.107421875,8147
0.34375,8148
0.298828125,8149
0.189453125,8150
0.134765625,8151
0.056640625,8152
0.125,8153
0.109375,8154
0.1640625,8155
0.23046875,8156
0.111328125,8157
0.0390625,8158
0.046875,8159
0.09765625,8160
0.138671875,8161
0.1015625,8162
0.091796875,8163
0.16796875,8164
0.142578125,8165
0.203125,8166
0.201171875,8167
0.05859375,8168
0.171875,8169
0.111328125,8170
0.19140625,8171
0.177734375,8172
0.115234375,8173
0.11328125,8174
0.138671875,8175
0.126953125,8176
0.19921875,8177
0.125,8178
0.078125,8179
0.1171875,8180
0.125,8181
0.13671875,8182
0.15625,8183
0.0703125,8184
0.1484375,8185
0.083984375,8186
0.16796875,8187
0.130859375,8188
0.125,8189
0.0625,8190
0.08984375,8191
0.076171875,8192
0.1015625,8193
0.240234375,8194
0.056640625,8195
0.126953125,8196
0.09375,8197
0.056640625,8198
0.197265625,8199
0.1015625,8200
0.09375,8201
0.091796875,8202
0.1171875,8203
0.126953125,8204
0.177734375,8205
0.138671875,8206
0.28125,8207
0.4296875,8208
0.3203125,8209
0.30859375,8210
0.080078125,8211
0.126953125,8212
0.091796875,8213
0.17578125,8214
0.20703125,8215
0.111328125,8216
0.09765625,8217
0.193359375,8218
0.1796875,8219
0.181640625,8220
0.201171875,8221
0.046875,8222
0.125,8223
0.125,8224
0.232421875,8225
0.224609375,8226
0.083984375,8227
0.17578125,8228
0.091796875,8229
0.197265625,8230
0.228515625,8231
0.10546875,8232
0.1171875,8233
0.107421875,8234
0.08203125,8235
0.08984375,8236
0.134765625,8237
0.03515625,8238
0.09765625,8239
0.06640625,8240
0.0859375,8241
0.16796875,8242
0.09765625,8243
0.064453125,8244
0.130859375,8245
0.126953125,8246
0.1640625,8247
0.203125,8248
0.060546875,8249
0.3046875,8250
0.24609375,8251
0.28125,8252
0.2265625,8253
0.056640625,8254
0.109375,8255
0.138671875,8256
0.205078125,8257
0.193359375,8258
0.046875,8259
0.1640625,8260
0.07421875,8261
0.154296875,8262
0.23046875,8263
0.1328125,8264
0.09375,8265
0.126953125,8266
0.171875,8267
0.1875,8268
0.173828125,8269
0.083984375,8270
0.1953125,8271
0.1875,8272
0.1875,8273
0.267578125,8274
0.03125,8275
0.109375,8276
0.08984375,8277
0.140625,8278
0.208984375,8279
0.05078125,8280
0.087890625,8281
0.072265625,8282
0.09375,8283
0.103515625,8284
0.11328125,8285
0.068359375,8286
0.080078125,8287
0.10546875,8288
0.158203125,8289
0.216796875,8290
0.099609375,8291
0.16796875,8292
0.109375,8293
0.1015625,8294
0.22265625,8295
0.04296875,8296
0.125,8297
0.083984375,8298
0.130859375,8299
0.38671875,8300
0.146484375,8301
0.060546875,8302
0.126953125,8303
0.142578125,8304
0.15625,8305
0.189453125,8306
0.07421875,8307
0.091796875,8308
0.12109375,8309
0.1484375,8310
0.166015625,8311
0.205078125,8312
0.091796875,8313
0.189453125,8314
0.28125,8315
0.322265625,8316
0.33984375,8317
0.03515625,8318
0.0703125,8319
0.072265625,8320
0.09375,8321
0.16015625,8322
0.08984375,8323
0.048828125,8324
0.0390625,8325
0.048828125,8326
0.06640625,8327
0.2109375,8328
0.056640625,8329
0.060546875,8330
0.08203125,8331
0.166015625,8332
0.15234375,8333
0.1015625,8334
0.1875,8335
0.31640625,8336
0.365234375,8337
0.359375,8338
0.125,8339
0.083984375,8340
0.1328125,8341
0.16015625,8342
0.189453125,8343
0.1796875,8344
0.015625,8345
0.12109375,8346
0.1328125,8347
0.22265625,8348
0.22265625,8349
0.109375,8350
0.07421875,8351
0.115234375,8352
0.185546875,8353
0.193359375,8354
0.12109375,8355
0.140625,8356
0.21875,8357
0.158203125,8358
0.2421875,8359
0.134765625,8360
0.0546875,8361
0.109375,8362
0.13671875,8363
0.06640625,8364
0.091796875,8365
0.087890625,8366
0.0859375,8367
0.138671875,8368
0.15234375,8369
0.109375,8370
0.07421875,8371
0.087890625,8372
0.142578125,8373
0.171875,8374
0.09375,8375
0.1171875,8376
0.072265625,8377
0.1015625,8378
0.126953125,8379
0.193359375,8380
0.205078125,8381
0.03125,8382
0.12890625,8383
0.169921875,8384
0.28515625,8385
0.294921875,8386
0.138671875,8387
0.244140625,8388
0.21484375,8389
0.20703125,8390
0.177734375,8391
0.19921875,8392
0.095703125,8393
0.1875,8394
0.142578125,8395
0.216796875,8396
0.177734375,8397
0.109375,8398
0.19921875,8399
0.2109375,8400
0.212890625,8401
0.232421875,8402
0.17578125,8403
0.087890625,8404
0.14453125,8405
0.21875,8406
0.185546875,8407
0.18359375,8408
0.07421875,8409
0.12109375,8410
0.203125,8411
0.244140625,8412
0.173828125,8413
0.1328125,8414
0.06640625,8415
0.171875,8416
0.154296875,8417
0.2109375,8418
0.150390625,8419
0.078125,8420
0.140625,8421
0.185546875,8422
0.18359375,8423
0.224609375,8424
0.0703125,8425
0.1171875,8426
0.099609375,8427
0.150390625,8428
0.244140625,8429
0.14453125,8430
0.23828125,8431
0.23046875,8432
0.2734375,8433
0.28125,8434
0.173828125,8435
0.1171875,8436
0.1796875,8437
0.205078125,8438
0.208984375,8439
0.2421875,8440
0.099609375,8441
0.20703125,8442
0.2265625,8443
0.251953125,8444
0.212890625,8445
0.150390625,8446
0.087890625,8447
0.16015625,8448
0.146484375,8449
0.173828125,8450
0.185546875,8451
0.08984375,8452
0.1484375,8453
0.126953125,8454
0.18359375,8455
0.25,8456
0.1640625,8457
0.044921875,8458
0.140625,8459
0.1640625,8460
0.14453125,8461
0.1796875,8462
0.087890625,8463
0.21484375,8464
0.171875,8465
0.28515625,8466
0.234375,8467
0.173828125,8468
0.052734375,8469
0.1796875,8470
0.158203125,8471
0.220703125,8472
0.150390625,8473
0.103515625,8474
0.15234375,8475
0.24609375,8476
0.29296875,8477
0.3125,8478
0.23046875,8479
0.107421875,8480
0.263671875,8481
0.248046875,8482
0.23046875,8483
0.224609375,8484
0.083984375,8485
0.2265625,8486
0.2421875,8487
0.306640625,8488
0.302734375,8489
0.2734375,8490
0.087890625,8491
0.140625,8492
0.123046875,8493
0.146484375,8494
0.181640625,8495
0.060546875,8496
0.185546875,8497
0.19921875,8498
0.255859375,8499
0.111328125,8500
0.138671875,8501
0.12890625,8502
0.20703125,8503
0.05078125,8504
0.12109375,8505
0.18359375,8506
0.068359375,8507
0.1484375,8508
0.173828125,8509
0.203125,8510
0.0703125,8511
0.15625,8512
0.171875,8513
0.05859375,8514
0.16796875,8515
0.1328125,8516
0.185546875,8517
0.203125,8518
0.1875,8519
0.205078125,8520
0.173828125,8521
0.240234375,8522
0.251953125,8523
0.259765625,8524
0.1875,8525
0.130859375,8526
0.162109375,8527
0.169921875,8528
0.146484375,8529
0.076171875,8530
0.09375,8531
0.169921875,8532
0.1796875,8533
0.251953125,8534
0.162109375,8535
0.16796875,8536
0.25,8537
0.1953125,8538
0.318359375,8539
0.1171875,8540
0.12109375,8541
0.08203125,8542
0.0859375,8543
0.080078125,8544
0.107421875,8545
0.21875,8546
0.21875,8547
0.1640625,8548
0.203125,8549
0.236328125,8550
0.310546875,8551
0.37890625,8552
0.208984375,8553
0.333984375,8554
0.369140625,8555
0.341796875,8556
0.32421875,8557
0.4296875,8558
0.13671875,8559
0.146484375,8560
0.224609375,8561
0.287109375,8562
0.234375,8563
0.158203125,8564
0.123046875,8565
0.173828125,8566
0.1484375,8567
0.17578125,8568
0.240234375,8569
0.10546875,8570
0.177734375,8571
0.23046875,8572
0.23046875,8573
0.287109375,8574
0.14453125,8575
0.126953125,8576
0.181640625,8577
0.232421875,8578
0.25,8579
0.20703125,8580
0.083984375,8581
0.115234375,8582
0.16015625,8583
0.1328125,8584
0.177734375,8585
0.12109375,8586
0.080078125,8587
0.109375,8588
0.12109375,8589
0.197265625,8590
0.154296875,8591
0.1328125,8592
0.130859375,8593
0.1640625,8594
0.1484375,8595
0.158203125,8596
0.0625,8597
0.0703125,8598
0.0546875,8599
0.095703125,8600
0.138671875,8601
0.048828125,8602
0.103515625,8603
0.10546875,8604
0.080078125,8605
0.169921875,8606
0.0546875,8607
0.12890625,8608
0.087890625,8609
0.1640625,8610
0.16796875,8611
0.134765625,8612
0.07421875,8613
0.142578125,8614
0.14453125,8615
0.21484375,8616
0.21484375,8617
0.06640625,8618
0.09765625,8619
0.109375,8620
0.140625,8621
0.2109375,8622
0.0390625,8623
0.095703125,8624
0.109375,8625
0.173828125,8626
0.177734375,8627
0.107421875,8628
0.0390625,8629
0.08984375,8630
0.1328125,8631
0.1171875,8632
0.140625,8633
0.125,8634
0.107421875,8635
0.158203125,8636
0.2109375,8637
0.21875,8638
0.07421875,8639
0.08984375,8640
0.08203125,8641
0.142578125,8642
0.228515625,8643
0.076171875,8644
0.177734375,8645
0.181640625,8646
0.294921875,8647
0.248046875,8648
0.2421875,8649
0.080078125,8650
0.271484375,8651
0.203125,8652
0.208984375,8653
0.2265625,8654
0.09375,8655
0.1328125,8656
0.18359375,8657
0.1640625,8658
0.1953125,8659
0.13671875,8660
0.08984375,8661
0.171875,8662
0.21875,8663
0.23046875,8664
0.13671875,8665
0.08984375,8666
0.140625,8667
0.12890625,8668
0.173828125,8669
0.169921875,8670
0.08984375,8671
0.080078125,8672
0.095703125,8673
0.095703125,8674
0.125,8675
0.130859375,8676
0.130859375,8677
0.171875,8678
0.228515625,8679
0.208984375,8680
0.205078125,8681
0.009765625,8682
0.138671875,8683
0.095703125,8684
0.197265625,8685
0.17578125,8686
0.044921875,8687
0.119140625,8688
0.109375,8689
0.10546875,8690
0.123046875,8691
0.162109375,8692
0.05078125,8693
0.1484375,8694
0.1328125,8695
0.18359375,8696
0.115234375,8697
0.083984375,8698
0.16015625,8699
0.16796875,8700
0.15625,8701
0.15234375,8702
0.037109375,8703
0.123046875,8704
0.08203125,8705
0.08984375,8706
0.08984375,8707
0.068359375,8708
0.11328125,8709
0.103515625,8710
0.162109375,8711
0.17578125,8712
0.185546875,8713
0.0625,8714
0.0859375,8715
0.048828125,8716
0.11328125,8717
0.16015625,8718
0.0859375,8719
0.13671875,8720
0.1796875,8721
0.21875,8722
0.23828125,8723
0.15625,8724
0.08203125,8725
0.12890625,8726
0.115234375,8727
0.16015625,8728
0.255859375,8729
0.060546875,8730
0.150390625,8731
0.1953125,8732
0.17578125,8733
0.19140625,8734
0.140625,8735
0.0546875,8736
0.138671875,8737
0.328125,8738
0.36328125,8739
0.271484375,8740
0.13671875,8741
0.349609375,8742
0.41796875,8743
0.17578125,8744
0.228515625,8745
0.126953125,8746
0.1328125,8747
0.130859375,8748
0.23828125,8749
0.240234375,8750
0.201171875,8751
0.08984375,8752
0.130859375,8753
0.134765625,8754
0.20703125,8755
0.169921875,8756
0.091796875,8757
0.048828125,8758
0.091796875,8759
0.138671875,8760
0.142578125,8761
0.1328125,8762
0.103515625,8763
0.173828125,8764
0.140625,8765
0.1796875,8766
0.232421875,8767
0.11328125,8768
0.09765625,8769
0.123046875,8770
0.1796875,8771
0.25,8772
0.146484375,8773
0.109375,8774
0.072265625,8775
0.158203125,8776
0.154296875,8777
0.189453125,8778
0.04296875,8779
0.1328125,8780
0.11328125,8781
0.095703125,8782
0.16015625,8783
0.06640625,8784
0.162109375,8785
0.08984375,8786
0.162109375,8787
0.197265625,8788
0.166015625,8789
0.095703125,8790
0.107421875,8791
0.169921875,8792
0.1640625,8793
0.1328125,8794
0.05078125,8795
0.11328125,8796
0.09765625,8797
0.1875,8798
0.15234375,8799
0.123046875,8800
0.076171875,8801
0.080078125,8802
0.072265625,8803
0.06640625,8804
0.13671875,8805
0.087890625,8806
0.154296875,8807
0.173828125,8808
0.1640625,8809
0.224609375,8810
0.05859375,8811
0.078125,8812
0.068359375,8813
0.15625,8814
0.24609375,8815
0.134765625,8816
0.150390625,8817
0.212890625,8818
0.26171875,8819
0.251953125,8820
0.31640625,8821
0.0859375,8822
0.08984375,8823
0.05078125,8824
0.111328125,8825
0.244140625,8826
0.12109375,8827
0.158203125,8828
0.1328125,8829
0.154296875,8830
0.18359375,8831
0.185546875,8832
0.072265625,8833
0.21484375,8834
0.1640625,8835
0.255859375,8836
0.171875,8837
0.1015625,8838
0.12890625,8839
0.16015625,8840
0.1484375,8841
0.171875,8842
0.138671875,8843
0.04296875,8844
0.10546875,8845
0.09765625,8846
0.1328125,8847
0.130859375,8848
0.1328125,8849
0.119140625,8850
0.162109375,8851
0.125,8852
0.1796875,8853
0.0625,8854
0.109375,8855
0.048828125,8856
0.095703125,8857
0.1875,8858
0.07421875,8859
0.09375,8860
0.037109375,8861
0.078125,8862
0.08984375,8863
0.173828125,8864
0.037109375,8865
0.09375,8866
0.126953125,8867
0.18359375,8868
0.193359375,8869
0.107421875,8870
0.171875,8871
0.171875,8872
0.21875,8873
0.18359375,8874
0.15234375,8875
0.0390625,8876
0.09375,8877
0.109375,8878
0.173828125,8879
0.16015625,8880
0.052734375,8881
0.109375,8882
0.125,8883
0.1640625,8884
0.154296875,8885
0.1875,8886
0.03125,8887
0.0703125,8888
0.109375,8889
0.201171875,8890
0.123046875,8891
0.169921875,8892
0.16796875,8893
0.193359375,8894
0.302734375,8895
0.330078125,8896
0.115234375,8897
0.15625,8898
0.2109375,8899
0.203125,8900
0.361328125,8901
0.17578125,8902
0.185546875,8903
0.177734375,8904
0.279296875,8905
0.314453125,8906
0.265625,8907
0.060546875,8908
0.146484375,8909
0.16015625,8910
0.220703125,8911
0.232421875,8912
0.14453125,8913
0.13671875,8914
0.146484375,8915
0.166015625,8916
0.19921875,8917
0.20703125,8918
0.109375,8919
0.20703125,8920
0.21875,8921
0.16796875,8922
0.171875,8923
0.068359375,8924
0.10546875,8925
0.12890625,8926
0.22265625,8927
0.130859375,8928
0.154296875,8929
0.056640625,8930
0.10546875,8931
0.12890625,8932
0.142578125,8933
0.16796875,8934
0.12890625,8935
0.193359375,8936
0.138671875,8937
0.169921875,8938
0.255859375,8939
0.07421875,8940
0.0859375,8941
0.052734375,8942
0.078125,8943
0.146484375,8944
0.123046875,8945
0.119140625,8946
0.08984375,8947
0.115234375,8948
0.162109375,8949
0.171875,8950
0.056640625,8951
0.162109375,8952
0.08203125,8953
0.169921875,8954
0.130859375,8955
0.10546875,8956
0.0703125,8957
0.130859375,8958
0.19921875,8959
0.18359375,8960
0.158203125,8961
0.0546875,8962
0.080078125,8963
0.1171875,8964
0.20703125,8965
0.18359375,8966
0.08984375,8967
0.1171875,8968
0.150390625,8969
0.212890625,8970
0.25390625,8971
0.109375,8972
0.0625,8973
0.080078125,8974
0.125,8975
0.16015625,8976
0.162109375,8977
0.080078125,8978
0.1328125,8979
0.169921875,8980
0.21484375,8981
0.19140625,8982
0.0625,8983
0.119140625,8984
0.125,8985
0.17578125,8986
0.224609375,8987
0.146484375,8988
0.07421875,8989
0.154296875,8990
0.146484375,8991
0.12109375,8992
0.130859375,8993
0.046875,8994
0.109375,8995
0.10546875,8996
0.220703125,8997
0.158203125,8998
0.0703125,8999
0.12109375,9000
0.09765625,9001
0.1171875,9002
0.177734375,9003
0.134765625,9004
0.087890625,9005
0.119140625,9006
0.185546875,9007
0.185546875,9008
0.212890625,9009
0.080078125,9010
0.10546875,9011
0.12109375,9012
0.162109375,9013
0.23046875,9014
0.037109375,9015
0.09375,9016
0.0703125,9017
0.138671875,9018
0.21484375,9019
0.111328125,9020
0.16015625,9021
0.150390625,9022
0.20703125,9023
0.193359375,9024
0.1015625,9025
0.078125,9026
0.2265625,9027
0.1640625,9028
0.197265625,9029
0.23046875,9030
0.05859375,9031
0.109375,9032
0.080078125,9033
0.13671875,9034
0.1484375,9035
0.115234375,9036
0.0703125,9037
0.078125,9038
0.099609375,9039
0.166015625,9040
0.15234375,9041
0.052734375,9042
0.181640625,9043
0.1484375,9044
0.123046875,9045
0.109375,9046
0.046875,9047
0.13671875,9048
0.11328125,9049
0.154296875,9050
0.166015625,9051
0.134765625,9052
0.037109375,9053
0.1171875,9054
0.12109375,9055
0.1640625,9056
0.234375,9057
0.060546875,9058
0.1171875,9059
0.072265625,9060
0.09375,9061
0.1875,9062
0.11328125,9063
0.150390625,9064
0.150390625,9065
0.15625,9066
0.234375,9067
0.1796875,9068
0.0859375,9069
0.15625,9070
0.126953125,9071
0.2734375,9072
0.205078125,9073
0.09375,9074
0.2421875,9075
0.25390625,9076
0.232421875,9077
0.234375,9078
0.154296875,9079
0.125,9080
0.15625,9081
0.1484375,9082
0.197265625,9083
0.22265625,9084
0.07421875,9085
0.189453125,9086
0.189453125,9087
0.19921875,9088
0.267578125,9089
0.09765625,9090
0.12109375,9091
0.15234375,9092
0.220703125,9093
0.24609375,9094
0.1640625,9095
0.06640625,9096
0.111328125,9097
0.193359375,9098
0.15625,9099
0.166015625,9100
0.041015625,9101
0.09765625,9102
0.1328125,9103
0.130859375,9104
0.177734375,9105
0.16015625,9106
0.197265625,9107
0.2265625,9108
0.26953125,9109
0.255859375,9110
0.111328125,9111
0.1015625,9112
0.17578125,9113
0.244140625,9114
0.2578125,9115
0.1875,9116
0.052734375,9117
0.08203125,9118
0.115234375,9119
0.13671875,9120
0.2421875,9121
0.05078125,9122
0.12890625,9123
0.068359375,9124
0.21484375,9125
0.1875,9126
0.09375,9127
0.064453125,9128
0.140625,9129
0.14453125,9130
0.171875,9131
0.138671875,9132
0.02734375,9133
0.06640625,9134
0.046875,9135
0.0625,9136
0.1015625,9137
0.04296875,9138
0.099609375,9139
0.08984375,9140
0.1953125,9141
0.14453125,9142
0.08203125,9143
0.052734375,9144
0.06640625,9145
0.078125,9146
0.146484375,9147
0.11328125,9148
0.091796875,9149
0.140625,9150
0.22265625,9151
0.220703125,9152
0.193359375,9153
0.048828125,9154
0.0625,9155
0.08203125,9156
0.041015625,9157
0.134765625,9158
0.1171875,9159
0.1015625,9160
0.287109375,9161
0.30859375,9162
0.265625,9163
0.18359375,9164
0.08203125,9165
0.1484375,9166
0.12109375,9167
0.107421875,9168
0.1953125,9169
0.1015625,9170
0.158203125,9171
0.140625,9172
0.19140625,9173
0.18359375,9174
0.1484375,9175
0.095703125,9176
0.16796875,9177
0.162109375,9178
0.22265625,9179
0.177734375,9180
0.080078125,9181
0.1796875,9182
0.15234375,9183
0.162109375,9184
0.166015625,9185
0.08984375,9186
0.08984375,9187
0.1484375,9188
0.123046875,9189
0.150390625,9190
0.1015625,9191
0.1640625,9192
0.279296875,9193
0.24609375,9194
0.27734375,9195
0.28515625,9196
0.0703125,9197
0.11328125,9198
0.138671875,9199
0.125,9200
0.173828125,9201
0.09765625,9202
0.037109375,9203
0.13671875,9204
0.091796875,9205
0.171875,9206
0.080078125,9207
0.087890625,9208
0.23046875,9209
0.1875,9210
0.22265625,9211
0.1484375,9212
0.080078125,9213
0.130859375,9214
0.12890625,9215
0.19921875,9216
0.28125,9217
0.0390625,9218
0.05859375,9219
0.076171875,9220
0.154296875,9221
0.150390625,9222
0.15625,9223
0.068359375,9224
0.10546875,9225
0.1484375,9226
0.185546875,9227
0.138671875,9228
0.01953125,9229
0.1328125,9230
0.048828125,9231
0.087890625,9232
0.109375,9233
0.083984375,9234
0.119140625,9235
0.16015625,9236
0.1640625,9237
0.2265625,9238
0.146484375,9239
0.08203125,9240
0.09765625,9241
0.11328125,9242
0.10546875,9243
0.228515625,9244
0.099609375,9245
0.17578125,9246
0.1875,9247
0.212890625,9248
0.173828125,9249
0.095703125,9250
0.08984375,9251
0.095703125,9252
0.13671875,9253
0.318359375,9254
0.15234375,9255
0.185546875,9256
0.2578125,9257
0.173828125,9258
0.314453125,9259
0.23828125,9260
0.083984375,9261
0.138671875,9262
0.19140625,9263
0.193359375,9264
0.181640625,9265
0.03515625,9266
0.099609375,9267
0.150390625,9268
0.158203125,9269
0.173828125,9270
0.15234375,9271
0.048828125,9272
0.11328125,9273
0.08984375,9274
0.21484375,9275
0.197265625,9276
0.0703125,9277
0.1640625,9278
0.162109375,9279
0.1484375,9280
0.189453125,9281
0.09375,9282
0.068359375,9283
0.11328125,9284
0.1328125,9285
0.251953125,9286
0.248046875,9287
0.04296875,9288
0.111328125,9289
0.15234375,9290
0.2265625,9291
0.2265625,9292
0.09765625,9293
0.052734375,9294
0.09765625,9295
0.166015625,9296
0.201171875,9297
0.15625,9298
0.09765625,9299
0.162109375,9300
0.111328125,9301
0.248046875,9302
0.220703125,9303
0.09375,9304
0.158203125,9305
0.12890625,9306
0.173828125,9307
0.19140625,9308
0.13671875,9309
0.05859375,9310
0.10546875,9311
0.1796875,9312
0.216796875,9313
0.169921875,9314
0.041015625,9315
0.126953125,9316
0.13671875,9317
0.158203125,9318
0.162109375,9319
0.072265625,9320
0.185546875,9321
0.14453125,9322
0.16796875,9323
0.189453125,9324
0.181640625,9325
0.0625,9326
0.1171875,9327
0.1796875,9328
0.12890625,9329
0.224609375,9330
0.10546875,9331
0.19921875,9332
0.248046875,9333
0.283203125,9334
0.326171875,9335
0.22265625,9336
0.05078125,9337
0.09765625,9338
0.12109375,9339
0.173828125,9340
0.19921875,9341
0.125,9342
0.19140625,9343
0.203125,9344
0.201171875,9345
0.21875,9346
0.13671875,9347
0.083984375,9348
0.16015625,9349
0.3046875,9350
0.283203125,9351
0.1484375,9352
0.08984375,9353
0.17578125,9354
0.123046875,9355
0.13671875,9356
0.150390625,9357
0.12109375,9358
0.11328125,9359
0.091796875,9360
0.146484375,9361
0.17578125,9362
0.150390625,9363
0.119140625,9364
0.228515625,9365
0.28515625,9366
0.333984375,9367
0.35546875,9368
0.12890625,9369
0.056640625,9370
0.12109375,9371
0.09375,9372
0.236328125,9373
0.060546875,9374
0.10546875,9375
0.1484375,9376
0.169921875,9377
0.296875,9378
0.2109375,9379
0.037109375,9380
0.12109375,9381
0.154296875,9382
0.263671875,9383
0.212890625,9384
0.0859375,9385
0.13671875,9386
0.162109375,9387
0.189453125,9388
0.2109375,9389
0.103515625,9390
0.05859375,9391
0.087890625,9392
0.1171875,9393
0.150390625,9394
0.18359375,9395
0.06640625,9396
0.125,9397
0.2265625,9398
0.1484375,9399
0.291015625,9400
0.0625,9401
0.083984375,9402
0.078125,9403
0.1328125,9404
0.21875,9405
0.13671875,9406
0.083984375,9407
0.19140625,9408
0.3046875,9409
0.3125,9410
0.22265625,9411
0.09765625,9412
0.30859375,9413
0.22265625,9414
0.318359375,9415
0.380859375,9416
0.091796875,9417
0.15625,9418
0.212890625,9419
0.23046875,9420
0.2734375,9421
0.193359375,9422
0.083984375,9423
0.14453125,9424
0.197265625,9425
0.248046875,9426
0.220703125,9427
0.125,9428
0.203125,9429
0.162109375,9430
0.208984375,9431
0.212890625,9432
0.09765625,9433
0.1484375,9434
0.130859375,9435
0.171875,9436
0.2265625,9437
0.125,9438
0.10546875,9439
0.119140625,9440
0.173828125,9441
0.189453125,9442
0.193359375,9443
0.0703125,9444
0.05859375,9445
0.078125,9446
0.09375,9447
0.234375,9448
0.134765625,9449
0.10546875,9450
0.275390625,9451
0.29296875,9452
0.326171875,9453
0.15234375,9454
0.11328125,9455
0.193359375,9456
0.197265625,9457
0.220703125,9458
0.16796875,9459
0.0625,9460
0.16796875,9461
0.15625,9462
0.099609375,9463
0.240234375,9464
0.099609375,9465
0.08984375,9466
0.111328125,9467
0.16015625,9468
0.248046875,9469
0.16015625,9470
0.0546875,9471
0.193359375,9472
0.13671875,9473
0.1640625,9474
0.21875,9475
0.05078125,9476
0.07421875,9477
0.060546875,9478
0.078125,9479
0.16796875,9480
0.056640625,9481
0.169921875,9482
0.099609375,9483
0.224609375,9484
0.232421875,9485
0.12109375,9486
0.052734375,9487
0.064453125,9488
0.07421875,9489
0.1796875,9490
0.1796875,9491
0.072265625,9492
0.169921875,9493
0.1484375,9494
0.177734375,9495
0.201171875,9496
0.11328125,9497
0.07421875,9498
0.111328125,9499
0.09765625,9500
0.19921875,9501
0.154296875,9502
0.087890625,9503
0.142578125,9504
0.140625,9505
0.177734375,9506
0.12109375,9507
0.072265625,9508
0.044921875,9509
0.103515625,9510
0.12890625,9511
0.1640625,9512
0.09765625,9513
0.1171875,9514
0.083984375,9515
0.189453125,9516
0.130859375,9517
0.1640625,9518
0.0625,9519
0.15625,9520
0.11328125,9521
0.169921875,9522
0.22265625,9523
0.05078125,9524
0.140625,9525
0.072265625,9526
0.234375,9527
0.271484375,9528
0.201171875,9529
0.044921875,9530
0.064453125,9531
0.15625,9532
0.1640625,9533
0.154296875,9534
0.1015625,9535
0.130859375,9536
0.2109375,9537
0.1640625,9538
0.203125,9539
0.150390625,9540
0.056640625,9541
0.12890625,9542
0.296875,9543
0.259765625,9544
0.181640625,9545
0.072265625,9546
0.12109375,9547
0.16796875,9548
0.109375,9549
0.15625,9550
0.1171875,9551
0.056640625,9552
0.048828125,9553
0.083984375,9554
0.19921875,9555
0.12890625,9556
0.12890625,9557
0.150390625,9558
0.14453125,9559
0.10546875,9560
0.14453125,9561
0.05078125,9562
0.14453125,9563
0.111328125,9564
0.169921875,9565
0.234375,9566
0.052734375,9567
0.19140625,9568
0.1875,9569
0.177734375,9570
0.142578125,9571
0.1640625,9572
0.046875,9573
0.1484375,9574
0.109375,9575
0.1015625,9576
0.115234375,9577
0.125,9578
0.220703125,9579
0.19140625,9580
0.173828125,9581
0.10546875,9582
0.15234375,9583
0.142578125,9584
0.111328125,9585
0.115234375,9586
0.13671875,9587
0.265625,9588
0.15625,9589
0.078125,9590
0.076171875,9591
0.099609375,9592
0.13671875,9593
0.0390625,9594
0.09765625,9595
0.126953125,9596
0.107421875,9597
0.2265625,9598
0.072265625,9599
0.1484375,9600
0.083984375,9601
0.138671875,9602
0.1015625,9603
0.10546875,9604
0.220703125,9605
0.080078125,9606
0.056640625,9607
0.119140625,9608
0.111328125,9609
0.123046875,9610
0.05078125,9611
0.1328125,9612
0.18359375,9613
0.287109375,9614
0.259765625,9615
0.263671875,9616
0.1875,9617
0.19921875,9618
0.13671875,9619
0.18359375,9620
0.08203125,9621
0.13671875,9622
0.107421875,9623
0.1171875,9624
0.169921875,9625
0.111328125,9626
0.099609375,9627
0.126953125,9628
0.03515625,9629
0.1015625,9630
0.095703125,9631
0.125,9632
0.09765625,9633
0.0546875,9634
0.119140625,9635
0.09375,9636
0.1484375,9637
0.1171875,9638
0.083984375,9639
0.169921875,9640
0.107421875,9641
0.154296875,9642
0.08984375,9643
0.033203125,9644
0.091796875,9645
0.169921875,9646
0.107421875,9647
0.125,9648
0.0546875,9649
0.12109375,9650
0.04296875,9651
0.125,9652
0.0859375,9653
0.09375,9654
0.064453125,9655
0.037109375,9656
0.056640625,9657
0.08203125,9658
0.044921875,9659
0.04296875,9660
0.09375,9661
0.099609375,9662
0.046875,9663
0.08984375,9664
0.087890625,9665
0.05078125,9666
0.025390625,9667
0.041015625,9668
0.056640625,9669
0.037109375,9670
0.07421875,9671
0.01171875,9672
0.021484375,9673
0.078125,9674
0.033203125,9675
0.060546875,9676
0.013671875,9677
0.015625,9678
0.04296875,9679
0.0234375,9680
0.015625,9681
0.033203125,9682
0.046875,9683
0.03125,9684
0.05078125,9685
0.03515625,9686
0.02734375,9687
0.09375,9688
0.04296875,9689
0.033203125,9690
0.107421875,9691
0.017578125,9692
0.02734375,9693
0.015625,9694
0.0703125,9695
0.02734375,9696
0.013671875,9697
0.0390625,9698
0.013671875,9699
0.037109375,9700
0.0078125,9701
0.017578125,9702
0.015625,9703
0.03125,9704
0.015625,9705
0.048828125,9706
0.021484375,9707
0.037109375,9708
0.021484375,9709
0.05859375,9710
0.2421875,9711
0.212890625,9712
0.236328125,9713
0.2353515625,9714
0.244140625,9715
0.26171875,9716
0.259765625,9717
0.2392578125,9718
0.2216796875,9719
0.23828125,9720
0.2177734375,9721
0.1904296875,9722
0.2021484375,9723
0.232421875,9724
0.234375,9725
0.205078125,9726
0.166015625,9727
0.1513671875,9728
0.0,9729
0.0,9730
0.0,9731
0.0,9732
0.0,9733
0.0,9734
0.0,9735
0.0,9736
0.0,9737
0.0,9738
0.0,9739
0.0,9740
0.0,9741
0.0,9742
0.0,9743
0.0,9744
0.0,9745
0.0,9746
0.0,9747
0.0,9748
0.0,9749
0.0,9750
0.0,9751
0.0,9752
0.0,9753
0.0,9754
0.0,9755
0.0,9756
0.0,9757
0.0,9758
0.0,9759
0.0,9760
0.0,9761
0.0,9762
0.0,9763
0.0,9764
0.0,9765
0.0,9766
0.0,9767
0.0,9768
0.0,9769
0.0,9770
