@RELATION 'Music feature'
%rows=1
%columns=9770
%sample_rate=22050
%window_size=512
%step_size=512

@ATTRIBUTE 'Spectral centroid' NUMERIC
@ATTRIBUTE WindowNumber NUMERIC

@DATA
-1.0,1
-1.0,2
-1.0,3
-1.0,4
5466.111,5
5367.8174,6
5605.9326,7
5438.257,8
5597.0615,9
5511.3193,10
4172.017,11
3316.676,12
4624.7183,13
2880.925,14
3516.7075,15
3888.883,16
4027.3684,17
4405.719,18
3925.4531,19
3958.7034,20
3221.4392,21
3583.243,22
3498.9924,23
3173.0618,24
2652.1494,25
2201.7446,26
1547.1841,27
2551.5447,28
3295.8982,29
3393.1082,30
3363.5,31
3366.4536,32
3424.5981,33
3189.8328,34
3047.3806,35
1919.6372,36
1549.7966,37
2115.2043,38
2880.9348,39
2723.988,40
2301.2202,41
1787.0895,42
2370.4507,43
2805.8777,44
3388.4453,45
3308.7183,46
3047.664,47
3497.1665,48
3411.217,49
3136.8564,50
2814.9998,51
2647.3896,52
2126.4417,53
2724.4307,54
3067.4382,55
3249.299,56
2196.8877,57
1425.1023,58
1407.8893,59
2521.697,60
3065.1326,61
3512.2468,62
3461.739,63
3512.556,64
3509.1343,65
3072.8967,66
3283.8354,67
2615.3142,68
1672.7056,69
2435.8162,70
2868.6821,71
2829.3528,72
2127.112,73
1253.1162,74
768.18585,75
1256.0868,76
2460.945,77
2874.64,78
2927.7188,79
2870.1355,80
2666.8726,81
2919.283,82
3058.847,83
2860.825,84
1582.6171,85
1529.9518,86
2804.9534,87
3137.9116,88
4396.55,89
2303.8547,90
2749.6663,91
2269.2148,92
3039.5923,93
3069.453,94
3249.5227,95
2553.708,96
2222.5527,97
2576.4258,98
3239.941,99
4343.835,100
3082.7378,101
3505.838,102
3334.8518,103
3748.3757,104
3690.7744,105
3538.1982,106
2774.2803,107
2710.8555,108
2850.039,109
3134.7961,110
2868.881,111
2483.4128,112
2136.3406,113
2330.803,114
2972.6624,115
3478.6787,116
3553.392,117
3722.637,118
3551.3943,119
3344.045,120
3276.0974,121
2856.803,122
2120.52,123
2218.9722,124
2735.3665,125
3014.4695,126
2957.976,127
2258.201,128
2181.1355,129
2748.4255,130
3210.1365,131
3138.1843,132
3265.5425,133
3352.8926,134
3261.5803,135
3408.962,136
3236.4736,137
2466.748,138
1868.3917,139
894.8841,140
1695.6012,141
2832.0022,142
3165.2173,143
2157.3687,144
1483.4736,145
871.84534,146
2021.9556,147
3030.6445,148
3470.7449,149
3317.2388,150
3460.9182,151
3354.6216,152
3261.9397,153
3138.5354,154
2797.1323,155
2767.0408,156
2999.4023,157
3081.4187,158
3231.109,159
2704.1309,160
1562.5254,161
1294.998,162
2102.0154,163
2845.504,164
3390.956,165
3509.73,166
3338.5688,167
3097.11,168
3248.9897,169
3033.9895,170
2490.4868,171
1552.6824,172
1949.0603,173
2661.5461,174
2755.561,175
3076.0186,176
3082.3328,177
2815.84,178
2977.2354,179
3458.59,180
2665.0837,181
2348.502,182
1567.7272,183
2370.5757,184
3520.8445,185
2334.1438,186
3276.608,187
3621.0342,188
3511.2356,189
3802.8257,190
3567.6643,191
3136.1216,192
2855.527,193
2402.4678,194
3143.3447,195
2912.5334,196
3242.8347,197
2654.0632,198
1807.921,199
1331.0704,200
1856.433,201
3122.625,202
3477.395,203
3369.4556,204
3515.0002,205
3466.2053,206
3180.4937,207
2933.9275,208
2003.4514,209
962.3681,210
1693.4408,211
3008.347,212
2845.2974,213
2106.5737,214
1104.7035,215
764.7808,216
1925.7678,217
3124.4312,218
3335.5784,219
3203.2073,220
3199.089,221
2920.4377,222
2891.8096,223
2780.474,224
2390.5269,225
1670.9342,226
1798.2053,227
3061.9854,228
2956.5,229
3203.719,230
2665.389,231
3465.9543,232
3436.3208,233
3522.3906,234
3669.9153,235
3317.475,236
2715.311,237
3152.024,238
3237.8362,239
2722.926,240
2410.4133,241
2078.7659,242
1693.7616,243
2595.3394,244
3041.2803,245
3469.7336,246
3581.533,247
3403.4963,248
3166.7466,249
3027.099,250
2219.082,251
1736.0432,252
2464.068,253
2521.8877,254
2975.5996,255
2526.0278,256
3325.6462,257
3360.8525,258
3047.7175,259
3447.2588,260
3256.7957,261
3623.1138,262
3772.4858,263
3670.682,264
3605.134,265
3408.5273,266
4073.672,267
3592.9482,268
2905.2874,269
3387.0898,270
2683.4155,271
3358.2583,272
3705.8003,273
4069.5378,274
4275.461,275
3645.9807,276
3391.258,277
3814.9312,278
4027.9739,279
3549.7893,280
4131.756,281
3179.565,282
3764.8877,283
3517.6592,284
4012.377,285
4736.085,286
2786.7222,287
3656.2659,288
3355.4573,289
3404.403,290
3190.282,291
2874.1436,292
3444.9138,293
3086.8462,294
2855.4316,295
4563.501,296
2470.7588,297
2993.492,298
2580.5159,299
2511.5784,300
3944.672,301
2577.154,302
3640.2139,303
3645.537,304
4004.5532,305
4361.219,306
2989.2585,307
3790.786,308
3136.0867,309
3690.0476,310
2893.5198,311
3829.9883,312
2740.292,313
3111.162,314
2833.608,315
2697.6558,316
3429.6252,317
2522.3562,318
2849.5073,319
3007.8303,320
3048.3162,321
3411.217,322
3360.36,323
3319.5574,324
3395.476,325
3371.6714,326
4139.454,327
3592.6355,328
2386.9507,329
2944.712,330
2738.6648,331
2858.321,332
4717.2964,333
2449.9937,334
3386.3625,335
3014.7131,336
3588.361,337
4054.7014,338
2824.6824,339
2858.8606,340
2806.0166,341
2492.236,342
2398.2363,343
4560.588,344
2639.8386,345
3878.0808,346
3621.5269,347
3797.6814,348
4255.246,349
2744.2124,350
3249.3796,351
3085.4392,352
2967.739,353
3554.1921,354
4626.453,355
3179.2908,356
3254.6948,357
3388.9492,358
3351.121,359
4167.2134,360
2451.8423,361
3010.1519,362
3179.6074,363
2976.236,364
3382.827,365
3020.8755,366
3193.5742,367
3356.1511,368
3965.805,369
4148.1606,370
4009.3984,371
2985.22,372
3508.3496,373
3524.0024,374
3743.3384,375
4586.2437,376
2782.7778,377
3361.9136,378
2830.5715,379
3208.504,380
3708.2078,381
2221.442,382
2269.2163,383
2435.7942,384
2900.4993,385
3388.3381,386
4118.314,387
2929.5698,388
3475.4092,389
3427.6877,390
4115.626,391
4239.823,392
2723.1326,393
3413.322,394
3371.854,395
3900.2983,396
3606.8853,397
4298.8823,398
2686.1812,399
3761.6301,400
2889.6182,401
3290.8,402
3274.1733,403
2900.596,404
2891.4539,405
3468.1338,406
3363.3196,407
3257.6404,408
3046.4907,409
2944.5806,410
3062.5312,411
3503.1995,412
3796.848,413
3667.9553,414
2737.3918,415
2654.1877,416
2627.9346,417
2732.1655,418
3033.5083,419
4023.4717,420
2944.6765,421
3829.9482,422
3097.6902,423
3678.4421,424
3583.5295,425
3402.2808,426
2554.4136,427
2821.551,428
2985.5217,429
3464.045,430
4237.738,431
2850.1558,432
3861.6145,433
3565.11,434
3934.7231,435
4213.701,436
2730.3132,437
3259.5515,438
3519.8567,439
3089.1458,440
3847.3784,441
3218.5588,442
3224.6155,443
3407.0813,444
3633.1345,445
3747.506,446
4038.523,447
2103.257,448
3487.5933,449
3782.3337,450
3815.317,451
3756.7478,452
2410.8254,453
3509.7234,454
2749.1829,455
3697.112,456
3658.1917,457
2957.5798,458
2953.0122,459
3085.694,460
3484.2446,461
3473.2627,462
4224.958,463
2788.5105,464
3518.988,465
2993.2307,466
3226.5042,467
3721.7146,468
3003.5989,469
2452.5923,470
2886.1292,471
3385.733,472
3524.7156,473
3982.8174,474
3328.1138,475
3860.8042,476
3194.0752,477
3928.3284,478
4044.709,479
2378.24,480
3231.4304,481
2643.6084,482
4001.6228,483
3712.0012,484
4596.6567,485
2703.6465,486
3398.714,487
3097.948,488
3678.8972,489
4187.659,490
2578.7642,491
3357.3699,492
2381.4512,493
3372.4082,494
3389.1409,495
3143.731,496
3515.2354,497
3150.6165,498
3359.0376,499
4177.8477,500
3711.8657,501
2870.7532,502
3282.3452,503
3414.7568,504
3773.4248,505
3738.2554,506
2821.5354,507
2843.046,508
3040.5552,509
3633.1902,510
3178.1035,511
2742.8745,512
2684.1475,513
2699.2869,514
3124.811,515
3355.8032,516
4377.6895,517
3329.9685,518
3837.5999,519
3505.5818,520
3717.2314,521
3636.6033,522
2984.1025,523
2944.3938,524
2871.8398,525
3179.6975,526
3047.5232,527
4104.4272,528
2664.8484,529
3755.095,530
3451.9556,531
3335.5774,532
4695.181,533
2242.2095,534
2723.701,535
2420.307,536
2834.4812,537
3888.518,538
2691.477,539
3741.5,540
3342.2947,541
3464.586,542
3597.4526,543
2696.373,544
3177.4338,545
3101.8447,546
3668.3965,547
3522.4175,548
4037.4983,549
2670.0386,550
3328.0813,551
3126.7742,552
3289.1562,553
4494.2334,554
2573.4536,555
3211.2566,556
2665.9412,557
3379.4836,558
3225.922,559
3016.5503,560
3163.6274,561
3539.5222,562
3603.9924,563
3582.1116,564
4348.8193,565
2779.3525,566
3024.1116,567
2512.1914,568
2557.9026,569
2844.5894,570
3118.2415,571
2705.7896,572
2799.3577,573
3277.0361,574
2846.2424,575
3925.596,576
2441.6182,577
3376.33,578
3192.6936,579
3532.5315,580
3604.7695,581
2608.2969,582
3275.67,583
3167.5671,584
3709.0566,585
3513.3062,586
3034.8325,587
2341.6616,588
2828.0364,589
2942.6985,590
2845.8684,591
4173.5312,592
2390.1418,593
3380.819,594
3494.4565,595
3453.3948,596
3500.895,597
2327.8933,598
2573.6438,599
2381.4714,600
2391.466,601
3165.0781,602
4329.919,603
2654.365,604
3908.3179,605
3661.1965,606
3638.7612,607
3986.966,608
2752.4575,609
2983.646,610
2725.7979,611
3228.162,612
3488.436,613
4319.516,614
2661.7754,615
3763.9067,616
3106.2827,617
3861.071,618
4011.0154,619
2671.3042,620
3143.7476,621
2434.955,622
2872.3206,623
2856.5889,624
3903.2007,625
3323.4734,626
3875.2695,627
3302.838,628
3673.2744,629
4595.9517,630
2451.4604,631
3702.382,632
2953.9204,633
3662.4407,634
3243.539,635
3165.5774,636
2629.1594,637
3219.3547,638
3564.003,639
3615.2954,640
3507.224,641
2381.5515,642
2760.8928,643
2903.66,644
2768.7227,645
3874.1367,646
2764.2822,647
3562.2625,648
3480.4666,649
3676.269,650
3508.4448,651
3474.3306,652
3089.884,653
3078.985,654
2876.7922,655
2921.5918,656
4351.4053,657
3120.4338,658
3226.4387,659
2958.5405,660
3489.5173,661
4050.6204,662
2426.331,663
2917.6982,664
3264.821,665
3214.5535,666
3371.2566,667
3813.1362,668
3124.0042,669
3925.4211,670
3819.555,671
4357.763,672
4162.5225,673
3022.2554,674
2938.3186,675
2690.8567,676
2652.8914,677
2865.8213,678
3438.8938,679
2768.6367,680
3345.4138,681
3516.4265,682
3601.2603,683
4228.215,684
2307.6418,685
3114.5574,686
2621.0083,687
2825.6782,688
3072.2227,689
2598.291,690
3034.4775,691
3270.0295,692
3550.3794,693
3510.3245,694
3273.652,695
2449.8677,696
2825.2039,697
2997.0032,698
3362.3982,699
3812.4907,700
2658.2522,701
2893.3047,702
3165.5762,703
3092.1726,704
2984.2263,705
2884.8062,706
2542.7495,707
1882.2158,708
2812.011,709
2969.0132,710
3882.6985,711
2911.6963,712
3240.9927,713
3227.9702,714
3121.2053,715
4071.488,716
2983.6042,717
3398.8196,718
3121.3237,719
3229.2437,720
3509.5608,721
4115.0986,722
2756.9197,723
3354.932,724
3134.521,725
3713.4453,726
4514.9233,727
2207.0784,728
3066.0562,729
2652.7703,730
3343.7312,731
3492.9993,732
2656.4668,733
3190.52,734
3439.8364,735
3702.6711,736
3638.4126,737
2992.0737,738
2453.7378,739
2509.0369,740
2907.147,741
3432.3047,742
4562.9775,743
3131.4512,744
3443.3884,745
3680.1833,746
3468.2344,747
3823.9675,748
3029.3164,749
2275.813,750
2468.6274,751
3435.109,752
3390.0642,753
2647.8894,754
3213.0144,755
3379.884,756
3836.4246,757
3470.1394,758
4213.75,759
2811.6396,760
3427.0896,761
3278.004,762
3428.8953,763
4430.347,764
2711.1067,765
3517.5923,766
3094.8042,767
3495.571,768
3691.4482,769
4384.9453,770
2289.0918,771
3228.9504,772
3328.2947,773
3217.1086,774
3802.6233,775
3756.6902,776
3563.527,777
3526.7207,778
2906.2544,779
3583.6736,780
3389.371,781
3315.24,782
3329.1375,783
3034.6133,784
3832.315,785
3205.6428,786
4368.096,787
4027.196,788
3864.01,789
4383.58,790
4130.3667,791
4267.088,792
3900.4858,793
3910.4414,794
4117.7095,795
3946.9167,796
4239.454,797
3647.3425,798
3674.857,799
3540.2905,800
3610.9724,801
3520.7004,802
3080.347,803
3342.6873,804
3297.9685,805
3247.579,806
3073.236,807
3259.554,808
3025.5225,809
2896.7034,810
3018.2566,811
2815.879,812
3639.6802,813
3312.2722,814
3756.8354,815
3660.1042,816
3157.7678,817
3672.0288,818
3295.5515,819
3834.4814,820
3365.6016,821
3387.4546,822
3363.3127,823
2706.9397,824
2875.0017,825
3337.08,826
3237.9868,827
2721.7607,828
3978.6106,829
2878.91,830
3516.7703,831
3696.521,832
4006.6047,833
4344.29,834
3295.1597,835
4081.8853,836
4124.8726,837
4106.157,838
4244.5415,839
3653.9531,840
3289.3398,841
3586.351,842
3482.6057,843
3708.0234,844
3847.5027,845
4312.48,846
4061.9136,847
4336.352,848
4754.797,849
4105.1455,850
2779.7202,851
3197.4146,852
3068.8625,853
2773.0444,854
4124.577,855
2242.1938,856
3147.9646,857
2536.4963,858
2494.1096,859
2806.0317,860
3090.1433,861
3014.9746,862
3657.7327,863
3953.403,864
3554.644,865
3667.1323,866
2617.249,867
3039.8538,868
3323.1467,869
2545.6177,870
4319.7715,871
2360.8162,872
2762.6394,873
2536.1062,874
3035.8691,875
3176.184,876
2430.712,877
2588.6873,878
1676.2742,879
2438.5981,880
2253.7676,881
3666.0078,882
2678.8735,883
3270.1667,884
3153.6548,885
3490.9846,886
4297.4575,887
2628.3657,888
2827.2388,889
2836.471,890
2887.762,891
2613.2332,892
3045.3403,893
2827.1514,894
2882.4382,895
3398.4727,896
3367.001,897
4432.6953,898
2188.7864,899
2645.5186,900
2761.6582,901
2942.4612,902
3308.6318,903
2721.9917,904
3967.3513,905
4197.417,906
4441.745,907
4755.371,908
3910.3472,909
2906.9556,910
2893.9617,911
3140.9543,912
3755.5188,913
4117.107,914
2401.1306,915
3051.7786,916
2861.527,917
3034.1206,918
3224.3691,919
2322.886,920
2187.7373,921
2176.0078,922
2446.3523,923
2469.209,924
3479.5005,925
2540.0625,926
3000.736,927
2977.0222,928
3168.7283,929
4205.9927,930
2593.046,931
3393.4177,932
2754.8657,933
2429.2058,934
2721.9504,935
2547.4531,936
2327.6304,937
2610.2002,938
2807.5322,939
3050.1626,940
3852.0305,941
2284.538,942
2704.2988,943
2006.3318,944
2827.233,945
3596.5586,946
2952.1523,947
3713.9565,948
4111.075,949
4806.0938,950
4182.599,951
2772.999,952
2582.493,953
2421.9717,954
3023.5764,955
3090.5352,956
4045.6848,957
2785.7627,958
3194.1133,959
2810.5305,960
3598.6028,961
3256.1863,962
3413.938,963
1849.3743,964
2723.0552,965
2825.0818,966
2786.6624,967
3482.3271,968
2815.8145,969
3195.5872,970
3309.821,971
3938.1418,972
3426.7954,973
3480.5286,974
3094.2288,975
2939.3,976
3382.9185,977
3612.6528,978
4388.4155,979
3330.1438,980
3196.602,981
3068.5857,982
3386.779,983
3532.8706,984
3030.2344,985
2261.5205,986
2552.5862,987
3051.4287,988
2701.4111,989
3060.6443,990
3170.7441,991
3432.986,992
3650.6172,993
3868.8098,994
4551.801,995
2630.0437,996
2942.4482,997
2977.1157,998
4664.732,999
4724.3154,1000
2757.9106,1001
2681.3652,1002
2605.6035,1003
3380.9836,1004
3201.4285,1005
3462.678,1006
2317.6125,1007
2575.8342,1008
3205.0107,1009
3344.8335,1010
3982.4812,1011
2964.0881,1012
3476.5854,1013
4002.6602,1014
4320.077,1015
5350.033,1016
3921.148,1017
3768.0557,1018
2947.6665,1019
2980.0144,1020
2971.842,1021
4257.0664,1022
2688.901,1023
3244.658,1024
2790.2395,1025
2999.3735,1026
2990.0688,1027
2470.1367,1028
2498.0415,1029
2430.4175,1030
2663.7727,1031
2727.654,1032
3258.3071,1033
3112.9011,1034
4797.6855,1035
5098.14,1036
5003.9116,1037
4693.177,1038
2941.0288,1039
3416.661,1040
2993.4424,1041
2911.0056,1042
3235.9768,1043
2963.3286,1044
2677.9053,1045
3184.799,1046
2870.3174,1047
3707.634,1048
3998.0415,1049
2983.0483,1050
2403.2703,1051
2744.3716,1052
2476.1392,1053
2795.6353,1054
2573.0232,1055
3444.85,1056
3272.2747,1057
3884.3914,1058
3399.3499,1059
4026.3213,1060
2955.5723,1061
3420.6326,1062
2911.0996,1063
3077.8545,1064
2901.9285,1065
2384.044,1066
3120.6697,1067
3199.5938,1068
3798.9216,1069
3317.4058,1070
2817.8452,1071
3112.9653,1072
2878.375,1073
3427.354,1074
3883.434,1075
3226.2695,1076
2776.7676,1077
3087.8904,1078
2878.9922,1079
3183.2698,1080
3813.1233,1081
2356.1624,1082
2834.6514,1083
3484.454,1084
3999.61,1085
3450.3723,1086
3562.225,1087
4014.631,1088
3876.4026,1089
4101.935,1090
4035.4917,1091
2972.5237,1092
3385.3574,1093
3179.625,1094
3669.8142,1095
3496.381,1096
3028.829,1097
2954.2844,1098
3591.6274,1099
3644.213,1100
3891.5574,1101
4330.6045,1102
3072.9253,1103
3299.3142,1104
3777.714,1105
3551.8748,1106
3439.7217,1107
3004.643,1108
3061.0378,1109
3432.143,1110
3712.1873,1111
3759.384,1112
4150.381,1113
2790.434,1114
3368.435,1115
3366.701,1116
3354.105,1117
3931.453,1118
2563.1704,1119
2576.4485,1120
2943.1582,1121
3209.005,1122
3461.2173,1123
2924.7915,1124
2936.1335,1125
3012.5408,1126
3356.9397,1127
3995.2683,1128
3186.8418,1129
4164.6465,1130
4107.103,1131
3942.6611,1132
4249.497,1133
3471.4958,1134
3301.404,1135
3469.4792,1136
3494.7122,1137
3348.5703,1138
4087.0938,1139
3258.3975,1140
3371.227,1141
3698.815,1142
3787.526,1143
4037.4714,1144
2656.6914,1145
2910.0146,1146
3358.014,1147
3224.5234,1148
3605.0745,1149
3586.7534,1150
2964.9192,1151
3302.9668,1152
3484.1868,1153
3691.375,1154
3900.5193,1155
2942.9968,1156
2734.539,1157
2848.7073,1158
3337.185,1159
3430.4814,1160
3152.519,1161
2708.2126,1162
3506.4004,1163
3813.174,1164
3988.9827,1165
4226.8135,1166
3185.4253,1167
3413.7778,1168
3271.8782,1169
3924.3066,1170
3955.5166,1171
3417.0212,1172
2942.9604,1173
3531.6235,1174
3699.2432,1175
4118.653,1176
4199.923,1177
3548.165,1178
3812.4858,1179
4076.2969,1180
3767.3176,1181
3728.6968,1182
3052.5393,1183
3619.2732,1184
3700.3682,1185
3794.7397,1186
4031.2197,1187
5145.029,1188
4183.7026,1189
4730.743,1190
3437.8135,1191
3612.212,1192
4398.4453,1193
2040.229,1194
3007.995,1195
2792.1948,1196
3220.1245,1197
3441.844,1198
2627.4353,1199
2885.3157,1200
3169.5679,1201
3210.4856,1202
3182.3047,1203
3369.823,1204
3044.787,1205
3412.8647,1206
3321.1755,1207
3404.9324,1208
3773.3374,1209
2873.3276,1210
3153.8047,1211
2907.4014,1212
3066.562,1213
3381.5044,1214
3169.4705,1215
2743.8162,1216
3773.7517,1217
3982.0134,1218
3428.069,1219
4629.936,1220
2773.174,1221
3775.0476,1222
3445.8071,1223
3683.7246,1224
3216.2358,1225
3348.0725,1226
3058.163,1227
3628.1875,1228
3471.7341,1229
3701.5254,1230
4064.584,1231
2601.6758,1232
2837.6016,1233
2912.8416,1234
3093.4036,1235
3572.8801,1236
2945.4717,1237
3115.586,1238
2940.9834,1239
3118.9995,1240
3192.6145,1241
3251.7974,1242
2170.034,1243
2600.9932,1244
2906.668,1245
2953.5522,1246
3530.8157,1247
2937.8945,1248
4180.1016,1249
3996.4185,1250
4188.593,1251
3700.5142,1252
3166.8062,1253
3151.881,1254
3080.6475,1255
2962.8215,1256
3174.46,1257
3407.8623,1258
2683.6072,1259
3222.5598,1260
3271.2546,1261
3452.137,1262
4064.7485,1263
2715.3748,1264
2800.5315,1265
2632.9473,1266
3082.1282,1267
3332.3308,1268
2563.1572,1269
3037.909,1270
3495.5854,1271
3664.4604,1272
3668.3735,1273
4176.453,1274
2471.537,1275
3500.0884,1276
3366.7505,1277
2860.3904,1278
3375.5142,1279
2504.724,1280
3235.594,1281
2693.1316,1282
3186.9453,1283
3629.545,1284
4016.995,1285
2332.5813,1286
3745.3752,1287
4381.864,1288
4226.2886,1289
3772.1365,1290
2625.305,1291
3555.6726,1292
3081.1821,1293
3263.797,1294
3705.8467,1295
3096.8887,1296
2601.8945,1297
2924.2632,1298
3138.2659,1299
3377.7407,1300
4137.794,1301
2777.2178,1302
3463.8796,1303
3371.1936,1304
3640.4302,1305
3897.9546,1306
3208.9062,1307
2915.3489,1308
3147.2202,1309
3210.5403,1310
3108.8396,1311
3296.7056,1312
3220.204,1313
3734.089,1314
4325.108,1315
4704.3257,1316
4094.0212,1317
2610.8254,1318
3318.769,1319
2875.867,1320
3746.1052,1321
3469.59,1322
3629.5706,1323
2981.5574,1324
3414.4583,1325
3432.1775,1326
3647.9563,1327
4806.039,1328
2213.7693,1329
2592.2954,1330
2583.1492,1331
2452.0515,1332
2893.3762,1333
3034.8904,1334
3022.139,1335
3384.0488,1336
2870.1633,1337
3334.775,1338
3083.2036,1339
2821.54,1340
2374.8064,1341
3439.9727,1342
4585.997,1343
3644.4102,1344
2640.9885,1345
2973.1116,1346
2738.6987,1347
2934.8398,1348
3588.3591,1349
3011.167,1350
2824.7346,1351
2971.9907,1352
3165.621,1353
3429.6365,1354
3390.5237,1355
3145.2808,1356
3500.0476,1357
3229.1677,1358
3263.81,1359
4238.971,1360
2896.7412,1361
3559.2573,1362
2874.3743,1363
2991.6882,1364
3348.006,1365
3144.3142,1366
2696.2002,1367
2609.9624,1368
2800.8904,1369
2980.7734,1370
4361.5757,1371
2162.7551,1372
3341.9011,1373
2988.4016,1374
3247.5713,1375
4516.9966,1376
2490.5708,1377
3423.2817,1378
2962.6023,1379
3245.7097,1380
3091.4119,1381
3154.3713,1382
2603.6584,1383
3079.0344,1384
3195.1262,1385
3125.5122,1386
4011.731,1387
2607.8333,1388
3511.158,1389
3383.6433,1390
3646.7092,1391
4112.9307,1392
2790.9675,1393
3186.334,1394
3078.0862,1395
3371.554,1396
3335.8,1397
3566.547,1398
2989.8037,1399
3478.806,1400
3278.2468,1401
3675.0684,1402
4381.2383,1403
2686.7734,1404
3527.6946,1405
2934.8289,1406
3091.3987,1407
3064.0872,1408
2689.469,1409
2632.831,1410
3192.818,1411
3702.8142,1412
3350.288,1413
3604.954,1414
2455.654,1415
3362.8823,1416
2995.6511,1417
3332.918,1418
4326.7026,1419
2612.4082,1420
3444.2395,1421
3623.6448,1422
3775.174,1423
3944.9233,1424
3600.0657,1425
3410.292,1426
3505.2383,1427
4009.6875,1428
3229.924,1429
3617.2537,1430
3717.942,1431
3703.5425,1432
3759.714,1433
3683.018,1434
3151.4226,1435
3509.0557,1436
3077.7131,1437
3554.3135,1438
3472.5647,1439
3525.7278,1440
2571.541,1441
3606.8882,1442
3478.5288,1443
3876.618,1444
4329.2363,1445
2902.6587,1446
3368.5938,1447
2999.8904,1448
3288.4304,1449
3198.5466,1450
3950.8982,1451
2386.5652,1452
3330.3328,1453
2996.133,1454
3278.4026,1455
4137.204,1456
2559.2888,1457
3356.6152,1458
3119.4338,1459
3151.5613,1460
3175.5815,1461
3131.1052,1462
2742.1423,1463
2953.7908,1464
3231.6694,1465
3348.2832,1466
3074.2363,1467
2900.835,1468
3707.4456,1469
4083.2954,1470
4119.1147,1471
4071.25,1472
3422.4314,1473
3610.8823,1474
3892.136,1475
3992.4912,1476
4311.2856,1477
3079.5667,1478
3717.0583,1479
3541.3994,1480
3332.2136,1481
3408.792,1482
3272.2983,1483
2650.7227,1484
3563.3823,1485
3571.767,1486
3479.862,1487
3338.3206,1488
3152.2664,1489
3469.0747,1490
3126.354,1491
3160.347,1492
3058.4548,1493
3332.245,1494
2770.9175,1495
3289.2495,1496
3445.2097,1497
3450.9443,1498
3920.7312,1499
2627.0596,1500
3011.903,1501
2868.796,1502
3184.887,1503
3521.927,1504
3139.3323,1505
2592.2214,1506
2982.6917,1507
3250.6526,1508
3510.8513,1509
3741.0342,1510
3261.6545,1511
3295.7312,1512
3280.4224,1513
3303.3262,1514
3061.2356,1515
2900.254,1516
2881.8433,1517
2957.2766,1518
3171.001,1519
3861.2725,1520
4053.1492,1521
3384.819,1522
3208.2012,1523
3674.3853,1524
3693.8691,1525
3630.774,1526
3383.4817,1527
2483.0532,1528
3432.6248,1529
3578.0554,1530
3652.5156,1531
3190.8801,1532
2854.8125,1533
3483.6177,1534
3238.0017,1535
3341.9375,1536
3149.1062,1537
3487.444,1538
3313.3918,1539
3943.7825,1540
3477.971,1541
3748.4836,1542
2869.2915,1543
2822.19,1544
3119.6025,1545
2836.6245,1546
3167.6418,1547
2704.2717,1548
2907.9624,1549
3438.3862,1550
3001.3357,1551
3494.9822,1552
3401.3137,1553
3348.88,1554
2771.4248,1555
3010.799,1556
2830.5447,1557
2670.5867,1558
2964.4631,1559
3438.032,1560
2886.7087,1561
3417.0435,1562
3412.3457,1563
3416.7202,1564
3340.923,1565
3547.2766,1566
3556.3345,1567
3366.5422,1568
2966.2776,1569
3408.6448,1570
4198.121,1571
3331.064,1572
3461.7712,1573
3707.5833,1574
3289.3674,1575
2792.4814,1576
2413.467,1577
3065.093,1578
3500.9607,1579
3882.329,1580
3826.9973,1581
3831.5063,1582
3763.443,1583
4003.3599,1584
3583.1038,1585
3688.6016,1586
3533.0732,1587
3033.8467,1588
3515.4844,1589
3451.3699,1590
3694.0537,1591
3517.4849,1592
3916.0376,1593
4509.5903,1594
4475.14,1595
4372.864,1596
4828.6875,1597
6015.291,1598
5937.238,1599
5772.305,1600
5912.712,1601
4292.421,1602
3570.1846,1603
3510.1282,1604
2949.7625,1605
3720.5073,1606
3607.8145,1607
3883.4578,1608
3657.775,1609
3164.02,1610
3413.911,1611
2843.7786,1612
3352.8276,1613
4434.6006,1614
2707.5327,1615
3503.0437,1616
3418.9722,1617
3603.3132,1618
2937.2708,1619
2885.252,1620
2985.7407,1621
2970.624,1622
3364.018,1623
3916.7007,1624
2990.9167,1625
3532.4905,1626
2825.381,1627
3312.9639,1628
3324.6401,1629
2457.821,1630
2470.9841,1631
2651.6113,1632
2562.1128,1633
3017.6077,1634
3641.44,1635
2726.0837,1636
3572.567,1637
3433.7012,1638
3357.0583,1639
3846.2988,1640
2780.5935,1641
2932.9045,1642
3166.6997,1643
3257.1467,1644
3907.926,1645
2677.0457,1646
3294.7388,1647
2732.2876,1648
3356.8025,1649
3075.1506,1650
3497.2878,1651
2421.6348,1652
2964.8523,1653
2977.4612,1654
3380.659,1655
3782.8438,1656
2722.3696,1657
3372.355,1658
3491.1348,1659
3506.9927,1660
4088.6853,1661
2300.211,1662
3101.4692,1663
2664.8079,1664
2863.0637,1665
3257.2053,1666
2100.3289,1667
2709.9263,1668
2919.1982,1669
2847.5378,1670
3149.867,1671
3676.7246,1672
2260.1008,1673
2778.649,1674
2658.647,1675
2767.593,1676
3776.0625,1677
2863.4072,1678
3368.0183,1679
3390.6755,1680
3057.8982,1681
3707.5027,1682
2836.8997,1683
3118.0002,1684
3569.2534,1685
3072.1357,1686
3955.7378,1687
3033.6948,1688
3057.9746,1689
3428.3967,1690
3838.301,1691
3858.2664,1692
4277.5264,1693
3414.8267,1694
3313.437,1695
2956.2253,1696
3287.32,1697
3763.2288,1698
3095.37,1699
3404.1187,1700
3357.9583,1701
3794.368,1702
3560.8276,1703
2913.9893,1704
3034.766,1705
3111.4944,1706
3919.02,1707
3739.5051,1708
3225.0476,1709
2988.6125,1710
3094.475,1711
2665.114,1712
3011.33,1713
4173.023,1714
2392.0093,1715
2820.6917,1716
2549.5347,1717
3289.2166,1718
3308.08,1719
2804.9478,1720
3107.8813,1721
3133.4534,1722
3304.9236,1723
3400.9197,1724
3323.1328,1725
2296.3906,1726
3219.4683,1727
3346.8198,1728
3097.004,1729
4418.7856,1730
2507.8403,1731
3027.5264,1732
3256.357,1733
2977.8267,1734
3693.227,1735
2579.7515,1736
3440.816,1737
2825.4321,1738
3331.8127,1739
3206.707,1740
2976.1882,1741
3232.2046,1742
3724.1533,1743
3871.8162,1744
3717.5635,1745
4294.622,1746
2621.6416,1747
3293.9539,1748
2749.021,1749
3265.7068,1750
3855.6108,1751
2551.741,1752
3429.4392,1753
3175.8547,1754
3372.2024,1755
3480.1414,1756
3544.2222,1757
2579.1135,1758
2652.912,1759
2306.7817,1760
2991.1682,1761
3744.8838,1762
2661.2407,1763
3379.0488,1764
3136.9536,1765
3354.0269,1766
3716.1821,1767
3164.337,1768
2311.6455,1769
3127.9844,1770
3193.5674,1771
3026.254,1772
4169.622,1773
3106.2642,1774
3718.647,1775
3188.797,1776
3257.8042,1777
3419.3132,1778
3002.0134,1779
3059.2917,1780
3413.3892,1781
4890.917,1782
5343.865,1783
4936.443,1784
3522.3003,1785
4923.2827,1786
4479.3584,1787
4733.1553,1788
3425.9338,1789
2920.7866,1790
2909.729,1791
3475.5369,1792
3393.7222,1793
3683.613,1794
3333.6245,1795
2979.452,1796
3745.6858,1797
3057.1257,1798
3618.4014,1799
4197.2183,1800
2447.561,1801
2904.1614,1802
2254.7148,1803
2980.5715,1804
3686.5464,1805
2528.1836,1806
3035.0837,1807
3159.0144,1808
3383.9805,1809
3171.7908,1810
3859.2231,1811
2444.2869,1812
3379.1848,1813
3129.139,1814
3337.7222,1815
4027.4712,1816
2618.023,1817
3397.383,1818
2813.9363,1819
3050.2805,1820
3115.6414,1821
2782.639,1822
2506.4734,1823
2497.3674,1824
2595.8938,1825
2936.394,1826
2960.8108,1827
2672.4197,1828
3731.1533,1829
3474.5037,1830
3828.064,1831
3628.2717,1832
2127.093,1833
2699.2192,1834
2880.8672,1835
3126.1416,1836
3269.9614,1837
3142.632,1838
2517.3315,1839
3221.6104,1840
3550.062,1841
3094.1309,1842
4495.1714,1843
1935.7759,1844
2564.222,1845
2136.043,1846
2981.974,1847
3132.6106,1848
3028.6313,1849
3413.8496,1850
3220.0032,1851
3434.1829,1852
3598.8108,1853
4342.124,1854
2425.4834,1855
3030.3196,1856
2589.8694,1857
2636.3333,1858
4021.654,1859
3331.1018,1860
3935.7473,1861
3826.1492,1862
4292.8145,1863
4280.333,1864
4219.334,1865
2624.093,1866
3339.3906,1867
3480.1167,1868
3781.621,1869
3586.847,1870
2485.2893,1871
3190.9185,1872
3346.4568,1873
3471.8643,1874
3000.7856,1875
3544.112,1876
2893.1738,1877
3775.8167,1878
3884.762,1879
4127.75,1880
3253.0234,1881
3405.328,1882
3754.3276,1883
3435.1018,1884
3343.741,1885
3599.7175,1886
2239.345,1887
2474.9993,1888
2702.8555,1889
3076.5066,1890
3216.004,1891
2582.619,1892
3042.7888,1893
3402.341,1894
3357.3135,1895
3433.6257,1896
2889.593,1897
2191.9011,1898
2687.067,1899
2541.5046,1900
2741.315,1901
4086.8752,1902
3037.1812,1903
2632.9155,1904
2639.1633,1905
3230.9714,1906
3853.5195,1907
2723.9966,1908
3014.7205,1909
3065.2869,1910
2886.8123,1911
3333.1008,1912
2549.2302,1913
3010.7075,1914
3155.4854,1915
3376.5935,1916
3615.296,1917
4187.574,1918
1963.1633,1919
2956.0786,1920
2462.4465,1921
2502.6333,1922
4274.171,1923
2681.9263,1924
3279.486,1925
2875.1973,1926
3134.5784,1927
3267.4631,1928
2853.3584,1929
2460.1567,1930
2311.004,1931
3043.6687,1932
4581.024,1933
3118.3406,1934
3082.8433,1935
3529.9553,1936
3385.5144,1937
3823.604,1938
4398.121,1939
3966.0508,1940
4555.444,1941
4854.336,1942
4872.254,1943
5007.3257,1944
3862.7214,1945
3458.8906,1946
3473.1375,1947
4033.3713,1948
3790.1492,1949
3382.8591,1950
3203.5505,1951
3243.4119,1952
3332.8015,1953
3404.6497,1954
3593.467,1955
2786.0474,1956
3690.441,1957
3219.9714,1958
3417.6528,1959
3341.8748,1960
2881.0437,1961
2801.4087,1962
3041.5044,1963
3168.4849,1964
3737.0535,1965
3695.3188,1966
2525.3574,1967
3428.2944,1968
3290.1245,1969
3143.9712,1970
3515.6936,1971
2465.7178,1972
2356.7773,1973
2284.1562,1974
2416.9138,1975
2940.5662,1976
2609.5222,1977
3080.933,1978
3491.2087,1979
3262.071,1980
3020.76,1981
4085.689,1982
2340.1768,1983
2704.9624,1984
2449.0535,1985
2392.073,1986
3562.7305,1987
2761.152,1988
2784.294,1989
2651.3284,1990
3041.2502,1991
3353.5386,1992
4422.9727,1993
2771.339,1994
3408.2664,1995
2911.763,1996
3457.9265,1997
4188.9087,1998
2567.042,1999
3927.4568,2000
3731.027,2001
3619.2302,2002
3289.342,2003
2896.711,2004
2575.7922,2005
2667.8887,2006
2779.2942,2007
3123.4302,2008
3893.7095,2009
3082.43,2010
3194.3271,2011
3331.6995,2012
3936.2195,2013
3673.1362,2014
2379.7239,2015
2347.1982,2016
2424.4849,2017
2841.636,2018
2946.3682,2019
2803.72,2020
3352.7793,2021
3348.957,2022
3564.6685,2023
3367.518,2024
4211.0986,2025
2684.651,2026
3042.7065,2027
2774.1208,2028
3647.4375,2029
3684.5635,2030
2691.8472,2031
3083.4028,2032
3033.8523,2033
3541.4766,2034
3496.7754,2035
3288.975,2036
2458.621,2037
2702.4714,2038
3194.1956,2039
3050.7908,2040
3670.0938,2041
3075.128,2042
3301.8718,2043
2754.7817,2044
3112.168,2045
3201.604,2046
2883.0647,2047
3224.1592,2048
3095.5522,2049
3238.4807,2050
3169.4236,2051
3247.2983,2052
2976.3215,2053
2920.6343,2054
2859.7554,2055
3989.0662,2056
4818.053,2057
2450.5078,2058
2506.5305,2059
3467.222,2060
3758.226,2061
2856.954,2062
2966.0635,2063
3013.0347,2064
3871.884,2065
3576.9998,2066
3358.979,2067
3554.0603,2068
2709.2393,2069
4926.3667,2070
3999.1104,2071
3483.9949,2072
4379.334,2073
2641.0754,2074
3595.1897,2075
3370.3357,2076
3260.7024,2077
3338.6973,2078
2815.697,2079
2344.1538,2080
2704.1272,2081
2994.8547,2082
2720.678,2083
3805.511,2084
3171.346,2085
3332.2788,2086
3041.347,2087
3060.967,2088
3452.3625,2089
2377.951,2090
2838.9106,2091
3087.4539,2092
3080.8467,2093
3331.2107,2094
2929.486,2095
2924.3525,2096
2712.6633,2097
2836.491,2098
3183.3464,2099
4396.971,2100
2416.5063,2101
2945.3064,2102
2543.914,2103
3205.5496,2104
2946.04,2105
2572.6611,2106
3671.6853,2107
3608.4106,2108
3315.9976,2109
3756.4922,2110
2676.5813,2111
2984.0017,2112
3205.5532,2113
3507.3223,2114
3603.7683,2115
3304.469,2116
4125.109,2117
4286.187,2118
4521.6694,2119
4708.594,2120
4795.259,2121
3605.2388,2122
4119.129,2123
3852.308,2124
4069.692,2125
3693.083,2126
2756.7478,2127
2800.0303,2128
2971.7737,2129
3266.9373,2130
3378.1047,2131
4392.193,2132
2687.4587,2133
3607.4595,2134
3470.897,2135
3182.9426,2136
3889.801,2137
2395.738,2138
3050.5098,2139
2797.0728,2140
3451.168,2141
3630.7134,2142
3980.7346,2143
1802.288,2144
2576.2693,2145
2644.2566,2146
2906.7542,2147
4272.5156,2148
2950.5222,2149
4007.0776,2150
3428.2412,2151
4287.5854,2152
3563.1816,2153
3117.5032,2154
2878.1155,2155
2809.7087,2156
3382.4766,2157
3396.0457,2158
3563.5227,2159
2410.7078,2160
3408.5278,2161
3406.8318,2162
3592.2822,2163
4028.5935,2164
2862.2866,2165
3034.5066,2166
3241.314,2167
2967.986,2168
3433.622,2169
2491.255,2170
3233.9106,2171
3212.0742,2172
3243.4875,2173
3570.644,2174
3572.5654,2175
2586.171,2176
2931.4177,2177
2629.9995,2178
2410.2249,2179
4298.111,2180
2571.9216,2181
3516.367,2182
3288.127,2183
3405.7107,2184
3664.3086,2185
2466.5654,2186
2830.1023,2187
2815.234,2188
3309.518,2189
3465.876,2190
4158.6577,2191
2562.465,2192
3562.805,2193
3597.0771,2194
3533.593,2195
3664.7322,2196
3059.239,2197
3102.1536,2198
3123.1284,2199
3596.0613,2200
3468.8845,2201
3145.1746,2202
2879.129,2203
3538.664,2204
3726.7,2205
3936.379,2206
4491.5312,2207
2313.9856,2208
3169.5427,2209
2708.8123,2210
3069.887,2211
4270.9297,2212
2595.5042,2213
3685.6658,2214
3256.7705,2215
3058.1777,2216
3490.7332,2217
4165.2217,2218
2554.3682,2219
3112.1833,2220
3273.4043,2221
3490.472,2222
4281.8823,2223
2634.8176,2224
3023.886,2225
2906.7983,2226
2920.1829,2227
3463.2864,2228
2881.1206,2229
2366.3726,2230
2282.9587,2231
2497.6072,2232
3028.847,2233
3210.8992,2234
3359.8855,2235
3480.8333,2236
4032.2246,2237
4172.0522,2238
4673.9976,2239
2623.2986,2240
3293.6348,2241
3138.3057,2242
3380.956,2243
3560.7031,2244
2961.169,2245
3389.3616,2246
3076.7192,2247
3330.4243,2248
4043.46,2249
4741.1733,2250
1990.3181,2251
3224.761,2252
2376.982,2253
2812.545,2254
3908.3843,2255
2385.9802,2256
3381.0146,2257
3301.479,2258
3800.4844,2259
3450.2734,2260
2686.478,2261
2828.354,2262
3290.16,2263
3344.6296,2264
3301.1926,2265
3814.2207,2266
2048.394,2267
3258.558,2268
3351.9888,2269
3308.2842,2270
3073.028,2271
2449.837,2272
1929.1093,2273
2468.2249,2274
2847.3877,2275
2845.205,2276
3254.1104,2277
3222.4688,2278
3524.201,2279
3293.303,2280
3720.6184,2281
3984.877,2282
2751.1782,2283
2727.2036,2284
2638.116,2285
3326.431,2286
3771.0447,2287
3029.4397,2288
2740.3315,2289
3563.616,2290
3550.4004,2291
3586.2002,2292
4579.4585,2293
2264.9001,2294
3518.969,2295
3520.807,2296
3260.1946,2297
3817.7468,2298
2507.9265,2299
3259.3403,2300
3040.7822,2301
3575.694,2302
3675.756,2303
2790.0317,2304
2461.7903,2305
3151.661,2306
3132.7336,2307
3485.511,2308
4512.8335,2309
2818.623,2310
3390.728,2311
2956.8345,2312
3348.0461,2313
4159.464,2314
2284.44,2315
2766.8003,2316
2842.2156,2317
3338.3813,2318
3386.12,2319
3212.625,2320
3410.3289,2321
3606.1155,2322
3688.3994,2323
3848.1143,2324
4287.187,2325
2798.0554,2326
3678.5332,2327
3120.4653,2328
2976.6804,2329
3206.546,2330
2691.146,2331
2315.024,2332
3207.3716,2333
3112.4656,2334
3398.7437,2335
4532.832,2336
2544.4048,2337
3258.3972,2338
3187.1692,2339
3161.3748,2340
3975.0298,2341
2791.8945,2342
4059.73,2343
3318.0728,2344
3277.0925,2345
4072.7048,2346
2653.2007,2347
2642.1135,2348
2894.2148,2349
3239.4692,2350
2964.6099,2351
4670.8154,2352
2385.7202,2353
3536.7268,2354
3483.6462,2355
3187.0444,2356
3574.221,2357
2569.7214,2358
2455.3203,2359
2230.1335,2360
2839.784,2361
3046.256,2362
3210.444,2363
2613.1392,2364
3161.7922,2365
3609.0308,2366
3580.6992,2367
3701.6868,2368
2490.0142,2369
2743.7324,2370
2721.6243,2371
3008.0728,2372
4243.5435,2373
2296.1938,2374
3289.205,2375
3003.6743,2376
3695.3503,2377
3684.6282,2378
4886.5015,2379
2469.6643,2380
2832.9126,2381
2820.0847,2382
2593.5608,2383
4355.5073,2384
2634.0151,2385
3669.6914,2386
3156.2146,2387
3372.104,2388
3329.313,2389
3380.023,2390
2550.9658,2391
3126.6208,2392
3330.086,2393
3218.7893,2394
3458.2769,2395
2882.9263,2396
3070.9624,2397
2996.8335,2398
3537.8408,2399
3290.591,2400
2962.7644,2401
2713.908,2402
2687.026,2403
2728.0857,2404
3286.1938,2405
3167.5522,2406
3458.2122,2407
3573.8105,2408
3425.4192,2409
3543.8108,2410
4384.8804,2411
1971.768,2412
2460.9438,2413
2496.4731,2414
3504.0288,2415
3588.0686,2416
3186.8542,2417
2920.4387,2418
3143.7124,2419
3468.9827,2420
3637.2131,2421
4691.0967,2422
1816.9567,2423
2504.6733,2424
2750.8186,2425
2923.4143,2426
4022.2139,2427
2772.6697,2428
3079.5125,2429
3352.0955,2430
3157.395,2431
3461.177,2432
3343.5076,2433
2750.9946,2434
2950.622,2435
3239.4106,2436
3231.894,2437
4354.919,2438
2243.0742,2439
3185.714,2440
3046.207,2441
3269.164,2442
3856.7664,2443
3681.5671,2444
1548.5388,2445
2834.288,2446
2847.8013,2447
2963.9287,2448
3833.299,2449
3012.6108,2450
4026.8245,2451
3564.0535,2452
3911.821,2453
3907.702,2454
2643.6606,2455
3031.481,2456
2996.9565,2457
3483.3052,2458
3881.459,2459
3035.7356,2460
3235.7717,2461
3360.068,2462
3596.3809,2463
3195.879,2464
4881.307,2465
2316.9558,2466
2500.3054,2467
1883.1436,2468
2638.637,2469
3907.6145,2470
2675.2358,2471
3354.4773,2472
3721.4182,2473
3723.4429,2474
3716.2046,2475
3285.2231,2476
2512.3706,2477
3006.9353,2478
2892.16,2479
3371.8755,2480
4452.5845,2481
2521.9407,2482
3146.7007,2483
2945.405,2484
3231.6584,2485
3411.1365,2486
2993.069,2487
2223.2014,2488
2151.4644,2489
2656.5183,2490
3320.4324,2491
3312.6113,2492
3267.2861,2493
3589.0342,2494
3622.4966,2495
3803.623,2496
4194.4517,2497
2705.391,2498
2853.8745,2499
3361.9556,2500
3575.5417,2501
3412.7375,2502
2436.2346,2503
3341.7593,2504
2644.5652,2505
3589.0852,2506
3827.9275,2507
4381.0693,2508
2678.9492,2509
3143.416,2510
3419.345,2511
3386.8103,2512
4232.8203,2513
2720.1477,2514
3357.8772,2515
3662.4485,2516
3412.2322,2517
3747.3794,2518
4467.771,2519
2495.2012,2520
2976.3972,2521
2636.238,2522
3047.7288,2523
4152.9927,2524
2961.0256,2525
3384.5923,2526
3601.757,2527
3378.3506,2528
3099.6853,2529
4547.9805,2530
2290.7458,2531
2265.3674,2532
2381.5286,2533
2602.2896,2534
3372.161,2535
2726.1216,2536
3051.902,2537
3550.674,2538
3608.837,2539
3397.6458,2540
3390.884,2541
2657.272,2542
3172.1743,2543
3407.8818,2544
3122.3948,2545
4324.2437,2546
2848.7524,2547
3308.4963,2548
3163.7144,2549
3332.1294,2550
3432.4744,2551
2814.1858,2552
1885.0223,2553
2506.036,2554
2844.6873,2555
3105.341,2556
3787.4497,2557
2901.152,2558
3049.486,2559
2768.5894,2560
3574.9224,2561
4360.0967,2562
2386.855,2563
2958.276,2564
3016.146,2565
3472.269,2566
3462.3193,2567
3801.8076,2568
2497.889,2569
2742.6301,2570
2792.9119,2571
3214.7595,2572
4078.859,2573
1917.2954,2574
2404.284,2575
2670.0046,2576
2903.8193,2577
3245.3071,2578
2609.466,2579
3085.585,2580
3353.148,2581
3130.837,2582
3564.1907,2583
2530.0952,2584
2541.98,2585
2897.242,2586
3290.9,2587
3756.853,2588
4604.8545,2589
3124.771,2590
3666.1663,2591
3188.8193,2592
3273.4612,2593
4711.1465,2594
2818.113,2595
2388.4187,2596
2539.379,2597
2991.9773,2598
2940.5251,2599
2955.2097,2600
2848.4253,2601
3486.5908,2602
3676.8516,2603
3431.1675,2604
3278.6077,2605
2515.7925,2606
3013.7493,2607
3387.8447,2608
3509.236,2609
4031.7793,2610
2300.9482,2611
3286.7134,2612
2703.1123,2613
3523.529,2614
3989.545,2615
2572.154,2616
2424.6274,2617
2100.398,2618
2737.464,2619
2587.919,2620
3954.3225,2621
2714.8728,2622
3621.2336,2623
3371.2969,2624
3278.4502,2625
4121.5107,2626
2293.0503,2627
3120.8691,2628
3015.3467,2629
3330.885,2630
3027.7732,2631
2663.431,2632
3067.2903,2633
3276.182,2634
3724.0872,2635
3735.8374,2636
3517.177,2637
2295.3628,2638
3244.065,2639
2958.9697,2640
2894.986,2641
4961.041,2642
2579.9507,2643
3582.2737,2644
3017.2244,2645
3293.1082,2646
3550.8022,2647
2686.148,2648
3218.962,2649
2853.2422,2650
3605.3313,2651
3432.0203,2652
3213.935,2653
3016.3079,2654
3275.5635,2655
2535.6108,2656
2824.263,2657
4380.814,2658
2217.6707,2659
2757.461,2660
2691.8252,2661
2596.1924,2662
2732.6946,2663
2553.9897,2664
3086.5068,2665
3744.603,2666
3295.8787,2667
3149.945,2668
3666.2893,2669
2391.9958,2670
2509.7559,2671
3300.1191,2672
2924.5337,2673
4649.27,2674
2157.098,2675
2932.8125,2676
2460.3376,2677
2901.481,2678
2451.6501,2679
2598.4338,2680
2488.0662,2681
2730.3105,2682
2962.7805,2683
3134.206,2684
3521.968,2685
3080.1292,2686
3742.1711,2687
3442.2188,2688
3297.9524,2689
4048.9258,2690
2890.1907,2691
3149.1064,2692
2853.9578,2693
2744.6924,2694
2809.0984,2695
3131.8643,2696
2989.3555,2697
3098.5469,2698
3515.9778,2699
3903.2676,2700
4512.56,2701
2604.6646,2702
2692.4583,2703
2159.957,2704
2187.7993,2705
2819.6362,2706
2900.8481,2707
3083.68,2708
3476.115,2709
3367.939,2710
3442.2483,2711
4199.5796,2712
2895.7498,2713
3485.6042,2714
3382.9934,2715
3246.6206,2716
4032.566,2717
2817.3997,2718
3094.7034,2719
3144.4507,2720
3717.3977,2721
3881.1887,2722
4144.286,2723
2525.1072,2724
3114.6638,2725
2599.3713,2726
3135.3564,2727
3993.87,2728
2277.465,2729
3313.8215,2730
3612.8816,2731
3642.2297,2732
3465.335,2733
3337.488,2734
2799.3826,2735
2965.9631,2736
3282.3245,2737
3830.9602,2738
4451.074,2739
2516.9875,2740
3165.5615,2741
2847.0366,2742
3017.9377,2743
3344.9958,2744
2557.5088,2745
2435.836,2746
2132.0366,2747
2313.5,2748
3179.6616,2749
3200.3308,2750
2735.3105,2751
3483.1477,2752
3561.8464,2753
3772.822,2754
3680.7834,2755
2685.7927,2756
2710.1724,2757
2634.6128,2758
3384.4285,2759
3654.766,2760
2770.1838,2761
2642.7747,2762
3494.8474,2763
3464.5295,2764
3546.7751,2765
4556.18,2766
2250.137,2767
3017.8213,2768
2804.051,2769
2679.274,2770
3851.5938,2771
2505.0828,2772
3388.6824,2773
3421.0383,2774
3283.232,2775
3467.8901,2776
2791.6594,2777
3278.1572,2778
3423.894,2779
3566.3987,2780
3713.7637,2781
4770.006,2782
2091.5186,2783
3149.0103,2784
2727.849,2785
2870.3909,2786
3402.6394,2787
2856.819,2788
2296.6414,2789
2194.6704,2790
2463.3887,2791
3017.9727,2792
2802.269,2793
2869.4392,2794
3727.4417,2795
3143.9478,2796
3388.9302,2797
3719.334,2798
3296.2998,2799
3124.0886,2800
3220.356,2801
3081.891,2802
3389.8564,2803
3899.144,2804
2986.847,2805
4094.7373,2806
4431.7715,2807
4431.58,2808
4439.8457,2809
4218.882,2810
4308.244,2811
4390.233,2812
4117.9062,2813
3961.6677,2814
3675.7422,2815
3762.4656,2816
3881.8962,2817
3550.901,2818
3542.4055,2819
3523.5999,2820
3501.5408,2821
3379.0618,2822
3223.0002,2823
3147.2698,2824
3168.9224,2825
3087.3794,2826
2984.7537,2827
3088.6167,2828
2841.0115,2829
3149.1306,2830
3024.121,2831
2460.572,2832
3478.383,2833
3194.1501,2834
3286.552,2835
3750.8315,2836
3934.977,2837
3250.8013,2838
3474.8174,2839
3510.345,2840
3291.3577,2841
3244.3455,2842
3513.982,2843
3697.259,2844
3297.1982,2845
3260.462,2846
3079.068,2847
2527.2373,2848
2812.383,2849
3529.586,2850
3545.957,2851
4076.2725,2852
3277.0066,2853
3617.9348,2854
3854.2405,2855
3909.6365,2856
3993.1282,2857
3174.0496,2858
2979.8164,2859
3849.6084,2860
3708.975,2861
3758.676,2862
2926.3186,2863
3139.6199,2864
3439.283,2865
3229.8416,2866
3233.1758,2867
4569.716,2868
2502.791,2869
3284.6316,2870
3052.8816,2871
2978.1624,2872
3929.6282,2873
2306.5415,2874
2964.3516,2875
3031.473,2876
3490.4404,2877
2891.516,2878
3057.7466,2879
3020.3286,2880
3115.418,2881
3664.2715,2882
3699.7676,2883
2531.7192,2884
2712.0742,2885
2854.1199,2886
2985.3423,2887
2618.933,2888
4121.978,2889
2307.6755,2890
2865.581,2891
2512.4177,2892
2794.873,2893
3789.5215,2894
4675.0205,2895
5015.2954,2896
2958.165,2897
2559.8323,2898
2652.2986,2899
2908.2612,2900
3261.6414,2901
3578.395,2902
3758.8723,2903
3367.4897,2904
3144.8345,2905
2753.214,2906
3138.1665,2907
3469.3489,2908
3488.92,2909
4159.8804,2910
2551.2695,2911
2943.2886,2912
2573.0613,2913
2580.3804,2914
2741.1316,2915
2389.1409,2916
2574.3618,2917
3002.039,2918
2945.1338,2919
4074.5337,2920
4101.272,2921
2327.8916,2922
3151.6553,2923
3134.7786,2924
2980.0706,2925
3797.1646,2926
2618.7607,2927
2698.8013,2928
2816.5322,2929
2807.5334,2930
3080.765,2931
3091.8418,2932
2586.2368,2933
2840.3533,2934
2573.7732,2935
2566.993,2936
3117.7458,2937
2097.142,2938
2327.7625,2939
2581.3203,2940
2388.6873,2941
2652.032,2942
2814.567,2943
2948.1272,2944
3318.4688,2945
3220.716,2946
3337.136,2947
4149.126,2948
2548.904,2949
3029.727,2950
2626.0134,2951
2673.4888,2952
2888.3062,2953
2629.66,2954
2746.0518,2955
2602.985,2956
2992.6292,2957
2936.5608,2958
4255.9204,2959
2132.1318,2960
2620.8462,2961
2828.704,2962
3178.3252,2963
4840.7495,2964
3180.3745,2965
3098.6677,2966
2893.4346,2967
3266.3728,2968
3120.035,2969
3366.6042,2970
2476.508,2971
2706.2524,2972
2610.503,2973
2572.7285,2974
4035.3325,2975
2402.3535,2976
3035.8086,2977
2822.4536,2978
3095.2412,2979
3258.8682,2980
3367.7375,2981
2080.397,2982
2371.5305,2983
2598.0237,2984
2803.3484,2985
3718.3774,2986
2803.3562,2987
3302.1455,2988
3722.2007,2989
3514.8418,2990
3938.7566,2991
2519.3,2992
3096.7751,2993
3037.4514,2994
3103.387,2995
3874.1602,2996
2825.3533,2997
2491.749,2998
2307.5896,2999
2548.0483,3000
2647.6433,3001
4135.2485,3002
2411.3655,3003
3151.7698,3004
2085.538,3005
2623.5134,3006
3007.9307,3007
3040.675,3008
3241.219,3009
3640.0088,3010
3397.2827,3011
3161.6733,3012
3148.8232,3013
2347.0266,3014
2842.983,3015
2774.1047,3016
2864.578,3017
4213.073,3018
2436.663,3019
3195.9766,3020
2855.6716,3021
3406.3667,3022
3783.3665,3023
3038.9983,3024
4101.8315,3025
5374.456,3026
5661.3335,3027
5406.43,3028
3816.8894,3029
2626.4592,3030
3019.115,3031
2900.3035,3032
3111.3645,3033
3219.917,3034
2781.1118,3035
3128.1812,3036
3069.6575,3037
3055.1338,3038
3154.9539,3039
3674.0586,3040
2415.494,3041
2901.3064,3042
3471.6904,3043
3368.0046,3044
4269.731,3045
2681.3303,3046
2774.2024,3047
3790.3052,3048
2836.4575,3049
2950.1511,3050
2944.7075,3051
2815.5986,3052
3358.4963,3053
3611.1274,3054
3476.3184,3055
4279.655,3056
2409.534,3057
3002.2888,3058
2448.807,3059
2739.8914,3060
3111.4956,3061
2605.1191,3062
3191.1162,3063
2681.8757,3064
2900.985,3065
3525.2292,3066
3386.6191,3067
2614.4446,3068
3099.3408,3069
2882.0962,3070
2792.7305,3071
3962.396,3072
2952.8794,3073
3551.315,3074
3406.1763,3075
3709.3933,3076
4147.368,3077
2554.8445,3078
3192.7073,3079
2771.549,3080
3410.0698,3081
3029.5952,3082
3019.2173,3083
3336.7483,3084
3065.1436,3085
4256.531,3086
3502.084,3087
4271.147,3088
2294.8757,3089
2625.9756,3090
2546.1252,3091
2934.8655,3092
2844.5454,3093
3093.5842,3094
3412.4187,3095
3255.9055,3096
3077.989,3097
3241.6064,3098
2572.4006,3099
2949.174,3100
3827.7285,3101
3560.8135,3102
3834.2695,3103
3040.7305,3104
3757.4294,3105
3542.4878,3106
3862.752,3107
3742.5488,3108
3888.6682,3109
2764.3948,3110
3166.428,3111
3580.1357,3112
3270.4998,3113
3664.4553,3114
3110.3354,3115
3047.222,3116
3621.2798,3117
3742.002,3118
3766.9639,3119
3460.953,3120
2654.7034,3121
2904.1858,3122
2966.2568,3123
3114.8071,3124
3776.5183,3125
2524.3313,3126
3318.5837,3127
2821.0525,3128
3101.5767,3129
3299.595,3130
3560.3767,3131
2632.4346,3132
3145.663,3133
3040.4287,3134
3099.8594,3135
3404.6882,3136
2795.6802,3137
2820.2395,3138
3090.6162,3139
3480.0183,3140
4213.102,3141
4420.206,3142
4764.478,3143
3459.0876,3144
3675.4353,3145
3558.3257,3146
3190.8354,3147
3285.4307,3148
3400.7195,3149
3606.5676,3150
3181.5977,3151
4144.2266,3152
2700.4956,3153
3396.9849,3154
3375.1875,3155
3289.238,3156
3442.7314,3157
3250.1267,3158
3008.637,3159
3489.6665,3160
3502.9827,3161
3468.9094,3162
3923.5464,3163
2347.92,3164
3411.5076,3165
3420.1243,3166
3299.6243,3167
3099.5793,3168
2560.3286,3169
2719.0515,3170
3184.521,3171
3152.2183,3172
3143.5142,3173
4391.0664,3174
2340.4429,3175
3230.5317,3176
3091.1152,3177
3027.8123,3178
3682.6096,3179
3042.0652,3180
3351.5366,3181
3306.582,3182
3369.4087,3183
3672.9702,3184
4478.8374,3185
2520.0615,3186
3581.012,3187
3921.378,3188
3942.3499,3189
3734.33,3190
4061.059,3191
3089.5247,3192
3538.277,3193
3899.18,3194
3902.0566,3195
4459.6885,3196
3027.5547,3197
3675.368,3198
3562.8296,3199
4716.3345,3200
5250.6655,3201
3531.2422,3202
4000.8354,3203
3355.1062,3204
2941.3264,3205
3097.2292,3206
3231.7476,3207
2424.6162,3208
3474.1123,3209
2987.4958,3210
3716.88,3211
3942.3708,3212
2762.774,3213
3003.0964,3214
3160.3093,3215
2898.3545,3216
3855.3474,3217
2858.9963,3218
2780.3416,3219
2793.2036,3220
2565.4282,3221
3106.387,3222
3092.3867,3223
2932.8806,3224
3390.5754,3225
3309.7437,3226
3277.5056,3227
3897.2446,3228
2750.4338,3229
3567.952,3230
3205.1194,3231
3956.2493,3232
3989.1335,3233
3192.9248,3234
3395.297,3235
3095.8804,3236
3366.8672,3237
3995.9978,3238
4119.859,3239
2828.432,3240
2789.8228,3241
2940.8032,3242
3199.9739,3243
4051.7085,3244
3021.1116,3245
3560.0203,3246
3320.3755,3247
3273.278,3248
3008.3281,3249
3025.0178,3250
2297.6162,3251
2831.8293,3252
3052.2048,3253
2550.2761,3254
3762.878,3255
2634.0576,3256
2746.9485,3257
2595.496,3258
2708.1914,3259
2763.021,3260
3024.3103,3261
2641.028,3262
2809.838,3263
2604.9546,3264
3005.4531,3265
2601.829,3266
3004.6711,3267
3058.43,3268
4172.096,3269
4725.7095,3270
4984.836,3271
2748.5828,3272
2779.2656,3273
2641.5698,3274
2929.3503,3275
3422.0317,3276
2870.0125,3277
3124.6145,3278
2819.1309,3279
2931.7173,3280
3518.4553,3281
3833.8154,3282
2482.6511,3283
2772.2812,3284
2989.2231,3285
2973.33,3286
4100.2246,3287
2797.3154,3288
3474.4377,3289
2981.2488,3290
3446.2478,3291
3383.1274,3292
2640.6536,3293
3094.239,3294
2484.0723,3295
2552.945,3296
2901.8516,3297
4005.182,3298
2803.8567,3299
3359.164,3300
3259.875,3301
3606.1838,3302
3396.8337,3303
2503.5647,3304
3407.824,3305
2606.4421,3306
2374.238,3307
3188.666,3308
3235.192,3309
3171.7292,3310
4212.155,3311
4632.916,3312
4945.2153,3313
4254.1626,3314
2843.592,3315
3565.8447,3316
2792.4863,3317
2927.7417,3318
3874.757,3319
2447.122,3320
3130.019,3321
2890.1052,3322
3112.5344,3323
3346.2463,3324
3852.413,3325
2366.8352,3326
3325.3706,3327
3612.25,3328
3073.2522,3329
4407.136,3330
2872.484,3331
3567.978,3332
3483.1616,3333
3526.9429,3334
3821.0693,3335
2670.2163,3336
2806.5574,3337
2584.5706,3338
2723.9287,3339
2825.8452,3340
2819.427,3341
2714.7222,3342
3357.8428,3343
3453.27,3344
3503.2046,3345
4380.773,3346
2338.1853,3347
2886.448,3348
2643.828,3349
3325.2874,3350
4077.3694,3351
2734.4456,3352
3680.7756,3353
3337.8887,3354
3029.9985,3355
3784.7905,3356
3027.859,3357
2483.6824,3358
3008.7815,3359
3248.1401,3360
3061.0076,3361
2909.7214,3362
2828.9956,3363
3389.5222,3364
2852.3684,3365
3293.8044,3366
4166.4956,3367
2801.4949,3368
3175.193,3369
3207.6738,3370
3201.3506,3371
5376.6226,3372
2825.9587,3373
3370.4866,3374
3375.8171,3375
3390.1157,3376
3619.2288,3377
3602.4895,3378
3023.6868,3379
3372.6707,3380
3326.6023,3381
3486.5498,3382
4524.2617,3383
2927.3503,3384
3692.3545,3385
3442.228,3386
3838.6296,3387
3810.168,3388
3035.6797,3389
3062.8262,3390
3033.3843,3391
3214.5527,3392
2410.9304,3393
4068.6335,3394
2881.9045,3395
3470.8994,3396
3021.373,3397
2728.5115,3398
4018.8296,3399
2428.1042,3400
3527.849,3401
3898.6755,3402
3624.2146,3403
3738.6055,3404
2977.5264,3405
2737.6873,3406
2890.1243,3407
3365.9968,3408
4179.4004,3409
4511.912,3410
2512.8933,3411
3107.1423,3412
2745.4966,3413
2520.7615,3414
3663.4756,3415
2502.4949,3416
3309.666,3417
3015.9536,3418
3457.9998,3419
3416.9539,3420
2966.2253,3421
2355.1956,3422
2861.2043,3423
2802.1016,3424
2678.759,3425
4444.22,3426
2549.3206,3427
3248.7546,3428
3165.604,3429
3462.6223,3430
3120.7974,3431
2511.9463,3432
3582.4216,3433
3215.5925,3434
3710.1416,3435
3652.6912,3436
2851.2456,3437
2691.9075,3438
2926.128,3439
2815.604,3440
2781.5835,3441
3423.444,3442
2427.8135,3443
3025.8682,3444
3709.4365,3445
4068.0608,3446
3954.2627,3447
3630.073,3448
3671.8403,3449
3800.027,3450
3879.262,3451
3985.638,3452
2649.5625,3453
3409.6497,3454
3341.695,3455
2962.541,3456
3336.5483,3457
3083.3892,3458
2698.6194,3459
3486.5403,3460
3669.4963,3461
3243.0603,3462
3973.0037,3463
2902.507,3464
3333.917,3465
3100.8337,3466
2937.1885,3467
3079.7935,3468
2402.1184,3469
2856.6152,3470
3003.3037,3471
3610.846,3472
3903.8086,3473
3431.5054,3474
2825.2917,3475
3346.8118,3476
3281.685,3477
3501.6365,3478
3621.985,3479
2651.3313,3480
2630.4126,3481
3263.8215,3482
3162.1628,3483
3923.326,3484
2820.682,3485
2775.2637,3486
3058.6567,3487
3682.768,3488
4212.9897,3489
3134.399,3490
3359.5222,3491
3715.708,3492
3793.4001,3493
3665.1433,3494
4241.5547,3495
2710.6294,3496
3548.201,3497
3006.3088,3498
3313.9656,3499
3342.325,3500
2811.8943,3501
2598.9138,3502
3405.4968,3503
3726.4731,3504
3508.7131,3505
4099.288,3506
2911.9258,3507
3502.4163,3508
3289.8562,3509
3363.3667,3510
3488.066,3511
2989.5696,3512
3149.131,3513
2921.3123,3514
3429.8547,3515
3381.0728,3516
4137.145,3517
2627.4946,3518
3336.9194,3519
2746.1096,3520
3479.9072,3521
4311.8364,3522
2727.5527,3523
3148.2202,3524
3753.3904,3525
4123.0073,3526
3451.619,3527
4061.5603,3528
2941.3992,3529
3847.0754,3530
3130.0369,3531
3355.9546,3532
3199.2612,3533
3265.557,3534
2925.8032,3535
3380.0933,3536
3731.6184,3537
4074.7224,3538
4353.1836,3539
3555.5212,3540
3795.4495,3541
3716.2139,3542
3963.964,3543
3800.5542,3544
3304.9028,3545
2973.331,3546
3798.9639,3547
3757.914,3548
3852.7986,3549
3734.0815,3550
3116.2556,3551
3254.1997,3552
3355.4543,3553
3618.723,3554
3340.8167,3555
3137.1897,3556
3109.8704,3557
3132.743,3558
4299.9614,3559
3740.6636,3560
3679.1267,3561
2966.561,3562
3283.224,3563
3874.8572,3564
3559.1816,3565
3087.2644,3566
2962.201,3567
3702.6638,3568
3032.6729,3569
3268.21,3570
3570.0547,3571
3432.6917,3572
2466.6626,3573
3042.0486,3574
2611.4023,3575
2567.3555,3576
2974.3127,3577
3644.6165,3578
3262.0127,3579
3254.3845,3580
3547.1433,3581
3477.3823,3582
3381.827,3583
3439.879,3584
3379.534,3585
2956.4866,3586
2853.891,3587
3195.036,3588
5255.4624,3589
5206.4854,3590
4114.82,3591
4515.0176,3592
3548.5442,3593
3287.593,3594
2441.4768,3595
2701.0325,3596
3649.841,3597
3804.9248,3598
3697.1868,3599
3783.7246,3600
4118.7427,3601
3938.3066,3602
4078.363,3603
3756.677,3604
3507.6472,3605
3820.2312,3606
4034.7312,3607
3109.0024,3608
3283.3235,3609
3229.3225,3610
4051.7222,3611
4326.2915,3612
4304.823,3613
3530.6091,3614
4352.8916,3615
5991.0977,3616
5147.1714,3617
5043.479,3618
6801.2646,3619
3363.0308,3620
2420.2065,3621
3677.2676,3622
4008.0686,3623
4177.1,3624
3309.4663,3625
3731.2307,3626
3561.839,3627
4036.624,3628
3973.803,3629
4524.819,3630
2962.5586,3631
3862.4766,3632
3821.2527,3633
4018.5417,3634
3954.2117,3635
3203.9697,3636
3530.973,3637
3177.5227,3638
3713.0156,3639
4073.3657,3640
3202.2056,3641
3175.0476,3642
3433.1765,3643
3362.299,3644
2890.8557,3645
3590.3047,3646
2835.0813,3647
3163.4795,3648
2763.343,3649
3353.077,3650
3218.9426,3651
2603.986,3652
2970.6125,3653
3084.1626,3654
3348.208,3655
3585.0872,3656
2930.3796,3657
2574.5222,3658
2996.856,3659
2762.9453,3660
3262.5647,3661
4302.013,3662
2478.438,3663
3566.0308,3664
3144.162,3665
3424.676,3666
3581.2493,3667
2863.945,3668
2609.4055,3669
3084.339,3670
3433.0144,3671
3344.4434,3672
3706.7668,3673
2982.5962,3674
3599.0957,3675
3080.8372,3676
3733.0195,3677
3821.2622,3678
2916.656,3679
2497.4036,3680
2421.496,3681
2784.1426,3682
2894.6877,3683
3416.7131,3684
1952.8148,3685
3299.71,3686
3336.471,3687
3387.5044,3688
3477.1616,3689
2272.348,3690
2021.2864,3691
2098.3308,3692
2855.0627,3693
3183.0188,3694
2644.7856,3695
2791.1274,3696
3219.5498,3697
3333.0854,3698
3301.6577,3699
3925.0386,3700
2587.371,3701
3071.4404,3702
3293.2078,3703
3999.091,3704
3602.067,3705
2665.288,3706
3319.9563,3707
3694.572,3708
3925.234,3709
3865.0366,3710
4167.6865,3711
2917.7866,3712
3749.1934,3713
3411.4282,3714
3629.3914,3715
3722.6824,3716
3098.9387,3717
3412.7097,3718
3628.5134,3719
3540.2812,3720
3744.1555,3721
3115.84,3722
2848.284,3723
3080.4153,3724
3532.713,3725
3661.753,3726
2987.3818,3727
3542.9739,3728
3366.3528,3729
3876.8833,3730
3730.8093,3731
4150.0225,3732
2290.2402,3733
2218.6335,3734
2942.5374,3735
3003.4656,3736
3336.6667,3737
2468.6213,3738
3218.885,3739
3103.089,3740
3313.177,3741
3363.476,3742
3928.2964,3743
2490.81,3744
2903.2817,3745
3359.5706,3746
3165.1694,3747
4346.0474,3748
2349.3936,3749
3175.5647,3750
2109.521,3751
2759.0715,3752
3241.688,3753
3104.456,3754
2650.691,3755
2558.7039,3756
3215.8674,3757
3111.3235,3758
4159.2466,3759
3150.5894,3760
3685.5928,3761
3417.7332,3762
3475.099,3763
3396.6973,3764
2898.3499,3765
2291.9097,3766
2813.5151,3767
3214.8833,3768
3445.9302,3769
4561.052,3770
2601.5977,3771
3128.0156,3772
3148.7163,3773
3417.5625,3774
3208.379,3775
2505.6897,3776
1791.6224,3777
2211.5344,3778
2787.3306,3779
3074.1523,3780
2951.5564,3781
2927.5715,3782
2870.6025,3783
3137.3528,3784
3426.3943,3785
4009.4119,3786
2458.4617,3787
2544.0151,3788
2644.15,3789
2800.679,3790
3186.772,3791
2914.4482,3792
3127.7793,3793
3680.9202,3794
3261.7852,3795
3567.81,3796
3694.3972,3797
2590.214,3798
3508.0793,3799
4529.707,3800
5545.742,3801
4363.997,3802
3950.1226,3803
5149.9336,3804
4510.6675,3805
4745.998,3806
4090.6665,3807
3054.6792,3808
2862.8857,3809
3310.2412,3810
3749.1519,3811
3727.1208,3812
3227.4177,3813
3217.32,3814
3118.1196,3815
2780.513,3816
3209.3486,3817
4060.4885,3818
2133.479,3819
2696.061,3820
3115.5647,3821
3639.1685,3822
3576.8657,3823
3059.0322,3824
2957.9712,3825
3224.2222,3826
3202.0725,3827
3058.219,3828
3925.066,3829
2836.511,3830
3287.609,3831
2766.671,3832
3052.0132,3833
3732.9707,3834
2748.2595,3835
2880.1096,3836
2614.9329,3837
2933.567,3838
2863.191,3839
3617.4792,3840
2153.9875,3841
2308.2395,3842
2492.2031,3843
2972.192,3844
3860.5063,3845
2831.4312,3846
3938.285,3847
3487.7266,3848
3908.4192,3849
3560.087,3850
2560.1738,3851
2931.028,3852
2824.8982,3853
3178.695,3854
3033.4392,3855
2638.276,3856
2208.27,3857
2663.2954,3858
2956.5547,3859
3315.557,3860
4212.071,3861
2446.3826,3862
3001.4602,3863
2900.0283,3864
3253.28,3865
3177.87,3866
3001.1057,3867
3485.39,3868
3288.762,3869
3892.4797,3870
3691.3577,3871
3022.3408,3872
2595.1829,3873
3230.6052,3874
2852.3127,3875
3305.3967,3876
4329.881,3877
3309.1138,3878
4194.152,3879
3733.7922,3880
3712.608,3881
3975.7073,3882
2750.418,3883
3150.0605,3884
3042.3823,3885
3204.0479,3886
3527.5073,3887
3097.4211,3888
2841.8484,3889
3437.799,3890
3323.7192,3891
3386.1475,3892
3863.078,3893
2837.6558,3894
3806.069,3895
3931.6592,3896
3904.6292,3897
3917.7986,3898
2777.3728,3899
2875.9736,3900
3182.1377,3901
3420.8486,3902
3293.7493,3903
3615.1624,3904
2889.524,3905
2639.1829,3906
2773.9343,3907
3395.4287,3908
3881.1877,3909
3210.953,3910
3705.2637,3911
3646.978,3912
3788.7083,3913
3794.9988,3914
3008.859,3915
3008.9976,3916
3233.8738,3917
3227.114,3918
3518.6748,3919
3307.6335,3920
2542.0615,3921
3224.0046,3922
3376.391,3923
3501.28,3924
4236.3438,3925
2242.101,3926
3157.362,3927
3380.3625,3928
3283.1235,3929
3357.3413,3930
2661.2434,3931
3033.7166,3932
3389.3804,3933
3882.894,3934
3589.3193,3935
2850.9438,3936
2632.8833,3937
2736.9036,3938
2865.1428,3939
3194.642,3940
4381.094,3941
2626.108,3942
3370.9568,3943
2994.938,3944
3021.5608,3945
4607.1216,3946
2201.1218,3947
2561.8987,3948
2153.955,3949
4632.515,3950
3462.6199,3951
2677.249,3952
3021.092,3953
3548.2268,3954
3365.7407,3955
4504.7344,3956
4474.924,3957
3516.1921,3958
4848.817,3959
4601.869,3960
4536.678,3961
4807.8574,3962
3101.3232,3963
3156.8086,3964
3824.1118,3965
3756.165,3966
4165.4536,3967
3465.8816,3968
2937.3975,3969
3228.7998,3970
3733.304,3971
3755.4902,3972
3841.6165,3973
3288.3613,3974
3409.018,3975
3316.8027,3976
3847.759,3977
3603.3767,3978
3101.5977,3979
2811.4702,3980
3088.9307,3981
3744.9543,3982
3938.5505,3983
3891.683,3984
2699.2622,3985
3235.514,3986
3350.078,3987
3167.8474,3988
3471.1436,3989
2714.9678,3990
3205.6616,3991
2320.2258,3992
2928.8174,3993
3458.1565,3994
2321.359,3995
3225.7024,3996
3315.3596,3997
3347.3708,3998
3323.034,3999
3437.4714,4000
2523.599,4001
3260.2856,4002
2546.0735,4003
3067.1372,4004
4070.4119,4005
2580.4102,4006
3238.0366,4007
2809.5234,4008
3308.9993,4009
3180.0598,4010
2649.1333,4011
2659.757,4012
2593.0107,4013
3065.0552,4014
3121.242,4015
3705.831,4016
2805.257,4017
3564.7478,4018
3339.144,4019
3571.5864,4020
4505.915,4021
2033.8962,4022
2724.759,4023
2639.5237,4024
2840.1443,4025
4133.247,4026
2895.3933,4027
3055.865,4028
2894.599,4029
3414.559,4030
3071.195,4031
4200.785,4032
2078.9707,4033
2961.0557,4034
4836.686,4035
4597.1367,4036
3210.9072,4037
2565.8455,4038
3250.5415,4039
3459.7856,4040
3741.7617,4041
3904.3376,4042
3391.0183,4043
3065.047,4044
4194.9536,4045
3070.1172,4046
3144.0955,4047
4072.2668,4048
2922.0635,4049
3147.1692,4050
3154.8452,4051
2780.468,4052
2824.9673,4053
2875.3162,4054
2055.5518,4055
2649.93,4056
3219.8677,4057
2670.0137,4058
4224.617,4059
2551.397,4060
3428.4482,4061
3308.88,4062
3800.789,4063
4478.8574,4064
2738.8328,4065
3042.6843,4066
2976.6414,4067
3299.7515,4068
3651.933,4069
2891.5164,4070
2980.9375,4071
2800.8333,4072
3037.1414,4073
3346.2769,4074
3718.3074,4075
2264.6355,4076
2910.8464,4077
3414.145,4078
3239.0693,4079
4564.383,4080
2688.6355,4081
3704.5205,4082
3407.7344,4083
3727.8577,4084
4760.941,4085
4448.3477,4086
4202.8755,4087
4251.7305,4088
3248.226,4089
3370.6924,4090
3983.5308,4091
2743.828,4092
3254.218,4093
2748.4702,4094
3135.4973,4095
3449.851,4096
2562.4102,4097
2619.0872,4098
2507.9858,4099
2974.6047,4100
3170.7954,4101
2816.371,4102
3234.5862,4103
2967.0703,4104
3144.7747,4105
3405.5535,4106
4234.2026,4107
2406.051,4108
3348.5122,4109
3460.69,4110
3500.309,4111
3055.012,4112
2800.2515,4113
2646.4785,4114
3022.0967,4115
3307.5713,4116
3665.4683,4117
3587.7756,4118
2107.9739,4119
2405.806,4120
2605.7004,4121
2974.3152,4122
3694.201,4123
3203.63,4124
3440.7026,4125
3428.276,4126
3573.5886,4127
3358.1548,4128
2458.718,4129
3122.6277,4130
2617.8984,4131
3108.3037,4132
3950.9402,4133
4278.583,4134
3317.3286,4135
3906.6191,4136
3854.3936,4137
3649.5576,4138
4102.9595,4139
2806.9844,4140
3591.237,4141
3184.2532,4142
3111.6006,4143
3617.589,4144
2768.1055,4145
3064.426,4146
3288.9119,4147
3371.172,4148
3166.4185,4149
3360.1958,4150
2770.5063,4151
3133.3247,4152
3412.3015,4153
3589.8435,4154
3797.9497,4155
3077.9517,4156
3185.78,4157
3108.616,4158
3257.7737,4159
3008.4375,4160
2585.7922,4161
2033.2943,4162
2462.9583,4163
2459.5789,4164
3170.6855,4165
3804.1758,4166
3188.4067,4167
3237.822,4168
3226.446,4169
3381.5796,4170
3761.9668,4171
2819.4001,4172
3009.0186,4173
2794.2915,4174
3127.3984,4175
3483.3123,4176
2614.0188,4177
2707.9072,4178
2840.886,4179
3032.4082,4180
2979.6191,4181
4076.773,4182
2245.5205,4183
2855.9712,4184
3033.2747,4185
3307.7375,4186
3583.107,4187
2786.6765,4188
3218.084,4189
3361.0051,4190
3345.889,4191
3807.084,4192
3040.434,4193
2576.2852,4194
3270.3376,4195
3808.2493,4196
3445.7449,4197
4729.8296,4198
2570.7893,4199
3225.697,4200
2866.2456,4201
3062.8523,4202
3488.0615,4203
2250.8987,4204
2056.768,4205
2236.3638,4206
2820.3745,4207
3364.853,4208
3628.7515,4209
2751.4895,4210
3195.4548,4211
3284.5598,4212
3330.9453,4213
3488.7705,4214
2713.9705,4215
2950.3818,4216
3591.2334,4217
3282.6975,4218
4607.3623,4219
3415.5486,4220
3612.2622,4221
3890.619,4222
4492.084,4223
3743.0496,4224
4241.393,4225
2781.6418,4226
3265.311,4227
3546.4038,4228
3633.6042,4229
4059.5286,4230
2764.39,4231
2783.432,4232
2988.8425,4233
3502.5254,4234
3702.8347,4235
3268.4248,4236
3071.622,4237
3622.8916,4238
3686.5803,4239
3888.3464,4240
4284.185,4241
2711.8298,4242
3103.4395,4243
3046.4404,4244
3060.1235,4245
3189.3994,4246
2256.3396,4247
2277.8745,4248
2088.2197,4249
2714.6199,4250
3458.1682,4251
3168.9927,4252
3043.8818,4253
3169.523,4254
3256.6785,4255
3610.3333,4256
4111.3086,4257
2154.3867,4258
2630.709,4259
2415.4495,4260
2819.3423,4261
4046.3792,4262
2737.6013,4263
3089.0515,4264
2776.9973,4265
3140.3252,4266
3273.6624,4267
4752.2026,4268
2161.6772,4269
3112.7327,4270
2732.1824,4271
3129.9775,4272
3508.3936,4273
3168.257,4274
3957.6282,4275
3161.1917,4276
3736.836,4277
3488.909,4278
3886.5598,4279
2066.401,4280
2992.5557,4281
2749.7922,4282
2841.2466,4283
4271.84,4284
2386.2122,4285
3308.3503,4286
3285.1777,4287
3098.8638,4288
3296.529,4289
2700.0571,4290
2197.8894,4291
2388.5251,4292
2749.8552,4293
2869.022,4294
2643.5803,4295
2861.0225,4296
2940.5686,4297
3535.492,4298
3197.603,4299
4094.8677,4300
2666.474,4301
3175.4539,4302
2933.4438,4303
2925.5474,4304
3609.0168,4305
2698.6821,4306
2757.2874,4307
3269.543,4308
3316.645,4309
3265.7422,4310
4291.385,4311
2582.1394,4312
2645.9243,4313
3033.356,4314
4157.9507,4315
4794.356,4316
4018.2063,4317
4965.525,4318
4504.011,4319
4977.7188,4320
4071.4714,4321
3182.1484,4322
2786.9082,4323
3243.6091,4324
3428.105,4325
3699.9553,4326
3090.546,4327
3017.1162,4328
3035.9717,4329
3273.8252,4330
3555.718,4331
3263.106,4332
2500.4614,4333
2411.2913,4334
2879.2283,4335
3426.7231,4336
3283.9673,4337
2587.5337,4338
3010.8354,4339
3225.028,4340
3503.7168,4341
3502.7554,4342
4307.821,4343
2341.5674,4344
2412.7434,4345
2858.171,4346
3674.9202,4347
4177.296,4348
2491.7078,4349
2928.7305,4350
2791.5854,4351
2961.7173,4352
3119.6655,4353
3287.3845,4354
1931.2612,4355
1762.7913,4356
2629.3857,4357
3225.1316,4358
4039.407,4359
2678.7522,4360
3902.3218,4361
3553.5464,4362
2906.373,4363
3293.6418,4364
2711.6216,4365
2822.535,4366
2826.2024,4367
3111.2654,4368
3008.967,4369
3746.369,4370
2365.1816,4371
2929.8726,4372
3227.186,4373
3274.2136,4374
3223.4456,4375
2347.5693,4376
2352.2644,4377
2472.596,4378
2652.4612,4379
3389.4844,4380
3165.7966,4381
3207.1694,4382
3594.981,4383
3587.1304,4384
3563.2566,4385
4139.4395,4386
2506.9521,4387
3239.4326,4388
2884.2317,4389
3305.6882,4390
3659.5576,4391
2930.622,4392
3603.729,4393
3504.4258,4394
3715.6006,4395
3727.5405,4396
4442.9785,4397
2520.3328,4398
2909.2593,4399
3239.968,4400
3438.2686,4401
4249.962,4402
2383.6064,4403
3404.4307,4404
3580.6475,4405
3465.4282,4406
3691.2446,4407
2443.6504,4408
2851.2175,4409
3500.991,4410
3306.0576,4411
3208.5557,4412
3007.7466,4413
2700.325,4414
2962.014,4415
3212.5493,4416
3719.3113,4417
4344.0713,4418
2536.5771,4419
2856.5835,4420
3122.1035,4421
3296.709,4422
3575.6287,4423
3039.6704,4424
3231.7517,4425
3573.9575,4426
3420.7751,4427
3606.4924,4428
3866.6301,4429
2559.4834,4430
2571.2988,4431
2300.99,4432
2878.0227,4433
4070.5374,4434
2272.7769,4435
2657.4534,4436
2482.9128,4437
3079.493,4438
3404.8389,4439
2796.3816,4440
2858.9666,4441
3222.8457,4442
3173.878,4443
3631.141,4444
4191.249,4445
2774.7927,4446
3489.252,4447
3315.208,4448
3630.6626,4449
4382.455,4450
2751.9988,4451
3355.0298,4452
2932.0286,4453
3161.6519,4454
3414.4175,4455
3092.0044,4456
2441.3293,4457
3434.5781,4458
3468.9905,4459
3346.212,4460
4858.969,4461
2224.6306,4462
2880.8386,4463
3205.249,4464
3042.7761,4465
5161.1626,4466
3066.5815,4467
2558.3135,4468
3402.99,4469
3714.0264,4470
3720.6738,4471
3822.8367,4472
3418.1182,4473
4717.7603,4474
5005.354,4475
4972.2227,4476
5197.371,4477
2680.8367,4478
3387.5251,4479
3523.3064,4480
4091.196,4481
3815.753,4482
3414.1843,4483
2740.2295,4484
2725.8794,4485
2756.6199,4486
3228.2866,4487
4056.8738,4488
2696.749,4489
3511.3486,4490
3329.68,4491
3554.0168,4492
3702.5024,4493
3193.7795,4494
3196.1912,4495
3484.0964,4496
3405.5034,4497
3482.927,4498
4073.218,4499
2936.6274,4500
2943.9097,4501
3029.263,4502
3631.246,4503
3059.1946,4504
2911.1113,4505
1980.2543,4506
2347.9868,4507
2565.5461,4508
2895.813,4509
3009.2644,4510
2908.7634,4511
3476.216,4512
3592.147,4513
3590.7434,4514
4589.504,4515
2906.089,4516
3381.7988,4517
3108.358,4518
3084.1956,4519
4509.342,4520
2601.991,4521
3055.902,4522
2207.8723,4523
2579.94,4524
3099.4639,4525
4489.5396,4526
2119.5593,4527
3262.0796,4528
2759.0063,4529
2831.1865,4530
3950.4346,4531
3063.531,4532
3163.0374,4533
3268.0051,4534
3285.4353,4535
3379.8127,4536
3016.7593,4537
2670.7415,4538
2781.3853,4539
2873.813,4540
3508.986,4541
2866.1917,4542
2966.815,4543
3088.8784,4544
2959.8228,4545
3332.2947,4546
3086.7715,4547
2380.4966,4548
2389.141,4549
2928.9824,4550
2988.6335,4551
2804.909,4552
2806.6318,4553
3143.8113,4554
3242.5747,4555
3371.0247,4556
3587.7786,4557
3565.3074,4558
2595.3716,4559
2849.574,4560
2756.9814,4561
3340.7463,4562
3641.577,4563
2659.3584,4564
3180.9236,4565
3078.9102,4566
3200.7656,4567
3019.724,4568
4367.86,4569
2260.7454,4570
3026.0674,4571
3408.922,4572
3312.2236,4573
3882.4167,4574
2811.8652,4575
3465.4692,4576
3114.4478,4577
3383.4766,4578
3491.8706,4579
4280.5923,4580
2721.8042,4581
3312.3225,4582
3026.5103,4583
3203.9255,4584
4105.723,4585
2448.7915,4586
2831.2886,4587
3294.8972,4588
3672.8188,4589
4257.2876,4590
3403.382,4591
1912.6284,4592
3152.6816,4593
3685.0051,4594
3287.1062,4595
3021.7183,4596
3146.4375,4597
3358.3352,4598
3728.886,4599
3300.8657,4600
3080.0376,4601
4609.837,4602
3322.596,4603
4256.277,4604
3617.8684,4605
3625.3667,4606
2944.3176,4607
2955.34,4608
3230.9927,4609
3469.1174,4610
3552.0945,4611
3151.188,4612
2610.05,4613
2553.4143,4614
2723.5598,4615
3123.1062,4616
3076.1985,4617
2444.8628,4618
2824.188,4619
3154.9668,4620
3286.9336,4621
3404.4563,4622
3442.9846,4623
2552.8635,4624
2840.9675,4625
3305.096,4626
2959.2693,4627
3517.894,4628
2842.2537,4629
2872.235,4630
2538.8157,4631
3437.763,4632
3502.1995,4633
2582.977,4634
3175.568,4635
3488.5342,4636
3271.6697,4637
3449.5076,4638
3170.7957,4639
3197.8452,4640
3385.4436,4641
3730.9146,4642
3253.4678,4643
4346.728,4644
2249.846,4645
3118.98,4646
2617.135,4647
3886.0432,4648
3801.1357,4649
3349.948,4650
3796.1255,4651
4481.4307,4652
4691.3306,4653
5030.984,4654
4278.197,4655
3726.7576,4656
4493.8975,4657
4613.9688,4658
4095.8965,4659
4156.289,4660
2881.7783,4661
3120.8792,4662
3283.776,4663
3505.598,4664
3518.9133,4665
3301.0073,4666
2803.9565,4667
3331.8816,4668
3322.422,4669
3696.426,4670
4206.49,4671
2754.282,4672
3336.4185,4673
3113.958,4674
3527.7678,4675
4449.8174,4676
2331.2341,4677
2711.8247,4678
2998.267,4679
2824.853,4680
2963.9304,4681
3013.122,4682
3261.091,4683
3751.559,4684
3873.1753,4685
3193.6436,4686
3888.7344,4687
2202.3909,4688
2666.3875,4689
3052.9998,4690
2933.5603,4691
4354.641,4692
2392.251,4693
3317.9768,4694
3141.612,4695
2719.829,4696
3227.759,4697
3442.3716,4698
2358.0015,4699
2926.2188,4700
3221.733,4701
3491.8752,4702
3832.7637,4703
2966.559,4704
3490.671,4705
3286.5613,4706
3289.159,4707
3294.5376,4708
2869.2905,4709
2779.4934,4710
2235.5127,4711
3134.667,4712
2813.1619,4713
3126.9094,4714
2537.7185,4715
3210.2292,4716
3425.984,4717
3736.2412,4718
4621.8745,4719
2565.7715,4720
2753.1306,4721
2369.4487,4722
2432.9272,4723
2645.7427,4724
3047.5906,4725
2889.389,4726
3111.8318,4727
3958.418,4728
3872.5623,4729
4386.359,4730
2653.3132,4731
2749.7002,4732
2931.333,4733
3059.9927,4734
3831.8398,4735
3056.7886,4736
3115.1523,4737
3057.5813,4738
3215.158,4739
3419.3884,4740
3168.1956,4741
2133.4336,4742
2519.0037,4743
2520.6357,4744
2987.3496,4745
4232.7275,4746
2986.589,4747
3389.224,4748
3093.3408,4749
3236.2815,4750
3533.2244,4751
3075.1487,4752
2813.3562,4753
3175.1265,4754
3336.8247,4755
3710.6099,4756
3565.1704,4757
2484.514,4758
3049.302,4759
3141.85,4760
3454.5605,4761
3467.9841,4762
2252.398,4763
2098.1296,4764
2205.7063,4765
2528.1497,4766
2851.666,4767
3152.783,4768
3116.9114,4769
3945.2803,4770
3678.271,4771
3580.7527,4772
4428.738,4773
2097.0093,4774
2711.5337,4775
2971.894,4776
3360.5046,4777
4212.643,4778
2996.5593,4779
3111.4304,4780
3129.4128,4781
3548.0247,4782
3720.9746,4783
4138.365,4784
2103.24,4785
2869.7424,4786
2483.5435,4787
2954.7102,4788
3605.6104,4789
3095.5151,4790
3283.923,4791
3100.1348,4792
4005.666,4793
3467.602,4794
2526.653,4795
2747.1436,4796
3173.4385,4797
3591.845,4798
3655.4146,4799
4700.402,4800
1844.9937,4801
3040.694,4802
3330.9053,4803
3512.7412,4804
4148.5054,4805
2132.3713,4806
2831.6387,4807
2336.4006,4808
2988.181,4809
3133.2898,4810
2551.5461,4811
3118.1536,4812
3283.546,4813
3349.0935,4814
3599.5212,4815
3980.017,4816
2827.6375,4817
3096.7136,4818
2638.2285,4819
2744.2554,4820
4473.5015,4821
2886.4343,4822
3514.5107,4823
2832.3586,4824
3411.6558,4825
3504.8882,4826
2633.3816,4827
2413.4155,4828
2917.8022,4829
3062.9329,4830
2901.7483,4831
3042.627,4832
3642.0432,4833
3476.2722,4834
3004.8403,4835
3394.5493,4836
4244.311,4837
2963.235,4838
3475.349,4839
3146.1619,4840
3475.3335,4841
3579.298,4842
3053.0398,4843
3191.3538,4844
3202.2563,4845
3705.2476,4846
3451.8804,4847
4720.321,4848
2408.115,4849
3619.224,4850
2437.8755,4851
3107.2815,4852
4494.6587,4853
2902.5625,4854
3844.9421,4855
3388.2747,4856
4027.8079,4857
3755.774,4858
3109.2505,4859
2867.8564,4860
2826.426,4861
3235.7324,4862
3377.4238,4863
3212.6143,4864
2717.5288,4865
2760.2224,4866
3862.7747,4867
3387.052,4868
4639.87,4869
2364.9146,4870
3188.6355,4871
2895.6477,4872
3040.0132,4873
3406.7102,4874
2693.2068,4875
3530.3372,4876
2960.2258,4877
3188.8384,4878
3439.6758,4879
4063.3884,4880
2622.7737,4881
3010.259,4882
2207.1833,4883
2352.216,4884
3572.1653,4885
2642.7358,4886
3391.881,4887
3269.6865,4888
3730.6416,4889
3743.4639,4890
4490.5146,4891
2204.7695,4892
3017.1487,4893
2873.1853,4894
2983.705,4895
4564.4893,4896
3057.0044,4897
3901.1301,4898
3522.538,4899
3901.952,4900
3381.872,4901
3769.2224,4902
2458.36,4903
3175.2283,4904
3022.5193,4905
3296.3298,4906
4278.921,4907
2470.8662,4908
3491.6213,4909
2915.9639,4910
3200.2388,4911
3214.069,4912
2306.2046,4913
2469.6812,4914
2708.7756,4915
2293.2644,4916
2937.0066,4917
3059.6797,4918
3091.5571,4919
3556.341,4920
3820.2466,4921
3651.653,4922
4147.105,4923
3016.8743,4924
3401.523,4925
3072.1135,4926
3222.7239,4927
4144.65,4928
2427.7954,4929
2884.697,4930
2940.6958,4931
3537.3738,4932
3744.315,4933
4745.8433,4934
2040.1726,4935
2857.1292,4936
2991.0989,4937
3014.174,4938
4670.479,4939
2719.5618,4940
3511.125,4941
3512.8489,4942
3763.6653,4943
3970.0928,4944
2385.8945,4945
2691.6548,4946
2891.307,4947
2991.598,4948
3574.5862,4949
3740.1611,4950
2809.0728,4951
3259.9924,4952
3291.697,4953
3475.5737,4954
3139.2148,4955
2057.422,4956
2547.8647,4957
2328.1936,4958
3153.4443,4959
3299.2053,4960
2699.0667,4961
3381.552,4962
3361.9612,4963
3046.294,4964
3380.8882,4965
4209.3096,4966
2426.5425,4967
3106.572,4968
3027.8135,4969
2970.3757,4970
3764.5498,4971
2149.7559,4972
2685.4792,4973
3112.3765,4974
3239.9001,4975
3178.629,4976
4948.753,4977
1955.9712,4978
3048.1345,4979
2877.6528,4980
3512.334,4981
3508.3816,4982
2301.1992,4983
3319.6611,4984
3725.2473,4985
3366.2832,4986
3484.8896,4987
3311.6067,4988
2784.6328,4989
2941.5723,4990
3109.3042,4991
3145.9702,4992
4242.7173,4993
2469.542,4994
3175.3943,4995
3094.0125,4996
3681.7336,4997
3092.6262,4998
3579.2134,4999
2192.7756,5000
2822.0562,5001
2257.1865,5002
3300.5115,5003
4066.372,5004
3259.676,5005
3490.0647,5006
3592.576,5007
3219.9368,5008
4208.8013,5009
2735.6414,5010
3323.9448,5011
3107.6348,5012
3607.0369,5013
3456.9438,5014
3911.1714,5015
2687.675,5016
2829.5293,5017
3596.7634,5018
3626.6978,5019
4431.0537,5020
2016.2427,5021
3295.52,5022
3011.8044,5023
3239.3757,5024
4043.4043,5025
3081.9182,5026
3342.67,5027
3509.7104,5028
3857.022,5029
3808.3945,5030
4628.5757,5031
2565.6287,5032
3291.5312,5033
3136.42,5034
3309.687,5035
3076.108,5036
2369.4395,5037
2994.1287,5038
2573.9146,5039
3658.912,5040
3554.2156,5041
4402.579,5042
2442.225,5043
2987.4167,5044
3167.5508,5045
3241.368,5046
4504.2046,5047
2664.2258,5048
3191.5083,5049
3090.2705,5050
3166.9226,5051
3743.5469,5052
3291.5103,5053
2210.7976,5054
2864.9631,5055
3197.9517,5056
3347.1372,5057
4308.3994,5058
2612.397,5059
3709.533,5060
3588.8464,5061
3686.9817,5062
3442.9521,5063
2967.9758,5064
2488.4834,5065
2448.74,5066
2690.657,5067
2998.5667,5068
3223.736,5069
2990.7043,5070
3485.6091,5071
3602.593,5072
3875.3743,5073
4513.4043,5074
2220.8835,5075
3360.8083,5076
3063.25,5077
3104.0486,5078
3432.5674,5079
2714.404,5080
2702.776,5081
3768.033,5082
3649.4126,5083
3539.2273,5084
4788.951,5085
2681.8103,5086
2782.9048,5087
2570.9014,5088
2383.8896,5089
3392.912,5090
2823.119,5091
3335.6584,5092
3108.3499,5093
3394.5618,5094
3579.0745,5095
4096.251,5096
2456.8123,5097
3548.4282,5098
3474.1067,5099
3449.5828,5100
3783.7468,5101
2733.7783,5102
2705.161,5103
3047.311,5104
3327.6294,5105
3877.8262,5106
2434.162,5107
2831.985,5108
2748.1753,5109
3390.6492,5110
3611.5793,5111
3049.618,5112
3517.9397,5113
3628.5347,5114
3913.992,5115
3816.062,5116
4415.9443,5117
2367.4272,5118
3175.8667,5119
3005.8323,5120
3401.9458,5121
4321.2373,5122
2862.0679,5123
3437.459,5124
3162.152,5125
3575.54,5126
3530.009,5127
4358.257,5128
2041.9734,5129
3347.0955,5130
2782.285,5131
3245.3916,5132
4612.694,5133
2917.6304,5134
3601.8232,5135
3423.6038,5136
3781.3901,5137
3474.9434,5138
3232.2805,5139
2929.2415,5140
3001.0823,5141
3254.41,5142
3614.5295,5143
3465.0503,5144
3286.6191,5145
2996.3193,5146
3339.2822,5147
3418.1875,5148
3739.857,5149
2178.5234,5150
2193.3508,5151
2485.3127,5152
3024.9146,5153
3292.2588,5154
2759.7107,5155
2725.184,5156
3612.561,5157
3626.6304,5158
3686.067,5159
4316.6797,5160
2735.675,5161
3211.8784,5162
2824.724,5163
2932.8005,5164
4016.7188,5165
2321.0854,5166
3316.657,5167
3331.3516,5168
3715.6846,5169
3561.8438,5170
4764.4365,5171
2488.0544,5172
2435.6575,5173
2673.0264,5174
3280.8574,5175
3338.2183,5176
2593.1255,5177
3234.8547,5178
3240.5513,5179
3026.7732,5180
3102.368,5181
3213.6438,5182
2452.801,5183
3080.7993,5184
3528.4756,5185
3608.6562,5186
3770.5679,5187
2538.6318,5188
3528.2441,5189
3188.4307,5190
3405.6213,5191
3567.97,5192
2567.591,5193
2122.3872,5194
2325.7998,5195
3170.4087,5196
3438.017,5197
2965.1548,5198
3352.903,5199
3738.363,5200
3724.286,5201
3388.3994,5202
4439.261,5203
2553.1692,5204
3373.5952,5205
3010.741,5206
3041.0498,5207
4661.555,5208
2421.411,5209
2880.156,5210
2541.5925,5211
2970.3633,5212
2918.3628,5213
4301.788,5214
2687.591,5215
2847.7903,5216
3461.6697,5217
3714.4993,5218
3349.8032,5219
3081.0095,5220
3814.2908,5221
3275.116,5222
3680.3445,5223
3607.0051,5224
2743.484,5225
2231.3618,5226
2136.6902,5227
2593.3132,5228
3021.2769,5229
2870.3691,5230
2089.6802,5231
3400.8872,5232
3582.6035,5233
3352.026,5234
4649.008,5235
2270.144,5236
3294.204,5237
2908.4526,5238
3015.7751,5239
3782.7256,5240
2350.6812,5241
3445.8293,5242
3324.994,5243
3862.6277,5244
3875.8071,5245
3995.9036,5246
2756.7334,5247
3647.9705,5248
3694.2996,5249
3631.0576,5250
4780.451,5251
2439.6877,5252
3705.4983,5253
3158.4827,5254
3528.4504,5255
3837.2773,5256
3783.025,5257
2272.7,5258
2895.489,5259
2310.7957,5260
2693.4165,5261
3960.856,5262
2803.5857,5263
3373.2715,5264
3182.39,5265
3228.2263,5266
3433.927,5267
2900.3767,5268
2956.1265,5269
3158.1328,5270
3274.1758,5271
3819.5625,5272
2383.3567,5273
2440.302,5274
2858.5474,5275
3398.871,5276
3079.3618,5277
4787.9507,5278
2539.0515,5279
2692.9,5280
2379.1377,5281
2936.0444,5282
3831.6814,5283
2670.6702,5284
3428.7234,5285
3663.9138,5286
3757.1357,5287
3592.2595,5288
3424.4119,5289
2207.4343,5290
3214.5427,5291
2906.2693,5292
3247.0598,5293
4519.7705,5294
2782.9531,5295
3567.286,5296
3103.1702,5297
3174.1199,5298
3629.006,5299
2621.519,5300
2776.4177,5301
2286.7288,5302
2969.7458,5303
3607.8857,5304
2834.3733,5305
3164.47,5306
3315.852,5307
3299.5,5308
3195.5574,5309
4200.359,5310
2789.423,5311
3411.1238,5312
3302.366,5313
3678.1865,5314
4391.8394,5315
2660.9727,5316
3153.852,5317
2745.6882,5318
2934.9973,5319
3417.5308,5320
3433.858,5321
2276.2854,5322
2576.8425,5323
2926.5735,5324
3229.464,5325
3272.5034,5326
3097.972,5327
3421.8374,5328
3453.5989,5329
4048.651,5330
4122.4375,5331
2514.1326,5332
3042.888,5333
3314.3547,5334
3600.475,5335
3581.596,5336
3169.7483,5337
3240.6687,5338
3767.6025,5339
4042.7422,5340
3978.3489,5341
4344.616,5342
3356.0308,5343
3726.8777,5344
3774.2664,5345
3888.0554,5346
4129.9697,5347
3719.2969,5348
2909.3809,5349
3701.332,5350
3638.8694,5351
3525.897,5352
3672.3296,5353
2856.8804,5354
3128.903,5355
3011.06,5356
3420.0552,5357
3078.9248,5358
4226.111,5359
2560.4558,5360
3031.1055,5361
2764.6538,5362
2917.0134,5363
3552.7893,5364
2601.5537,5365
2779.9126,5366
3018.6558,5367
5884.1504,5368
4247.7837,5369
3451.4148,5370
2905.9,5371
2782.9429,5372
3345.2397,5373
3578.0496,5374
3730.7476,5375
2541.8313,5376
3317.6443,5377
3817.664,5378
3871.391,5379
4566.943,5380
3135.75,5381
3896.3503,5382
3633.9902,5383
4142.487,5384
3974.6567,5385
3102.656,5386
2964.8523,5387
3339.883,5388
3364.312,5389
3296.3325,5390
3417.7021,5391
2928.6243,5392
3451.4204,5393
3107.8804,5394
3283.2974,5395
3578.2766,5396
2421.848,5397
2633.5977,5398
2698.3635,5399
2833.0469,5400
3110.8098,5401
3049.9614,5402
2410.6597,5403
2818.408,5404
2929.9973,5405
2944.7375,5406
4163.8047,5407
2259.448,5408
2735.6504,5409
2599.7136,5410
3045.003,5411
3282.2126,5412
2871.411,5413
3052.3276,5414
2730.5198,5415
3655.2163,5416
3188.055,5417
3061.8352,5418
3408.3003,5419
3875.9084,5420
4221.9453,5421
4155.585,5422
3979.7122,5423
3550.0874,5424
3665.1775,5425
3458.206,5426
3819.815,5427
3703.7283,5428
3409.1396,5429
2972.2454,5430
3016.4163,5431
3658.7249,5432
4163.1367,5433
4034.2405,5434
2587.6252,5435
3676.2803,5436
3322.3335,5437
3584.2766,5438
3467.7915,5439
2947.1003,5440
3052.9753,5441
3470.784,5442
3521.777,5443
3888.5334,5444
4275.469,5445
2690.8704,5446
3212.237,5447
2991.1548,5448
3149.6274,5449
3497.6592,5450
2778.1453,5451
2137.1934,5452
2489.7295,5453
3298.0522,5454
3167.3572,5455
3189.097,5456
3055.3125,5457
3779.8262,5458
3814.9387,5459
3508.749,5460
3802.9163,5461
2653.0476,5462
2966.087,5463
2939.4111,5464
3266.9355,5465
4195.8354,5466
3342.4055,5467
3505.093,5468
3879.2012,5469
4030.7378,5470
3802.5876,5471
4204.9937,5472
2922.6555,5473
3493.3042,5474
3338.9438,5475
3822.5862,5476
3739.3398,5477
3145.9167,5478
3422.6787,5479
3119.6487,5480
3545.326,5481
3662.8872,5482
3265.4177,5483
3595.7314,5484
4023.9844,5485
4470.0396,5486
4240.5444,5487
4228.95,5488
2933.2656,5489
3871.4995,5490
3827.5942,5491
4263.5947,5492
3998.5186,5493
2782.9885,5494
3440.4407,5495
3625.0396,5496
4140.568,5497
4059.4746,5498
3411.2156,5499
3812.019,5500
4374.7065,5501
3998.0872,5502
4096.0845,5503
4536.574,5504
3159.137,5505
4014.6343,5506
3532.9434,5507
3522.0903,5508
4201.553,5509
3416.6538,5510
3743.122,5511
3638.5864,5512
4182.1235,5513
4163.439,5514
3611.6624,5515
3546.2485,5516
3526.4436,5517
3507.0554,5518
3324.3396,5519
3582.1846,5520
3031.8445,5521
3392.1172,5522
3576.2576,5523
3739.4238,5524
4086.1528,5525
2699.261,5526
3323.9114,5527
3229.3381,5528
3324.7366,5529
3511.9219,5530
3122.919,5531
2462.9512,5532
2294.594,5533
2523.4043,5534
3125.4673,5535
4290.9526,5536
2646.4077,5537
2566.8909,5538
2976.6604,5539
2744.508,5540
3676.8877,5541
2971.4053,5542
3283.4265,5543
3281.1536,5544
3426.2422,5545
4729.515,5546
3089.2852,5547
3463.59,5548
3695.5786,5549
4154.8525,5550
4339.5767,5551
4381.672,5552
3347.9116,5553
4157.182,5554
3937.64,5555
4239.066,5556
3728.7556,5557
3049.5176,5558
2920.2407,5559
3611.136,5560
3311.265,5561
4013.7056,5562
3276.829,5563
3889.3538,5564
4354.535,5565
5243.5195,5566
5191.028,5567
5030.454,5568
4142.475,5569
4622.6074,5570
4219.4893,5571
4209.9233,5572
3919.0269,5573
3748.119,5574
2557.5684,5575
2533.0776,5576
2857.7603,5577
3462.7803,5578
4593.6694,5579
2325.5671,5580
3101.8467,5581
2538.8945,5582
3651.6355,5583
3315.7734,5584
2750.7534,5585
3118.182,5586
3215.7502,5587
3259.6685,5588
3445.5715,5589
3677.332,5590
3380.507,5591
3992.1763,5592
4058.4717,5593
4130.848,5594
4427.754,5595
2949.9575,5596
3788.34,5597
3485.24,5598
3891.4854,5599
3692.8306,5600
2988.0999,5601
2735.4392,5602
2931.4597,5603
3512.325,5604
3835.9834,5605
3428.856,5606
3193.3733,5607
3755.1272,5608
4848.322,5609
5114.9165,5610
5174.8076,5611
4556.2715,5612
5055.497,5613
4449.5186,5614
4891.96,5615
3254.1506,5616
2939.6519,5617
2531.2083,5618
2924.5444,5619
3100.2017,5620
3678.1006,5621
3870.0022,5622
2449.651,5623
3145.41,5624
2960.9453,5625
3278.3176,5626
3751.808,5627
2496.022,5628
3337.9885,5629
3405.839,5630
3032.5222,5631
3191.7788,5632
2875.6277,5633
3155.226,5634
2886.354,5635
3119.8125,5636
3672.6917,5637
3721.064,5638
3246.5288,5639
4303.9834,5640
4253.673,5641
4217.8022,5642
4305.392,5643
3234.4119,5644
3619.9294,5645
3082.698,5646
3912.1973,5647
3296.5027,5648
3143.0215,5649
3841.3662,5650
3353.1038,5651
3255.6045,5652
3408.5964,5653
3582.3066,5654
2668.9663,5655
3832.038,5656
4143.024,5657
3697.4995,5658
4411.362,5659
3273.891,5660
3694.14,5661
3553.1985,5662
3865.9724,5663
4200.259,5664
2869.1821,5665
2876.4697,5666
2575.38,5667
4889.1533,5668
5438.5728,5669
3327.1377,5670
2975.3826,5671
3804.2085,5672
4201.391,5673
4152.993,5674
4509.5103,5675
3039.757,5676
4157.4707,5677
3602.4963,5678
3588.593,5679
3344.1091,5680
3605.775,5681
2758.0369,5682
3642.016,5683
3609.2205,5684
3993.5002,5685
4698.977,5686
3882.8948,5687
5184.887,5688
5007.178,5689
4994.435,5690
5083.0664,5691
2692.5916,5692
3451.1003,5693
3576.9155,5694
3968.1472,5695
3760.1523,5696
3914.03,5697
2991.108,5698
3283.9138,5699
3658.0195,5700
3555.2966,5701
4143.181,5702
2698.8562,5703
3072.6514,5704
3578.165,5705
3367.89,5706
3533.1572,5707
3604.4255,5708
2301.6765,5709
2958.147,5710
2548.5037,5711
4509.5024,5712
4089.3792,5713
3163.4624,5714
3751.3752,5715
4837.9155,5716
4641.928,5717
4912.9336,5718
2560.4539,5719
3639.0193,5720
4073.2285,5721
4008.0312,5722
4516.39,5723
4436.098,5724
3151.7173,5725
4144.2144,5726
4177.2407,5727
3793.533,5728
3849.0999,5729
3025.6565,5730
3401.8298,5731
2677.0454,5732
3225.2996,5733
3363.8948,5734
3419.292,5735
2619.2456,5736
3203.8032,5737
2851.093,5738
3303.7996,5739
3958.3833,5740
2343.3936,5741
2873.0715,5742
2778.7637,5743
2757.485,5744
3248.2483,5745
2610.2944,5746
2787.9714,5747
2744.046,5748
3656.2915,5749
3673.9597,5750
3936.9722,5751
2518.2412,5752
2576.1558,5753
2681.8987,5754
2815.9194,5755
3705.4458,5756
2773.3818,5757
3346.923,5758
3504.8943,5759
3460.076,5760
3530.944,5761
3015.0613,5762
3952.294,5763
4108.2915,5764
4244.6626,5765
4083.4517,5766
3995.357,5767
2710.729,5768
4077.4465,5769
3640.8823,5770
3587.6306,5771
4315.083,5772
2711.1724,5773
3699.8906,5774
3022.8135,5775
3987.0232,5776
3609.4832,5777
2687.902,5778
3117.6562,5779
3982.7314,5780
4601.1313,5781
5013.5513,5782
4842.9053,5783
4126.98,5784
4481.8213,5785
4685.921,5786
4555.921,5787
3856.2036,5788
2608.3289,5789
3087.5093,5790
3157.7686,5791
3132.0547,5792
3311.1863,5793
3574.757,5794
2289.0632,5795
3656.8135,5796
4703.485,5797
5084.1177,5798
4216.658,5799
2605.2908,5800
3645.8936,5801
3918.4055,5802
3520.7317,5803
3656.5085,5804
3020.6182,5805
3023.1309,5806
3203.6711,5807
3201.9197,5808
3506.0579,5809
3201.5454,5810
3136.1367,5811
3663.5857,5812
4146.3794,5813
4298.4946,5814
4402.406,5815
3285.6042,5816
3546.2249,5817
3342.288,5818
3584.3,5819
3309.5862,5820
2733.27,5821
3455.0037,5822
3389.2356,5823
3852.5603,5824
3681.0464,5825
4157.2056,5826
2675.1023,5827
3868.0923,5828
3933.2793,5829
4200.58,5830
4272.1807,5831
3033.011,5832
4056.616,5833
3469.2756,5834
4052.8647,5835
4036.9048,5836
3649.3489,5837
2745.0667,5838
3371.6355,5839
3477.479,5840
3763.751,5841
3704.891,5842
3068.0198,5843
4181.0845,5844
4325.461,5845
4401.324,5846
4370.3394,5847
3140.6094,5848
3709.1174,5849
3519.2346,5850
4458.388,5851
3802.8923,5852
4218.16,5853
3150.6057,5854
3671.7112,5855
3619.337,5856
3975.6602,5857
4442.955,5858
3205.4524,5859
3649.858,5860
3790.3584,5861
3759.2195,5862
3731.86,5863
3073.9878,5864
3070.1118,5865
3583.9392,5866
3615.868,5867
3731.234,5868
4317.701,5869
2733.639,5870
3183.233,5871
2915.886,5872
3093.0525,5873
3696.8208,5874
2457.1807,5875
2615.8188,5876
3029.2773,5877
2852.5588,5878
3437.5479,5879
4251.991,5880
3794.03,5881
4961.77,5882
4468.004,5883
3696.386,5884
3355.0164,5885
2930.3645,5886
3627.087,5887
3255.768,5888
3624.526,5889
5179.115,5890
3752.9653,5891
2841.9087,5892
3879.2544,5893
3997.1643,5894
4087.5366,5895
3624.204,5896
3434.6523,5897
3537.4038,5898
3740.7202,5899
3632.4902,5900
4178.4336,5901
3095.4487,5902
3270.11,5903
3162.6802,5904
3690.3994,5905
3575.1768,5906
2833.6719,5907
3015.753,5908
3746.076,5909
3791.2185,5910
3637.5789,5911
4236.2363,5912
2593.0103,5913
2955.8208,5914
2599.8267,5915
2716.5383,5916
4180.2085,5917
2815.9,5918
2893.5527,5919
3072.818,5920
3209.2297,5921
3521.549,5922
2953.2893,5923
2481.823,5924
2660.8596,5925
3443.1028,5926
3000.6196,5927
3694.9329,5928
3076.4363,5929
3175.705,5930
3084.4768,5931
3255.7974,5932
3777.6797,5933
2994.461,5934
3541.3003,5935
4066.4092,5936
3852.708,5937
4393.679,5938
2907.3337,5939
3855.5823,5940
3888.4185,5941
3825.3113,5942
4162.983,5943
4242.1626,5944
2965.672,5945
4413.911,5946
5076.9253,5947
3355.0486,5948
3957.3738,5949
2692.3296,5950
3622.0137,5951
3854.1523,5952
3940.3105,5953
3150.1196,5954
2850.5854,5955
2878.1306,5956
2871.0842,5957
2674.825,5958
2510.2915,5959
3518.9744,5960
2440.425,5961
2906.2834,5962
2445.469,5963
3054.8728,5964
2974.9932,5965
2518.292,5966
2925.2021,5967
2525.2883,5968
3079.2346,5969
3283.941,5970
3013.5525,5971
3344.889,5972
3600.7603,5973
3857.3315,5974
4291.5024,5975
4289.816,5976
2598.743,5977
3386.6843,5978
3078.5806,5979
3464.5637,5980
4338.538,5981
3005.762,5982
4007.005,5983
4273.4097,5984
4419.221,5985
4312.8687,5986
3711.9922,5987
3779.2402,5988
3568.5764,5989
3750.3333,5990
4111.843,5991
3101.126,5992
2770.0085,5993
3474.6836,5994
3572.7607,5995
3853.7305,5996
4523.76,5997
3159.3743,5998
3772.796,5999
3724.8813,6000
4168.654,6001
4202.5825,6002
2981.5713,6003
3755.3071,6004
3452.2527,6005
3939.1387,6006
3996.359,6007
4604.322,6008
4318.969,6009
4671.627,6010
3640.522,6011
3070.4236,6012
2874.936,6013
3364.54,6014
3886.6506,6015
4036.8237,6016
3986.8525,6017
4256.8594,6018
3294.2517,6019
3809.6863,6020
3613.2434,6021
4683.618,6022
3938.5222,6023
3195.9446,6024
3657.3718,6025
3581.376,6026
3901.7305,6027
3822.184,6028
3881.0444,6029
3070.8984,6030
3656.2456,6031
3830.1345,6032
3522.1616,6033
3608.5132,6034
2816.3682,6035
3454.544,6036
3469.9006,6037
3331.6003,6038
3443.0208,6039
3345.4272,6040
2815.622,6041
3079.3713,6042
2653.4392,6043
3118.4937,6044
3717.9465,6045
3040.4634,6046
3015.3218,6047
3027.0452,6048
3141.3147,6049
3280.6917,6050
2855.929,6051
2591.7175,6052
2762.9456,6053
2917.6956,6054
2808.526,6055
3393.6453,6056
2815.759,6057
3750.43,6058
3908.045,6059
3553.8538,6060
3407.8616,6061
2674.2527,6062
3034.9136,6063
3046.0662,6064
3241.2397,6065
2887.0613,6066
2698.9612,6067
2645.3733,6068
3181.8792,6069
2849.5078,6070
3326.6204,6071
3301.3972,6072
2437.2126,6073
3049.3938,6074
2886.6206,6075
3290.3657,6076
3317.2952,6077
2924.6702,6078
2913.746,6079
3047.2551,6080
3198.959,6081
3417.874,6082
4051.2864,6083
2664.2812,6084
3067.2349,6085
3251.7812,6086
3154.3428,6087
3374.964,6088
2750.5647,6089
3176.5125,6090
3112.5083,6091
3285.0833,6092
3410.7087,6093
4280.417,6094
2430.5837,6095
3077.5874,6096
2770.8755,6097
3118.4534,6098
3585.1511,6099
2792.6238,6100
3487.6475,6101
3507.5085,6102
3593.6394,6103
3501.7107,6104
4239.0938,6105
2631.9736,6106
3115.4287,6107
2724.5503,6108
3091.7107,6109
3956.1685,6110
2600.5222,6111
3441.2737,6112
2778.5852,6113
2755.8706,6114
3145.6404,6115
4138.5356,6116
2604.3486,6117
3253.9292,6118
2858.6821,6119
3230.2568,6120
3633.7593,6121
3004.729,6122
3784.7764,6123
3360.0593,6124
3987.946,6125
3409.0408,6126
2951.9854,6127
2792.2017,6128
3269.89,6129
3260.2336,6130
3256.0396,6131
4233.5,6132
2731.1248,6133
3427.5754,6134
3057.914,6135
3176.3628,6136
3250.8508,6137
2960.776,6138
2848.355,6139
2712.0413,6140
3113.4248,6141
3374.8037,6142
2896.816,6143
3484.8435,6144
3411.3909,6145
3569.5042,6146
3559.7476,6147
4432.5005,6148
2895.545,6149
3094.0996,6150
2930.7085,6151
2988.0876,6152
3228.989,6153
3009.3057,6154
3407.0527,6155
3731.6462,6156
3927.319,6157
4079.4163,6158
4238.523,6159
3572.4475,6160
3978.811,6161
3542.9307,6162
3957.091,6163
4030.3389,6164
2958.242,6165
3581.4255,6166
3454.284,6167
3504.0398,6168
3634.0862,6169
3038.04,6170
3196.0046,6171
3547.086,6172
3686.5308,6173
3727.8384,6174
3291.1584,6175
3475.1514,6176
3680.4685,6177
3983.7446,6178
3882.6873,6179
3755.5437,6180
2743.0457,6181
3652.6487,6182
3821.1997,6183
3571.684,6184
4134.9,6185
3094.584,6186
3691.108,6187
4121.0273,6188
4080.527,6189
4044.9858,6190
3754.1233,6191
3902.6748,6192
3897.0132,6193
4233.0034,6194
4047.951,6195
4109.3306,6196
3318.6128,6197
3882.2063,6198
3845.541,6199
4057.0854,6200
3602.129,6201
3012.8633,6202
3143.915,6203
3487.8298,6204
3603.2664,6205
3698.054,6206
3626.7556,6207
3281.0466,6208
3465.2305,6209
2990.41,6210
3108.3477,6211
3730.7383,6212
2761.1812,6213
2422.2156,6214
2808.1746,6215
2716.1868,6216
3124.2568,6217
3200.2864,6218
2774.681,6219
2677.9548,6220
3147.177,6221
3290.9229,6222
4017.171,6223
2420.1536,6224
2908.2146,6225
3178.5688,6226
2654.2292,6227
3744.1914,6228
2791.307,6229
2982.3613,6230
3158.6064,6231
2910.325,6232
2972.1968,6233
2935.742,6234
2207.497,6235
2427.8774,6236
2688.5225,6237
2567.709,6238
3743.6006,6239
2573.7686,6240
2802.6418,6241
2718.1924,6242
2743.4526,6243
2870.3892,6244
2394.7744,6245
2580.6006,6246
2455.7947,6247
2407.8728,6248
2718.4155,6249
3412.017,6250
3282.0994,6251
3388.6948,6252
3024.644,6253
3451.6228,6254
3617.9097,6255
2617.4353,6256
2932.2048,6257
2535.4746,6258
3067.1167,6259
3000.6282,6260
2842.9524,6261
2476.5256,6262
2932.0796,6263
2994.261,6264
3315.592,6265
4157.755,6266
2323.6775,6267
2729.847,6268
2692.63,6269
2877.1096,6270
4140.193,6271
3109.6418,6272
3648.7778,6273
3315.2627,6274
3071.5137,6275
3077.3696,6276
3308.03,6277
2659.845,6278
2504.9148,6279
2662.3596,6280
2758.1113,6281
3922.046,6282
2775.791,6283
2673.3862,6284
2912.524,6285
2625.2864,6286
2862.2722,6287
2977.9524,6288
2522.382,6289
2349.9575,6290
2580.038,6291
3062.6533,6292
2857.7737,6293
2941.6792,6294
3027.8738,6295
3294.3267,6296
2961.0952,6297
4256.023,6298
2699.6946,6299
2707.474,6300
2867.7915,6301
2764.8342,6302
3639.2039,6303
2729.5652,6304
2375.7861,6305
2422.9841,6306
2766.776,6307
3146.6038,6308
3310.9814,6309
2130.0708,6310
2829.4573,6311
2993.55,6312
3152.6301,6313
3916.264,6314
2764.2512,6315
3443.8887,6316
3443.577,6317
3298.0942,6318
4225.7583,6319
2858.683,6320
3155.4639,6321
3252.413,6322
3295.1445,6323
3743.3792,6324
3818.5967,6325
3119.9075,6326
4137.3496,6327
4446.8022,6328
4193.058,6329
4515.5425,6330
3339.2637,6331
4226.4253,6332
3954.0437,6333
3926.923,6334
3917.4277,6335
3416.3438,6336
3024.8015,6337
3612.5085,6338
3316.5144,6339
3672.2734,6340
2866.021,6341
2942.3748,6342
3121.9165,6343
3546.1902,6344
3812.667,6345
3603.7034,6346
3542.6372,6347
3957.5488,6348
3909.177,6349
3791.291,6350
4047.0557,6351
2922.7607,6352
3552.003,6353
3540.2014,6354
3813.5464,6355
3509.057,6356
3036.7324,6357
3283.8884,6358
3725.377,6359
4095.241,6360
4457.2876,6361
4226.664,6362
3581.2385,6363
4158.9365,6364
4422.4526,6365
4363.6206,6366
4181.297,6367
3528.3496,6368
3389.415,6369
3858.1912,6370
3972.0874,6371
3883.4575,6372
3950.0127,6373
3084.9463,6374
3611.245,6375
3454.4727,6376
3557.1365,6377
3692.5774,6378
2990.913,6379
2785.6047,6380
3621.632,6381
3618.7551,6382
3074.9048,6383
3683.3818,6384
2750.088,6385
3412.2378,6386
3049.7786,6387
3211.8137,6388
3498.4216,6389
2654.3062,6390
2844.6682,6391
3130.2505,6392
3050.375,6393
3238.5664,6394
3536.5422,6395
2535.6785,6396
3002.6724,6397
3194.2673,6398
3438.7883,6399
4023.3044,6400
2423.712,6401
3231.9448,6402
3350.4604,6403
2998.7854,6404
3446.3047,6405
3472.7185,6406
2903.272,6407
3193.8098,6408
3290.5796,6409
3517.2043,6410
4128.0137,6411
3039.3337,6412
3507.5896,6413
3617.3784,6414
3456.4978,6415
3236.3381,6416
2994.527,6417
2778.998,6418
3053.0596,6419
2980.6763,6420
3262.0405,6421
3062.008,6422
3026.9375,6423
3152.3967,6424
3625.0745,6425
3588.1328,6426
3599.9907,6427
2961.3027,6428
2849.428,6429
3242.3657,6430
3410.7903,6431
3725.0369,6432
2586.9404,6433
2926.2856,6434
2916.5781,6435
3201.585,6436
3012.974,6437
4062.5415,6438
2757.437,6439
3165.5051,6440
2650.172,6441
3123.5845,6442
3635.274,6443
2743.7651,6444
3661.3354,6445
3203.1772,6446
3665.7964,6447
3133.3535,6448
4291.4385,6449
2707.8494,6450
2979.0012,6451
2902.188,6452
3532.3584,6453
4140.855,6454
2898.333,6455
3176.426,6456
2818.3271,6457
3254.4617,6458
3311.985,6459
3627.9644,6460
2442.2886,6461
2945.7786,6462
3047.8352,6463
3215.1826,6464
3004.7834,6465
3354.1748,6466
3002.9238,6467
3104.4475,6468
2881.6428,6469
3566.4934,6470
2887.0596,6471
2939.0952,6472
2671.6372,6473
2972.2593,6474
3179.8296,6475
2997.5142,6476
3266.631,6477
2922.8477,6478
3337.694,6479
2930.3901,6480
4277.0176,6481
2957.8171,6482
3265.9849,6483
2922.6086,6484
3281.9644,6485
3468.3037,6486
3311.867,6487
3573.0764,6488
3569.8337,6489
3991.1663,6490
4086.7495,6491
3533.1323,6492
2643.1365,6493
3497.2766,6494
3496.4932,6495
3251.5125,6496
4175.566,6497
3084.8071,6498
4082.1948,6499
3996.8167,6500
4263.762,6501
4232.395,6502
3463.5664,6503
3470.7156,6504
3601.2915,6505
3628.0933,6506
3475.8416,6507
3571.566,6508
3243.5435,6509
3671.2637,6510
3124.8247,6511
3290.4587,6512
3815.672,6513
3105.408,6514
3478.5112,6515
3860.623,6516
4604.298,6517
4074.059,6518
3879.4907,6519
4051.1555,6520
4175.58,6521
4222.5156,6522
4389.287,6523
3634.356,6524
4006.6868,6525
3599.851,6526
4096.858,6527
4093.7275,6528
3563.9946,6529
4041.234,6530
4152.266,6531
3951.551,6532
4599.4507,6533
3956.3516,6534
3660.6553,6535
4175.8174,6536
3951.4736,6537
3851.574,6538
4019.5994,6539
3937.9333,6540
4146.9326,6541
3915.2524,6542
3841.9678,6543
4127.5127,6544
3546.455,6545
3320.2856,6546
3605.2146,6547
3686.7397,6548
3813.6694,6549
4237.2646,6550
2760.7754,6551
3712.058,6552
3173.3232,6553
3109.885,6554
3667.2876,6555
2927.581,6556
2770.2173,6557
2949.6514,6558
3151.3887,6559
3160.7573,6560
2755.8574,6561
2359.891,6562
3183.141,6563
3423.7224,6564
3168.8909,6565
4122.752,6566
2965.7344,6567
3175.0498,6568
3047.6333,6569
3085.7075,6570
3777.8455,6571
2756.8499,6572
3389.4565,6573
2754.427,6574
2936.5405,6575
3176.4988,6576
4582.4097,6577
2779.8933,6578
2986.1062,6579
2896.0662,6580
2958.6084,6581
4196.8213,6582
2883.9902,6583
3263.3718,6584
2936.3137,6585
3543.579,6586
3355.9136,6587
3074.7305,6588
2870.5845,6589
2631.1968,6590
3092.14,6591
3137.8042,6592
2998.6511,6593
2819.5522,6594
3413.7776,6595
3154.204,6596
3430.9026,6597
3770.5146,6598
2723.6724,6599
3026.1375,6600
3045.1492,6601
3024.0688,6602
3307.1965,6603
2852.281,6604
3203.8323,6605
3010.9758,6606
3050.9233,6607
3309.5347,6608
4584.919,6609
2953.4563,6610
3079.646,6611
2870.2007,6612
2906.8716,6613
4457.958,6614
2762.9336,6615
3521.1172,6616
3416.8186,6617
3360.1768,6618
3502.639,6619
2924.8787,6620
2702.4988,6621
3134.5703,6622
3130.427,6623
2932.1887,6624
2901.7847,6625
2920.6194,6626
3109.0464,6627
2939.2275,6628
2997.7317,6629
3654.7932,6630
2738.273,6631
3207.0952,6632
3051.432,6633
2847.5317,6634
3122.3296,6635
3231.5244,6636
3218.0166,6637
3031.951,6638
2908.371,6639
2869.2827,6640
4069.8088,6641
2912.212,6642
3268.5994,6643
2684.8328,6644
3093.6545,6645
3777.5283,6646
2531.5012,6647
2682.859,6648
3132.2388,6649
3057.7798,6650
2990.2612,6651
4420.759,6652
2446.8774,6653
2830.587,6654
2789.589,6655
2816.3135,6656
4142.3096,6657
2947.9402,6658
3367.7095,6659
3567.4968,6660
3448.4631,6661
3403.3623,6662
3253.8638,6663
2655.2922,6664
3043.0122,6665
3428.5835,6666
3161.6196,6667
4098.1426,6668
3208.1016,6669
4046.1858,6670
3879.0884,6671
4101.463,6672
4219.619,6673
3290.6423,6674
3372.1846,6675
3668.4358,6676
3627.928,6677
3456.5364,6678
4143.507,6679
2891.9395,6680
3519.3923,6681
3393.9468,6682
3401.2634,6683
3670.6885,6684
2875.8394,6685
3517.5698,6686
3429.3887,6687
3845.855,6688
4103.926,6689
3284.3154,6690
4116.5884,6691
3909.7236,6692
4129.655,6693
4621.1787,6694
3066.9563,6695
3670.4185,6696
3545.3003,6697
3565.2551,6698
3563.8044,6699
3364.9404,6700
3227.5144,6701
3493.4377,6702
3743.8672,6703
3681.0674,6704
4080.4556,6705
3407.6616,6706
3729.35,6707
3789.3948,6708
4075.0793,6709
4112.0483,6710
3976.3113,6711
3416.8735,6712
4129.0977,6713
4393.4,6714
4464.544,6715
4545.0386,6716
3912.8232,6717
4118.803,6718
4080.9944,6719
4607.1523,6720
4128.107,6721
4021.7507,6722
3253.5264,6723
3612.6345,6724
3714.9692,6725
3898.3157,6726
3905.2395,6727
4185.137,6728
3186.9895,6729
3788.1077,6730
3050.6277,6731
3597.8506,6732
3701.9768,6733
3401.3027,6734
3294.9458,6735
3444.272,6736
3666.5356,6737
3471.7498,6738
4401.3145,6739
2848.3193,6740
2621.5542,6741
2797.896,6742
3362.3108,6743
3487.839,6744
2610.5317,6745
2973.2834,6746
3241.1753,6747
3309.7915,6748
3324.1897,6749
3033.868,6750
3126.9866,6751
3639.9648,6752
3756.1248,6753
4239.0645,6754
4236.429,6755
3884.4573,6756
3812.6426,6757
3880.1597,6758
3868.1196,6759
3801.7522,6760
3703.5137,6761
3702.1235,6762
4501.275,6763
4720.5356,6764
4568.45,6765
3437.0608,6766
4066.757,6767
4088.512,6768
4159.624,6769
4287.8955,6770
3995.8853,6771
3293.2395,6772
3442.4668,6773
3455.4294,6774
3748.261,6775
4456.778,6776
3301.2986,6777
4484.7603,6778
4104.734,6779
4376.2134,6780
3667.48,6781
3884.449,6782
2861.2307,6783
3495.1523,6784
3418.3342,6785
3055.3005,6786
3974.0974,6787
2209.7285,6788
2857.1113,6789
2890.972,6790
2833.579,6791
3392.1099,6792
3007.741,6793
3616.2183,6794
4126.629,6795
4327.8047,6796
4560.6016,6797
3859.5354,6798
4561.027,6799
4179.205,6800
4366.832,6801
4307.072,6802
4643.8325,6803
3401.939,6804
4491.321,6805
4548.262,6806
4743.524,6807
3958.5837,6808
4486.3584,6809
3458.6628,6810
4034.9685,6811
3931.6118,6812
4343.6494,6813
3474.1199,6814
3668.946,6815
3993.7822,6816
3961.1528,6817
4784.356,6818
2956.4026,6819
4005.6316,6820
3719.3184,6821
3896.678,6822
4043.8494,6823
4148.578,6824
3156.19,6825
3949.0537,6826
3668.28,6827
3658.7642,6828
4254.23,6829
2924.013,6830
3210.9407,6831
3245.81,6832
3276.3733,6833
2836.0767,6834
2504.4988,6835
3057.7283,6836
3591.8381,6837
4162.698,6838
4424.795,6839
3739.2214,6840
4434.955,6841
4387.716,6842
4247.356,6843
4410.7856,6844
4547.3535,6845
3351.4602,6846
4193.4775,6847
4177.704,6848
3913.6003,6849
3305.9214,6850
3586.7837,6851
3754.456,6852
4098.7773,6853
4156.8965,6854
4190.9824,6855
3738.951,6856
3566.7903,6857
3979.769,6858
4034.1062,6859
4900.556,6860
4555.757,6861
3185.7651,6862
4002.1277,6863
3863.7212,6864
4234.016,6865
3740.6128,6866
3772.6606,6867
2498.282,6868
2959.1255,6869
2837.8596,6870
2843.772,6871
3559.2583,6872
2412.5676,6873
3667.1694,6874
3246.4653,6875
3066.5374,6876
3794.7588,6877
2732.5112,6878
4008.3337,6879
3678.9473,6880
4209.915,6881
4583.2163,6882
3856.9275,6883
4424.2524,6884
4317.596,6885
4126.085,6886
3814.7322,6887
4173.302,6888
3732.4814,6889
3894.5408,6890
3814.7866,6891
4249.0586,6892
2870.351,6893
4088.2954,6894
3754.2327,6895
3927.241,6896
3944.0144,6897
4331.982,6898
2462.6257,6899
3212.0688,6900
2911.6587,6901
2742.7126,6902
3422.933,6903
2979.0967,6904
3568.437,6905
3332.4358,6906
3962.6763,6907
3732.5073,6908
3879.81,6909
2625.626,6910
2894.2124,6911
2966.7808,6912
3520.909,6913
3844.0566,6914
3013.9045,6915
2795.0425,6916
3297.9402,6917
3446.5432,6918
3106.6382,6919
4281.2227,6920
2975.1885,6921
4416.447,6922
4072.3503,6923
4251.782,6924
4746.3154,6925
3700.8691,6926
4002.7375,6927
4185.1753,6928
4308.248,6929
4572.933,6930
4034.3728,6931
3878.2585,6932
4243.438,6933
4593.2344,6934
4687.7085,6935
3557.778,6936
3518.806,6937
3592.5586,6938
4132.154,6939
4109.0054,6940
4330.9673,6941
2930.3347,6942
3598.49,6943
3392.1565,6944
3513.3533,6945
4099.4844,6946
3168.2573,6947
4278.6714,6948
4332.614,6949
4553.426,6950
4581.5337,6951
3854.5369,6952
2966.5562,6953
3733.5676,6954
3483.6377,6955
3664.4216,6956
4388.3457,6957
2639.6147,6958
3556.952,6959
3389.2896,6960
3517.095,6961
3703.2573,6962
2902.505,6963
3619.4429,6964
3791.0203,6965
4303.2236,6966
4294.708,6967
3786.9592,6968
4746.1157,6969
4067.33,6970
4629.7964,6971
4318.2065,6972
4265.3125,6973
3988.7598,6974
4167.764,6975
4491.332,6976
4705.7017,6977
3830.4373,6978
4213.1406,6979
3615.7876,6980
3960.1326,6981
4307.7837,6982
4229.113,6983
3541.879,6984
3615.5344,6985
3696.262,6986
3522.59,6987
3620.4578,6988
3363.8533,6989
3699.5828,6990
3614.934,6991
3695.3647,6992
3660.4263,6993
3429.9773,6994
2796.4336,6995
3248.294,6996
3734.593,6997
3398.6243,6998
3269.5078,6999
2946.7393,7000
3048.481,7001
3285.0488,7002
3122.9412,7003
2902.1157,7004
4419.472,7005
2270.3699,7006
3358.6277,7007
4184.225,7008
4322.366,7009
4066.189,7010
3855.9153,7011
4225.1772,7012
4619.505,7013
4410.525,7014
4427.848,7015
4684.826,7016
3922.054,7017
4299.0107,7018
4528.6772,7019
4635.899,7020
3809.7058,7021
4111.0024,7022
3832.1577,7023
3452.0005,7024
3754.5952,7025
3885.1548,7026
3719.843,7027
3266.8508,7028
3523.4204,7029
3308.7517,7030
4028.4412,7031
3710.6729,7032
3125.5334,7033
4366.678,7034
4676.9272,7035
4687.973,7036
3558.806,7037
3819.0513,7038
3762.7231,7039
3244.059,7040
3580.6707,7041
3210.9854,7042
3658.56,7043
3176.8848,7044
2654.7756,7045
3000.1902,7046
3189.149,7047
3587.2427,7048
3400.0513,7049
3463.4922,7050
3352.8381,7051
4369.7744,7052
4202.4116,7053
4240.5156,7054
3994.7212,7055
3931.506,7056
3726.7627,7057
3790.3037,7058
3896.81,7059
3636.7905,7060
3845.747,7061
3726.4172,7062
3377.818,7063
3543.1028,7064
3193.804,7065
3104.4675,7066
3096.6094,7067
2791.3313,7068
2328.7576,7069
2421.4358,7070
3237.2522,7071
2935.1777,7072
2579.3704,7073
2388.1177,7074
2221.3035,7075
2625.2104,7076
3105.7568,7077
2980.6575,7078
2241.5483,7079
1613.4413,7080
1896.9363,7081
2946.1436,7082
3268.7087,7083
2944.7278,7084
2347.3103,7085
1968.6313,7086
2176.535,7087
2841.9417,7088
3343.1565,7089
2639.1765,7090
2108.1802,7091
1764.1238,7092
2775.232,7093
3153.9802,7094
3307.6567,7095
3004.0015,7096
1706.1124,7097
3259.9458,7098
3634.1545,7099
2478.0535,7100
2889.5789,7101
3389.8325,7102
4229.716,7103
3979.2488,7104
4218.0674,7105
3978.3274,7106
3511.699,7107
3128.895,7108
3048.0,7109
3131.1345,7110
2985.7874,7111
2627.8398,7112
2415.2556,7113
2015.1561,7114
2518.4502,7115
2964.009,7116
3667.7668,7117
3509.2732,7118
3620.4011,7119
3347.7031,7120
3339.213,7121
3039.6113,7122
2063.5945,7123
1614.1976,7124
2477.7434,7125
3197.4712,7126
2878.655,7127
2542.076,7128
1919.6632,7129
1940.4501,7130
2551.2554,7131
3395.18,7132
3556.61,7133
3418.5178,7134
3339.6384,7135
2831.3682,7136
2816.9478,7137
2770.1873,7138
1895.643,7139
2213.1885,7140
2910.2092,7141
3219.929,7142
2086.7517,7143
1552.5359,7144
1044.9331,7145
858.6897,7146
1773.1857,7147
2710.7566,7148
3212.6165,7149
3390.099,7150
3681.1033,7151
3622.7156,7152
3321.5708,7153
3095.184,7154
2641.1077,7155
1889.4111,7156
2840.3457,7157
2756.3347,7158
3177.585,7159
2417.0688,7160
1544.6277,7161
1894.0897,7162
2154.766,7163
3099.2676,7164
3351.6284,7165
3260.2876,7166
3376.729,7167
3313.393,7168
3263.2517,7169
3085.456,7170
2790.2883,7171
2184.392,7172
1556.9508,7173
2316.6838,7174
3943.62,7175
2296.9084,7176
2744.7869,7177
3272.522,7178
3778.5632,7179
3819.242,7180
4184.687,7181
3981.359,7182
4004.1282,7183
3957.1736,7184
3858.3145,7185
4833.2646,7186
2631.4304,7187
3876.542,7188
3357.5205,7189
3720.149,7190
3905.472,7191
3599.038,7192
3087.4585,7193
2760.7798,7194
2546.713,7195
3308.2817,7196
3565.5244,7197
3183.9524,7198
3245.4421,7199
3312.8752,7200
3386.0408,7201
3435.6643,7202
3505.3374,7203
3439.158,7204
3372.2336,7205
3269.0127,7206
3152.5662,7207
2915.9739,7208
2040.7523,7209
1788.2289,7210
2873.1033,7211
3003.39,7212
2073.4827,7213
1456.1173,7214
1213.6941,7215
2541.711,7216
3100.762,7217
3237.697,7218
3346.9092,7219
3341.9468,7220
3192.3872,7221
3267.7058,7222
3311.8054,7223
2492.5276,7224
2764.668,7225
1851.1656,7226
3027.233,7227
5049.922,7228
2203.9883,7229
3235.531,7230
3030.5728,7231
3548.7249,7232
4045.958,7233
3602.6091,7234
3587.5354,7235
3799.1846,7236
3567.2266,7237
3184.6467,7238
2967.2078,7239
2574.6472,7240
2268.7754,7241
2198.9607,7242
2593.6936,7243
2763.391,7244
3096.2175,7245
3210.882,7246
3379.01,7247
2684.7551,7248
2560.2659,7249
1747.8091,7250
1687.3546,7251
2724.8674,7252
2492.7393,7253
2614.4421,7254
2113.1848,7255
1060.8003,7256
1213.2858,7257
2212.3643,7258
3019.695,7259
3171.8518,7260
3215.6633,7261
2536.8325,7262
2855.479,7263
2698.9502,7264
2989.9602,7265
2141.3467,7266
2087.5234,7267
2190.3894,7268
3269.9907,7269
2804.3828,7270
4289.4565,7271
2407.965,7272
3354.1443,7273
3580.1226,7274
3956.4697,7275
4010.837,7276
3705.9453,7277
3419.0159,7278
3769.3884,7279
3265.8506,7280
2817.5264,7281
2699.631,7282
2118.642,7283
2008.0161,7284
2267.484,7285
3028.336,7286
3204.889,7287
3299.1511,7288
3320.66,7289
3284.1086,7290
3076.1885,7291
5020.206,7292
1432.5532,7293
2513.5547,7294
2381.852,7295
2902.0105,7296
1893.4103,7297
1419.4387,7298
1153.1194,7299
1799.9502,7300
2424.0002,7301
3093.2744,7302
3383.395,7303
3364.7683,7304
3290.2783,7305
2708.672,7306
2811.2346,7307
2849.7446,7308
2536.346,7309
2328.258,7310
2298.6309,7311
3983.317,7312
1655.1989,7313
2182.7358,7314
1817.7196,7315
2237.3567,7316
1660.3245,7317
2581.7395,7318
2895.179,7319
3245.6057,7320
3412.4373,7321
2996.9263,7322
3028.0383,7323
3254.7107,7324
3265.229,7325
2594.1367,7326
2272.084,7327
3168.1277,7328
2926.5642,7329
2565.2224,7330
1743.4341,7331
1378.8219,7332
4831.194,7333
1585.5465,7334
2870.8293,7335
2504.9092,7336
3110.4055,7337
3074.3484,7338
2997.9502,7339
3169.3325,7340
2253.281,7341
1854.5148,7342
3076.2583,7343
3929.3562,7344
2377.3071,7345
2796.1191,7346
3121.6282,7347
3339.674,7348
3818.3071,7349
3885.1033,7350
3473.7786,7351
3910.1128,7352
3547.2676,7353
3434.8137,7354
4283.625,7355
2349.701,7356
3615.137,7357
3310.5564,7358
3797.5461,7359
3584.4329,7360
3785.194,7361
3769.1821,7362
4048.7605,7363
3831.5784,7364
3519.411,7365
3488.4517,7366
3263.5144,7367
2849.5183,7368
2643.9246,7369
2354.7969,7370
3135.7327,7371
3318.6196,7372
3408.3176,7373
3394.6174,7374
3312.359,7375
3388.224,7376
3262.5977,7377
3715.098,7378
1043.8489,7379
1513.509,7380
2412.2297,7381
2267.2227,7382
1910.6061,7383
1304.9163,7384
1174.8352,7385
2431.3906,7386
2906.673,7387
3442.3975,7388
3582.8208,7389
3505.9348,7390
3324.9148,7391
3233.314,7392
3032.4385,7393
2583.163,7394
1601.9406,7395
1066.1066,7396
2158.7046,7397
2674.2888,7398
3288.4998,7399
2693.4878,7400
3427.1936,7401
4025.7458,7402
4056.928,7403
4399.821,7404
4361.137,7405
3793.6174,7406
4111.67,7407
4171.195,7408
3683.6765,7409
3408.5503,7410
3345.095,7411
3361.8718,7412
3545.7034,7413
3388.4246,7414
3650.7852,7415
3786.5344,7416
3738.012,7417
3615.4653,7418
3624.355,7419
2694.6616,7420
1716.943,7421
2225.9905,7422
2865.9326,7423
3195.0432,7424
2428.1143,7425
3417.4197,7426
3326.5955,7427
3357.9265,7428
3541.0547,7429
3310.1584,7430
2842.562,7431
3471.6545,7432
3651.4404,7433
3038.012,7434
3184.9849,7435
2877.452,7436
3810.3672,7437
3557.8103,7438
3173.8257,7439
3921.2898,7440
2749.3738,7441
3802.4592,7442
3803.0881,7443
4716.7783,7444
4434.5815,7445
4527.5117,7446
3408.5933,7447
4216.2974,7448
3718.8955,7449
4061.046,7450
3772.783,7451
3074.6506,7452
3506.167,7453
3748.5085,7454
3901.206,7455
4278.819,7456
3228.6177,7457
2591.894,7458
3532.4768,7459
3839.7632,7460
3593.2393,7461
4349.7075,7462
2350.3286,7463
3282.1633,7464
2358.4485,7465
3023.1694,7466
4074.374,7467
2193.5354,7468
2184.343,7469
1961.6046,7470
2069.5293,7471
2826.451,7472
3882.8132,7473
2724.1792,7474
3483.631,7475
3652.899,7476
3867.804,7477
3651.6885,7478
2843.6387,7479
3671.67,7480
3625.9724,7481
3331.143,7482
2938.96,7483
3104.4128,7484
2462.4358,7485
2459.3093,7486
2296.3738,7487
2830.274,7488
3332.2302,7489
2686.0288,7490
3110.9202,7491
3337.036,7492
3383.4695,7493
4444.1914,7494
2839.575,7495
3979.9973,7496
3492.946,7497
3632.414,7498
4206.198,7499
3191.111,7500
2986.4211,7501
2708.717,7502
2594.845,7503
2879.1516,7504
3996.4443,7505
2326.91,7506
3053.424,7507
3452.6743,7508
3544.3445,7509
4618.362,7510
2346.1394,7511
3440.9565,7512
3089.6592,7513
3110.2847,7514
3036.8994,7515
3534.9082,7516
2876.9065,7517
3649.5771,7518
3927.261,7519
3759.2717,7520
4376.5474,7521
2172.6077,7522
2986.6606,7523
2654.776,7524
3386.041,7525
3705.3853,7526
3167.1826,7527
2944.9155,7528
3184.295,7529
3496.321,7530
3622.5247,7531
4322.1797,7532
2806.3425,7533
3174.26,7534
3115.981,7535
3116.9363,7536
3068.5615,7537
2412.3518,7538
3360.533,7539
3597.2876,7540
3599.472,7541
3594.99,7542
2655.2888,7543
3005.1096,7544
3208.812,7545
3180.401,7546
3204.1235,7547
4370.0337,7548
2808.37,7549
3256.606,7550
3006.9292,7551
3023.927,7552
4081.4521,7553
2215.035,7554
2649.0652,7555
2238.346,7556
2861.7717,7557
3097.6267,7558
2881.112,7559
3366.853,7560
3620.984,7561
3711.778,7562
3660.9724,7563
3356.7605,7564
2906.3013,7565
3152.8945,7566
2643.3594,7567
2704.7446,7568
3692.009,7569
2664.463,7570
3362.28,7571
3042.5432,7572
3524.8784,7573
3961.5127,7574
3845.398,7575
2117.6836,7576
2700.298,7577
2842.088,7578
3268.1501,7579
3917.505,7580
2486.171,7581
3550.3674,7582
2902.3167,7583
3364.6106,7584
4171.2485,7585
3010.489,7586
3075.0999,7587
3068.431,7588
3482.1812,7589
3152.9368,7590
3894.351,7591
2425.9282,7592
3346.0256,7593
3293.181,7594
3380.9258,7595
4697.1367,7596
1879.6632,7597
2763.075,7598
2585.7407,7599
2463.5662,7600
3357.9968,7601
2909.036,7602
3138.3896,7603
3543.7646,7604
3688.1802,7605
3456.7683,7606
3134.0137,7607
3100.6897,7608
2774.727,7609
2989.2163,7610
3089.4858,7611
3388.1912,7612
2647.284,7613
3353.1934,7614
3339.0789,7615
3853.4429,7616
4414.3574,7617
2693.0295,7618
2769.8616,7619
2460.334,7620
3374.957,7621
3364.3198,7622
3067.0952,7623
2691.1802,7624
3221.5264,7625
2925.8708,7626
3044.034,7627
4297.1646,7628
2530.1655,7629
3359.9583,7630
3446.9692,7631
3311.1223,7632
3795.925,7633
3857.506,7634
2684.4824,7635
3492.5996,7636
3052.2158,7637
3016.3132,7638
4369.8276,7639
2177.0142,7640
2729.1853,7641
2617.315,7642
2944.111,7643
3829.84,7644
2622.4739,7645
3225.7676,7646
3655.598,7647
3701.4053,7648
4116.8296,7649
3791.2695,7650
2666.1482,7651
3156.6777,7652
3033.854,7653
3534.891,7654
4682.654,7655
2138.1765,7656
3357.5537,7657
2741.0657,7658
2976.0479,7659
2909.1277,7660
2574.4963,7661
2724.6536,7662
2862.822,7663
3366.845,7664
3684.286,7665
4257.1123,7666
2747.5115,7667
3790.6294,7668
3374.0034,7669
3742.496,7670
3655.1853,7671
3130.8484,7672
2650.443,7673
3073.8875,7674
2792.7493,7675
3534.124,7676
4574.004,7677
2773.8896,7678
3463.1875,7679
3232.6558,7680
3189.7341,7681
3542.2783,7682
2735.6118,7683
2791.3706,7684
2783.7925,7685
3194.0645,7686
3184.3335,7687
4433.283,7688
2705.9956,7689
3932.0786,7690
3748.375,7691
3599.4128,7692
3346.665,7693
2780.5396,7694
3304.6113,7695
2880.556,7696
3446.9983,7697
3454.7542,7698
4921.7095,7699
3038.6191,7700
3538.5608,7701
3268.1865,7702
3661.2742,7703
3680.968,7704
2792.289,7705
2714.4204,7706
2677.2456,7707
3026.676,7708
2875.843,7709
3782.62,7710
2989.1094,7711
3862.9417,7712
3428.8904,7713
3608.5667,7714
3669.2998,7715
2825.5837,7716
3105.8518,7717
3179.7195,7718
3528.5935,7719
3608.3433,7720
3038.7212,7721
2213.7324,7722
3323.8547,7723
3253.4312,7724
3516.549,7725
4443.627,7726
2331.3958,7727
2284.4062,7728
2115.8787,7729
2582.1736,7730
3625.3848,7731
2821.4075,7732
3539.3179,7733
3270.7183,7734
3537.7495,7735
3676.6875,7736
3666.9072,7737
2695.5527,7738
3156.654,7739
2777.553,7740
3423.261,7741
3799.445,7742
2724.0537,7743
3149.29,7744
3175.4197,7745
3673.0168,7746
3515.0461,7747
3100.388,7748
2280.985,7749
2431.0085,7750
2587.6155,7751
3185.3403,7752
3747.4878,7753
2865.0327,7754
3397.0042,7755
3332.8547,7756
3644.9377,7757
3810.34,7758
2824.879,7759
3297.8943,7760
3360.7302,7761
3441.0808,7762
3620.7742,7763
3617.0574,7764
2670.5251,7765
3116.0776,7766
3418.8013,7767
3491.4153,7768
4527.1396,7769
2396.986,7770
2264.3464,7771
2994.6436,7772
3728.7434,7773
4149.3145,7774
2950.2737,7775
3908.7627,7776
3289.874,7777
3920.2915,7778
3709.3118,7779
5106.032,7780
2475.6907,7781
2865.6914,7782
2652.7375,7783
3250.8953,7784
3904.927,7785
2973.995,7786
3900.5488,7787
4169.8105,7788
4313.609,7789
4158.178,7790
3796.6213,7791
3272.1917,7792
3677.3586,7793
3727.1216,7794
4069.1638,7795
3298.9885,7796
3136.5435,7797
3621.7195,7798
3209.9407,7799
2836.6802,7800
3161.4531,7801
4125.2266,7802
2824.5056,7803
2972.4927,7804
4081.4556,7805
4981.1704,7806
4324.5576,7807
2140.256,7808
2745.851,7809
2247.1497,7810
2399.3472,7811
2763.702,7812
2511.0874,7813
2584.4685,7814
2577.723,7815
2279.625,7816
3023.0435,7817
3494.35,7818
2884.908,7819
3640.7844,7820
3608.159,7821
3556.787,7822
3561.0737,7823
2705.793,7824
3227.2915,7825
3194.373,7826
3296.7625,7827
3438.55,7828
2668.0525,7829
3938.2886,7830
3907.5046,7831
4635.534,7832
4340.249,7833
4787.304,7834
2430.0312,7835
2607.9458,7836
2584.1497,7837
2825.343,7838
3656.3462,7839
2960.0437,7840
3692.2832,7841
3339.977,7842
3476.5303,7843
4381.513,7844
3612.4814,7845
3447.4094,7846
3832.7566,7847
3893.0952,7848
2903.37,7849
2670.1238,7850
2747.3157,7851
2930.075,7852
3083.3086,7853
3492.163,7854
4348.1797,7855
2522.05,7856
2987.669,7857
2218.6213,7858
2496.6655,7859
2962.6643,7860
2997.027,7861
3111.6926,7862
3202.7085,7863
3575.687,7864
3738.378,7865
3072.9792,7866
3228.933,7867
5018.6074,7868
4231.769,7869
4064.416,7870
4443.3926,7871
2699.6091,7872
2675.4448,7873
2857.2507,7874
2896.5198,7875
3213.4922,7876
2383.1084,7877
2603.6284,7878
2188.9539,7879
4305.322,7880
4372.993,7881
2882.9175,7882
2883.4336,7883
3520.7754,7884
3488.374,7885
3498.2275,7886
4403.717,7887
2610.2551,7888
3727.1084,7889
4694.867,7890
4910.6216,7891
3736.188,7892
2711.7664,7893
3374.1216,7894
3492.1333,7895
3295.9106,7896
3192.6768,7897
3375.1326,7898
1844.1294,7899
2524.8367,7900
2048.1196,7901
2055.5747,7902
3341.8708,7903
2434.8667,7904
3413.322,7905
3119.0222,7906
3592.097,7907
3372.4622,7908
2486.5598,7909
2912.7466,7910
2429.743,7911
2798.5146,7912
3033.5,7913
2694.3743,7914
2541.731,7915
2743.1914,7916
2971.667,7917
2741.0098,7918
3976.4958,7919
2602.1619,7920
3405.8042,7921
3336.9983,7922
3434.1438,7923
3429.3403,7924
2719.996,7925
3722.4087,7926
3346.8162,7927
3327.655,7928
3339.969,7929
2639.0996,7930
2748.483,7931
2754.481,7932
3143.9973,7933
3272.8335,7934
3923.1323,7935
2560.772,7936
3128.534,7937
2743.0544,7938
2678.3167,7939
4310.027,7940
2490.812,7941
3220.458,7942
3170.4941,7943
2747.3508,7944
3095.0945,7945
2962.031,7946
3223.1375,7947
3219.0635,7948
2900.7642,7949
3488.3843,7950
3919.5105,7951
2625.428,7952
3146.6985,7953
2799.9805,7954
3014.7524,7955
4700.391,7956
2459.8982,7957
2502.6301,7958
2677.1199,7959
2921.3682,7960
4089.4414,7961
4725.999,7962
4182.3257,7963
4721.1934,7964
5900.6504,7965
5456.3984,7966
4441.3677,7967
2909.444,7968
3581.8318,7969
3911.8867,7970
3471.3132,7971
3596.8257,7972
3303.3757,7973
2529.038,7974
2692.788,7975
2695.7485,7976
2823.825,7977
4214.352,7978
2642.28,7979
2925.0278,7980
2708.6414,7981
2862.132,7982
3037.852,7983
3028.5808,7984
2179.6494,7985
2385.7659,7986
2506.2468,7987
2761.5227,7988
3395.8838,7989
2711.8125,7990
3549.6978,7991
3521.932,7992
3572.1733,7993
3661.1396,7994
2876.1875,7995
3133.7344,7996
2954.5657,7997
3010.678,7998
4021.4583,7999
3220.472,8000
3385.9333,8001
3524.5535,8002
3801.3105,8003
4077.0234,8004
4454.8623,8005
2555.8523,8006
2729.1985,8007
2569.104,8008
2497.6904,8009
2831.5286,8010
2730.805,8011
3403.4824,8012
3609.0903,8013
5655.0063,8014
5064.423,8015
3547.1675,8016
3167.1106,8017
3237.6455,8018
3487.9316,8019
4153.954,8020
4003.8247,8021
3204.97,8022
3579.0642,8023
3786.1853,8024
4066.9102,8025
4007.2283,8026
3216.5347,8027
2900.4963,8028
2943.2002,8029
3461.4448,8030
3694.826,8031
3726.084,8032
2976.412,8033
2911.2288,8034
3184.9346,8035
3450.9307,8036
4082.4011,8037
3598.1309,8038
3605.6816,8039
3058.7656,8040
4093.0972,8041
4498.296,8042
3751.6252,8043
3926.712,8044
4177.7334,8045
3860.9612,8046
3996.0303,8047
3675.0085,8048
3200.6704,8049
3688.307,8050
3502.1135,8051
3360.973,8052
4072.7268,8053
2874.8694,8054
3768.5508,8055
3348.5938,8056
3579.356,8057
3663.6848,8058
3082.7498,8059
3186.8142,8060
3424.9958,8061
3633.0347,8062
3450.3408,8063
3265.2073,8064
2681.7812,8065
3147.9856,8066
3201.1523,8067
3794.807,8068
3874.5186,8069
3003.0518,8070
3104.1746,8071
2887.037,8072
3242.7925,8073
3290.0476,8074
3463.5107,8075
2877.0354,8076
3375.9875,8077
2934.9392,8078
3430.72,8079
3700.3738,8080
2842.0522,8081
2969.4797,8082
3120.8892,8083
3601.6,8084
3847.8557,8085
3468.73,8086
3601.7615,8087
3776.5227,8088
4008.0571,8089
3829.828,8090
3855.3606,8091
3088.7168,8092
3456.0347,8093
3340.2786,8094
3403.6863,8095
3348.6514,8096
2949.4648,8097
3539.9927,8098
3595.173,8099
3518.5857,8100
3305.9536,8101
3670.7175,8102
2562.2737,8103
3157.5571,8104
3225.7239,8105
3358.3828,8106
3433.5242,8107
2794.202,8108
3183.269,8109
3293.4797,8110
3732.3289,8111
3270.8933,8112
4538.7334,8113
2556.283,8114
3111.1328,8115
3124.4548,8116
3390.471,8117
3650.9363,8118
2815.1868,8119
3330.6177,8120
3330.4988,8121
3489.1775,8122
3796.0042,8123
4441.496,8124
2647.5527,8125
3660.7295,8126
3319.5051,8127
3150.653,8128
4093.917,8129
2721.9175,8130
3044.3467,8131
3006.0183,8132
2787.6042,8133
3340.9043,8134
3461.8342,8135
2786.751,8136
3118.5056,8137
2656.8977,8138
3191.4565,8139
3526.2139,8140
2698.3857,8141
3548.2112,8142
3482.7737,8143
3306.2297,8144
4098.819,8145
3732.7566,8146
4143.3145,8147
4729.4106,8148
5329.796,8149
3114.5981,8150
3195.108,8151
2528.3567,8152
3053.7156,8153
3165.2705,8154
3571.3044,8155
3434.306,8156
2839.8425,8157
2500.1106,8158
2317.3142,8159
2784.6123,8160
3451.3235,8161
3338.838,8162
3596.7874,8163
3926.9875,8164
3820.514,8165
3814.1438,8166
4213.369,8167
2856.3188,8168
3411.3982,8169
2928.5847,8170
3501.8623,8171
3176.8142,8172
2980.1267,8173
2619.6309,8174
3047.412,8175
3447.3167,8176
3649.9148,8177
3329.6409,8178
2301.6143,8179
2979.5713,8180
2837.4753,8181
2855.0186,8182
3213.6667,8183
2943.267,8184
3575.929,8185
3128.637,8186
3347.9092,8187
3527.0793,8188
3192.8855,8189
2547.2473,8190
3461.0083,8191
2620.1362,8192
2990.147,8193
4871.341,8194
2180.6133,8195
3360.985,8196
2622.3518,8197
2736.0852,8198
3490.1006,8199
2548.2148,8200
2362.9456,8201
2251.8372,8202
3009.7314,8203
3272.5369,8204
4318.552,8205
3985.5234,8206
5134.865,8207
5332.7925,8208
4778.0723,8209
4099.973,8210
2665.9397,8211
2968.6272,8212
3221.9573,8213
3326.7573,8214
3556.9094,8215
3067.334,8216
2868.7683,8217
3138.1155,8218
3514.237,8219
3248.344,8220
4311.888,8221
2560.875,8222
3034.3455,8223
3167.3416,8224
3715.9077,8225
3459.8286,8226
2934.5552,8227
3733.719,8228
3042.9026,8229
3452.4832,8230
3531.3545,8231
3059.113,8232
2705.7124,8233
2835.563,8234
2291.19,8235
2746.948,8236
3584.11,8237
2458.9436,8238
2804.1404,8239
2812.533,8240
2917.8096,8241
3312.5854,8242
2652.9827,8243
2033.1388,8244
3214.304,8245
3105.4646,8246
3485.7327,8247
3666.3672,8248
3423.681,8249
4532.867,8250
4533.6523,8251
4777.27,8252
4142.0415,8253
2456.187,8254
3101.9287,8255
3205.7327,8256
3198.2812,8257
4028.6863,8258
2599.1616,8259
3106.1392,8260
2966.1902,8261
3301.2378,8262
3923.9778,8263
3018.4685,8264
2638.2983,8265
2715.4521,8266
3240.7905,8267
3479.7769,8268
3348.9417,8269
3360.5542,8270
3835.8472,8271
3630.566,8272
3457.234,8273
4000.9434,8274
2597.1116,8275
3264.7107,8276
2525.128,8277
3220.919,8278
3670.3499,8279
3017.6292,8280
3339.7725,8281
2939.133,8282
3196.531,8283
3346.7888,8284
2926.233,8285
2526.1394,8286
2695.0422,8287
3334.4133,8288
3424.3303,8289
3964.496,8290
2968.8691,8291
3598.5667,8292
3341.319,8293
3588.8083,8294
3364.246,8295
2541.7002,8296
2958.4985,8297
2806.2756,8298
4445.0386,8299
5245.2075,8300
3568.683,8301
2737.9434,8302
3079.726,8303
3137.8508,8304
3237.3203,8305
3360.402,8306
2444.4363,8307
2830.0012,8308
2657.0127,8309
3062.6296,8310
3159.7756,8311
3139.3616,8312
3288.5366,8313
3608.9836,8314
4472.8984,8315
4864.36,8316
4958.6597,8317
2891.9792,8318
2912.27,8319
2587.3887,8320
2782.7034,8321
2982.6372,8322
2773.5854,8323
1810.1935,8324
2184.6128,8325
2478.8962,8326
2618.8213,8327
4187.3755,8328
2285.6062,8329
2720.4783,8330
2865.8357,8331
3000.296,8332
3123.5295,8333
3011.9595,8334
3704.6711,8335
4514.62,8336
5023.0566,8337
4506.794,8338
2716.7537,8339
2744.08,8340
2805.653,8341
3285.82,8342
3539.29,8343
4213.92,8344
2670.8962,8345
3153.1506,8346
3313.38,8347
3635.813,8348
3474.1897,8349
2703.9082,8350
2337.7395,8351
2587.5378,8352
3266.5159,8353
2924.1528,8354
2895.2263,8355
3377.975,8356
3594.96,8357
3544.611,8358
4044.2942,8359
4157.6367,8360
2917.2625,8361
3327.1636,8362
3196.702,8363
2914.1238,8364
3375.614,8365
3010.0398,8366
3182.5193,8367
3790.906,8368
3649.9026,8369
3703.0156,8370
3156.5225,8371
2609.1606,8372
2799.1785,8373
3358.8127,8374
3161.622,8375
3442.658,8376
2739.728,8377
2762.1335,8378
2989.233,8379
3253.9504,8380
3955.6562,8381
2591.7644,8382
2925.452,8383
3335.4207,8384
4011.639,8385
3992.5308,8386
3492.6416,8387
3783.8064,8388
3788.3806,8389
3449.8772,8390
3528.6267,8391
3254.0298,8392
3161.269,8393
3518.1543,8394
3400.63,8395
3520.754,8396
3383.5273,8397
3092.291,8398
3552.0498,8399
3730.3975,8400
3353.7876,8401
3895.4668,8402
3003.0234,8403
2859.44,8404
3254.9565,8405
3341.016,8406
3156.201,8407
3933.5037,8408
2738.8022,8409
3558.5303,8410
3483.615,8411
3617.5542,8412
3490.176,8413
2782.103,8414
2645.6428,8415
3335.1152,8416
3176.139,8417
3295.1565,8418
3478.2527,8419
2560.0022,8420
3099.5618,8421
2925.639,8422
3435.692,8423
3325.015,8424
2535.831,8425
2811.161,8426
2779.3066,8427
2883.4583,8428
4342.4497,8429
3571.7393,8430
3959.048,8431
3822.1123,8432
4017.747,8433
4008.2644,8434
3685.9583,8435
3305.364,8436
3464.2783,8437
3366.5273,8438
3347.0479,8439
4261.4624,8440
2960.7017,8441
3921.9517,8442
3742.886,8443
3761.0085,8444
3538.9011,8445
3009.353,8446
2989.849,8447
3118.002,8448
3366.4673,8449
3320.752,8450
3482.829,8451
2749.8262,8452
3134.2212,8453
2900.9858,8454
3330.8816,8455
3569.7634,8456
3745.1294,8457
2403.2822,8458
3012.446,8459
3070.933,8460
3285.872,8461
3637.03,8462
3082.4087,8463
4103.9473,8464
3726.3477,8465
4016.1716,8466
3719.6257,8467
3625.7214,8468
2904.808,8469
3051.0059,8470
3342.7676,8471
3709.631,8472
3144.8616,8473
2613.5308,8474
3276.1187,8475
3626.603,8476
4095.4172,8477
4089.968,8478
4035.5269,8479
3138.069,8480
3952.9963,8481
3640.7192,8482
3646.0845,8483
4184.9834,8484
3351.3926,8485
3959.7932,8486
3884.6628,8487
4059.5366,8488
3987.1934,8489
4572.5493,8490
2998.6787,8491
3329.7998,8492
3224.8904,8493
3417.6606,8494
4314.7837,8495
2981.1824,8496
3862.4146,8497
3673.461,8498
4037.8806,8499
3218.6821,8500
3260.9294,8501
3213.9348,8502
4111.2656,8503
2673.307,8504
3009.91,8505
3459.3877,8506
3004.6965,8507
3551.2803,8508
3463.3398,8509
4182.1143,8510
2872.142,8511
3526.211,8512
4423.444,8513
3155.3687,8514
3790.2659,8515
3052.734,8516
3518.3079,8517
3289.2227,8518
3283.743,8519
3336.7856,8520
2984.1155,8521
3343.8347,8522
3547.2942,8523
3781.262,8524
3374.4956,8525
2767.2776,8526
3359.0002,8527
3256.0264,8528
4027.0774,8529
3034.17,8530
2932.9558,8531
3556.8284,8532
4016.848,8533
4101.089,8534
3482.0032,8535
3055.872,8536
4053.9626,8537
3628.1597,8538
4547.559,8539
3593.163,8540
3467.2368,8541
3244.596,8542
3426.665,8543
3172.5496,8544
3436.7017,8545
4123.074,8546
3675.1194,8547
3447.77,8548
3906.9968,8549
4148.1797,8550
4530.0503,8551
4576.2056,8552
4265.014,8553
5443.9956,8554
5606.963,8555
4586.235,8556
4327.111,8557
5491.3755,8558
3040.081,8559
3294.6375,8560
3711.1765,8561
4337.4478,8562
3836.7393,8563
3455.3582,8564
3450.7913,8565
3337.656,8566
3426.4749,8567
3563.8298,8568
3821.0974,8569
2846.2222,8570
3403.637,8571
3754.4854,8572
3727.3044,8573
3802.6816,8574
3149.1897,8575
3099.3564,8576
3399.7046,8577
3671.116,8578
3781.1191,8579
3849.2637,8580
2745.4219,8581
3189.7227,8582
2925.4336,8583
3478.644,8584
3497.438,8585
2804.3237,8586
2384.737,8587
2518.8894,8588
2767.2886,8589
3238.7883,8590
3126.5457,8591
3084.1355,8592
3148.831,8593
3034.4734,8594
3184.285,8595
3509.0095,8596
2952.1794,8597
2631.6384,8598
2662.659,8599
2423.1973,8600
4022.7131,8601
2191.034,8602
2964.74,8603
2788.0996,8604
2820.958,8605
2867.7979,8606
2351.917,8607
2854.1206,8608
2268.9363,8609
2632.686,8610
2799.2825,8611
2749.575,8612
3430.5107,8613
3201.7383,8614
3418.0532,8615
3501.0725,8616
4312.207,8617
2485.112,8618
2738.5156,8619
2725.515,8620
2912.549,8621
3924.2935,8622
2737.5774,8623
3171.6655,8624
2814.6404,8625
3041.6152,8626
3375.7905,8627
2849.5525,8628
2219.8552,8629
2820.6572,8630
2776.7668,8631
2943.4094,8632
3323.211,8633
3246.77,8634
3037.3865,8635
3177.0503,8636
3681.4211,8637
3683.3655,8638
2741.1855,8639
3171.4734,8640
2594.5437,8641
3752.8806,8642
3912.1763,8643
2524.7173,8644
3196.1208,8645
3689.8347,8646
3953.0103,8647
3852.7913,8648
4225.0205,8649
2791.6514,8650
3714.9768,8651
3664.6377,8652
3360.4507,8653
3770.4685,8654
2769.247,8655
3692.8467,8656
3097.8494,8657
3611.051,8658
3444.0056,8659
2954.8538,8660
2799.7761,8661
3349.694,8662
3561.4456,8663
3867.3816,8664
3623.8765,8665
2899.514,8666
3746.5913,8667
3319.4873,8668
3660.4062,8669
3464.9246,8670
2499.9404,8671
2414.2913,8672
2592.3206,8673
2821.8655,8674
3011.452,8675
2902.7068,8676
3134.896,8677
2945.8975,8678
3499.0603,8679
3577.1177,8680
4209.017,8681
2571.6152,8682
3043.8064,8683
2963.066,8684
3335.5378,8685
4481.765,8686
2618.4934,8687
3238.698,8688
2744.4553,8689
3075.213,8690
3396.9084,8691
4119.324,8692
2186.4473,8693
2921.3914,8694
2843.9922,8695
3281.7947,8696
3320.2466,8697
2553.8552,8698
3501.419,8699
3066.6157,8700
3149.4333,8701
3282.1804,8702
2500.8464,8703
3250.0,8704
2398.386,8705
2969.2336,8706
2852.9456,8707
2712.8184,8708
2841.2634,8709
3137.3765,8710
3515.5269,8711
3082.3003,8712
4754.2715,8713
2536.074,8714
2951.7012,8715
2040.2528,8716
2978.9968,8717
3490.8286,8718
2887.2893,8719
3181.2966,8720
3604.5613,8721
3730.2654,8722
3624.7969,8723
3870.3682,8724
2536.303,8725
2714.338,8726
3259.655,8727
3197.0698,8728
4373.8716,8729
3275.0215,8730
3489.606,8731
3286.7668,8732
3631.366,8733
3304.1,8734
3633.3757,8735
2409.2048,8736
4173.023,8737
5273.659,8738
5550.367,8739
4179.5566,8740
4457.7285,8741
5186.1377,8742
5337.2188,8743
3564.8315,8744
3504.8264,8745
2815.9834,8746
3424.9648,8747
3125.9285,8748
3779.2944,8749
3650.474,8750
3752.2847,8751
2611.1309,8752
3161.7065,8753
3119.8093,8754
3487.8113,8755
3417.5444,8756
2849.5415,8757
2737.525,8758
2758.1582,8759
3508.4607,8760
2875.0767,8761
2943.8164,8762
2940.406,8763
3277.637,8764
3258.894,8765
3213.3904,8766
3469.408,8767
2631.8232,8768
2775.0276,8769
2846.6338,8770
3323.4875,8771
3669.9045,8772
2856.9949,8773
2656.3972,8774
3007.6838,8775
3096.6228,8776
3233.8943,8777
3978.959,8778
2648.1433,8779
2835.3564,8780
2710.7744,8781
2847.0308,8782
3897.1497,8783
2798.392,8784
3569.6436,8785
3149.0474,8786
3436.8113,8787
3447.436,8788
3765.16,8789
2777.357,8790
3034.4531,8791
2979.7559,8792
2982.4316,8793
3639.3342,8794
2463.5947,8795
3086.9854,8796
3162.338,8797
3117.386,8798
3577.992,8799
2737.3723,8800
2219.5881,8801
3100.2598,8802
2556.568,8803
2663.9983,8804
3338.3367,8805
3419.1929,8806
3590.7407,8807
3472.509,8808
3624.1616,8809
3868.329,8810
2781.4097,8811
3053.147,8812
3043.9631,8813
3722.6252,8814
3811.6384,8815
3309.261,8816
3198.3254,8817
3732.0645,8818
4034.2246,8819
4104.0205,8820
4434.2876,8821
2998.2532,8822
3125.7217,8823
3092.5176,8824
2968.6194,8825
3352.8408,8826
3487.9663,8827
3347.2808,8828
3451.5347,8829
3513.352,8830
3178.1553,8831
3754.1814,8832
3138.0718,8833
3884.8289,8834
3798.8572,8835
4283.0083,8836
3902.1665,8837
2920.6133,8838
3597.6975,8839
3370.8706,8840
3516.5498,8841
3298.1272,8842
2830.1292,8843
2687.3105,8844
2969.3596,8845
3040.8245,8846
3030.9644,8847
3131.4724,8848
3227.7312,8849
3198.754,8850
3176.549,8851
2995.5464,8852
3476.8555,8853
2440.907,8854
2994.879,8855
2306.9905,8856
2751.4949,8857
3529.76,8858
2557.3035,8859
2849.8665,8860
2423.0474,8861
2790.0383,8862
3119.8872,8863
4537.378,8864
2173.7278,8865
3035.2007,8866
2757.5444,8867
3322.3555,8868
3726.8794,8869
3271.0273,8870
3784.575,8871
3774.498,8872
3787.8315,8873
3437.7927,8874
3915.497,8875
2587.9507,8876
2873.8674,8877
2814.03,8878
3504.696,8879
3562.3057,8880
2591.2864,8881
3044.6294,8882
3153.3489,8883
3624.4658,8884
3028.859,8885
4277.2393,8886
2037.3641,8887
2614.6067,8888
3671.154,8889
3592.1326,8890
2938.2622,8891
3349.929,8892
3454.9324,8893
3842.3184,8894
4874.464,8895
4604.2246,8896
3707.7175,8897
4342.9414,8898
4337.8657,8899
4940.0674,8900
5317.295,8901
3481.3794,8902
3405.8584,8903
3631.038,8904
4294.9194,8905
4066.802,8906
3848.977,8907
2888.1318,8908
2866.404,8909
3205.407,8910
3619.2832,8911
3959.7397,8912
3308.2131,8913
3681.2751,8914
3752.5156,8915
3443.4473,8916
3365.9417,8917
4132.899,8918
2954.9878,8919
4027.198,8920
3809.82,8921
3696.627,8922
4207.421,8923
2648.2224,8924
3198.9915,8925
3023.6382,8926
3545.1892,8927
3464.7397,8928
3748.82,8929
2681.396,8930
2774.9788,8931
3271.4512,8932
3292.5977,8933
3467.0347,8934
2991.7893,8935
3487.6936,8936
3068.7385,8937
3105.636,8938
3617.9634,8939
2871.0515,8940
2562.1628,8941
2505.3723,8942
2594.7905,8943
3035.5376,8944
3028.9421,8945
2609.1296,8946
2917.393,8947
3299.1226,8948
3219.2617,8949
4460.6235,8950
2396.4016,8951
2934.8833,8952
2686.1084,8953
2854.6924,8954
3048.3772,8955
3241.8938,8956
3211.809,8957
3450.5906,8958
3849.1184,8959
3552.3477,8960
3664.4375,8961
2180.8428,8962
2912.4377,8963
2813.8735,8964
3295.3748,8965
4274.2085,8966
2409.869,8967
3451.0872,8968
3092.56,8969
3535.9946,8970
3586.1765,8971
2601.1836,8972
2110.4993,8973
2325.6643,8974
2670.5244,8975
2877.4626,8976
3457.24,8977
2734.474,8978
3351.948,8979
3474.8325,8980
3605.658,8981
3413.4348,8982
2612.8486,8983
2843.4038,8984
2997.8857,8985
3415.154,8986
3531.777,8987
2915.6453,8988
2718.7937,8989
3123.1145,8990
3149.5977,8991
3294.0647,8992
4099.3027,8993
2224.5833,8994
2794.004,8995
2778.9507,8996
2833.4114,8997
3552.0684,8998
3021.4766,8999
3150.9214,9000
2941.8352,9001
3550.7917,9002
2997.5786,9003
2807.1462,9004
3127.6445,9005
3293.306,9006
3566.2996,9007
3279.449,9008
3702.7822,9009
2876.477,9010
2700.8994,9011
3062.3733,9012
3460.3599,9013
4384.9795,9014
1756.4116,9015
2630.5642,9016
2281.0938,9017
3075.0796,9018
3390.1633,9019
3141.8037,9020
3465.109,9021
3461.5857,9022
3572.003,9023
3223.5786,9024
3196.3416,9025
2468.5046,9026
4536.875,9027
3647.6665,9028
3198.7173,9029
4140.6177,9030
2253.229,9031
3091.3315,9032
2599.087,9033
2859.9905,9034
3114.2737,9035
2563.5725,9036
2383.232,9037
2419.0232,9038
2829.5234,9039
3497.5605,9040
3786.1594,9041
2599.9077,9042
3290.5273,9043
3517.3418,9044
3127.4275,9045
3728.948,9046
2593.5828,9047
3077.1584,9048
3048.2246,9049
2933.584,9050
3512.8633,9051
2959.8088,9052
2758.5925,9053
2936.861,9054
3325.4546,9055
3459.3767,9056
4432.5522,9057
2247.947,9058
3568.8523,9059
2710.1975,9060
3212.457,9061
3353.0095,9062
3549.1296,9063
3804.1377,9064
3482.9644,9065
3908.7336,9066
3732.5383,9067
3370.4614,9068
2231.1619,9069
3261.687,9070
3598.2124,9071
4725.509,9072
4041.439,9073
2772.6663,9074
3960.1956,9075
3698.9531,9076
3635.857,9077
3839.7336,9078
3474.2903,9079
3378.8982,9080
3265.3765,9081
3129.3232,9082
3226.681,9083
4025.855,9084
3116.2878,9085
3520.8381,9086
3816.985,9087
3630.2703,9088
3727.8142,9089
2763.2903,9090
2670.2905,9091
3399.0728,9092
3651.204,9093
4030.3381,9094
3474.6328,9095
2752.34,9096
3276.7324,9097
3562.5327,9098
3505.7869,9099
3511.894,9100
2399.1975,9101
2701.7197,9102
2913.8733,9103
2472.447,9104
3514.0947,9105
3201.928,9106
3472.125,9107
3838.6553,9108
4052.2615,9109
4041.4167,9110
3153.7063,9111
3301.645,9112
3947.5483,9113
3936.3933,9114
3887.3972,9115
4444.831,9116
2841.2576,9117
3540.256,9118
2989.763,9119
3422.1506,9120
3846.3586,9121
2528.8032,9122
3499.3665,9123
2960.2544,9124
3201.274,9125
3449.6194,9126
3040.0698,9127
3047.807,9128
3644.8462,9129
3288.2466,9130
3508.3538,9131
3831.7834,9132
2774.2075,9133
2734.8555,9134
2768.858,9135
2555.4707,9136
3448.0867,9137
2500.68,9138
3200.881,9139
2464.7676,9140
3280.5989,9141
3264.987,9142
3566.435,9143
2213.8484,9144
2498.4995,9145
2328.1409,9146
2957.0374,9147
3611.213,9148
3035.6157,9149
3448.0535,9150
3649.9202,9151
3632.009,9152
3398.011,9153
2381.7908,9154
2401.7986,9155
2453.6978,9156
2682.1077,9157
4323.476,9158
3034.437,9159
3011.1323,9160
3756.8455,9161
4029.2524,9162
3815.1812,9163
4290.703,9164
3127.5513,9165
3410.5254,9166
3284.2332,9167
3464.4692,9168
3942.0251,9169
3018.0637,9170
3515.2043,9171
3196.8794,9172
3577.0808,9173
3174.129,9174
3326.203,9175
2709.4749,9176
3260.856,9177
3568.6863,9178
3647.9585,9179
3830.7449,9180
3147.7761,9181
3729.525,9182
3360.9395,9183
3580.5173,9184
3198.7969,9185
2464.5142,9186
2661.713,9187
2610.6162,9188
2846.915,9189
2806.137,9190
3196.1853,9191
3438.515,9192
4012.7827,9193
3927.1125,9194
4220.8174,9195
4276.518,9196
3043.7188,9197
3042.2136,9198
3187.538,9199
3284.8828,9200
4109.4165,9201
2916.6694,9202
3144.2712,9203
2588.7112,9204
2985.7258,9205
3672.2979,9206
2748.557,9207
2861.8447,9208
3491.8523,9209
3682.3823,9210
3379.499,9211
3713.0496,9212
3116.7075,9213
3420.5854,9214
3499.7222,9215
3440.9495,9216
4275.461,9217
2329.37,9218
3039.5674,9219
2784.7502,9220
3549.2898,9221
3177.563,9222
3335.8716,9223
2586.2227,9224
3133.591,9225
3508.7935,9226
3449.432,9227
4549.6685,9228
2053.2026,9229
2807.3796,9230
2486.698,9231
2565.2676,9232
2885.239,9233
2759.881,9234
3104.6177,9235
3023.2432,9236
3078.3916,9237
3418.1917,9238
3652.8381,9239
2448.9375,9240
2887.8918,9241
2699.5085,9242
3191.0498,9243
4102.364,9244
3380.424,9245
3851.303,9246
3704.8735,9247
3570.5366,9248
3373.5017,9249
2931.182,9250
2993.8127,9251
2475.089,9252
4369.8965,9253
4946.5264,9254
4157.4985,9255
4083.2332,9256
4690.8457,9257
4450.626,9258
5212.8794,9259
4527.176,9260
2906.8118,9261
3429.915,9262
3311.4966,9263
3507.1873,9264
3674.3027,9265
2940.9075,9266
3217.4358,9267
3361.2805,9268
3288.5806,9269
3380.0623,9270
3988.455,9271
2442.1702,9272
2777.8254,9273
2683.9414,9274
3490.7415,9275
3522.1897,9276
2643.3987,9277
3522.5127,9278
3358.448,9279
3005.522,9280
3089.6206,9281
2838.859,9282
3062.4915,9283
3035.8518,9284
3043.4587,9285
3826.7817,9286
4084.9536,9287
2494.6177,9288
2956.399,9289
2886.2927,9290
3398.9482,9291
3292.8464,9292
2761.0327,9293
2176.4353,9294
2754.189,9295
3177.0312,9296
3329.196,9297
3453.007,9298
2552.696,9299
3814.4937,9300
3390.3743,9301
3688.388,9302
3990.7664,9303
2710.8237,9304
2948.982,9305
2974.8113,9306
3245.3403,9307
2956.06,9308
3096.0222,9309
2299.2063,9310
3260.7434,9311
3065.0134,9312
3566.3616,9313
3657.7927,9314
2434.9072,9315
2907.1948,9316
2799.913,9317
3217.1804,9318
3149.2947,9319
2931.2424,9320
3762.811,9321
3693.944,9322
3366.3848,9323
3779.04,9324
4209.6177,9325
2878.6323,9326
3317.9106,9327
3396.1223,9328
3064.463,9329
4031.7275,9330
3180.7039,9331
3937.7722,9332
4125.639,9333
4029.428,9334
4146.833,9335
3998.8892,9336
2715.4226,9337
3225.5906,9338
3097.5894,9339
3506.828,9340
3700.7664,9341
2909.8916,9342
3774.6145,9343
3578.7231,9344
3227.472,9345
3388.1328,9346
3137.047,9347
2701.5273,9348
3619.38,9349
4434.326,9350
4052.216,9351
3780.5627,9352
2689.9082,9353
3449.011,9354
3095.3694,9355
3546.618,9356
3202.9216,9357
2864.6682,9358
2691.3997,9359
2710.2869,9360
2879.5713,9361
3207.8787,9362
3554.3914,9363
3422.3323,9364
3939.98,9365
4180.5127,9366
4357.853,9367
4696.596,9368
2834.4644,9369
3365.8557,9370
3273.0327,9371
3532.6448,9372
3987.939,9373
2731.5544,9374
2680.0156,9375
3364.775,9376
3692.7996,9377
4140.832,9378
3937.9778,9379
2620.0283,9380
3199.1775,9381
3398.434,9382
3777.3953,9383
4191.93,9384
2770.0354,9385
3617.247,9386
3016.8262,9387
3325.7793,9388
3153.341,9389
2797.7498,9390
2706.2417,9391
3429.7324,9392
2956.3574,9393
3132.8818,9394
4039.8948,9395
2378.205,9396
3517.0288,9397
3306.1335,9398
3287.9753,9399
3904.999,9400
2367.3672,9401
2784.3127,9402
2508.929,9403
3198.6008,9404
3508.342,9405
3133.0747,9406
2948.0503,9407
3331.798,9408
4222.819,9409
4216.126,9410
4309.86,9411
4270.6743,9412
5070.883,9413
4956.488,9414
5457.7495,9415
5154.01,9416
2768.3367,9417
3447.916,9418
3635.1592,9419
4270.8594,9420
3981.485,9421
3714.4536,9422
3021.9807,9423
3003.0432,9424
3743.6865,9425
3744.1743,9426
3775.751,9427
3272.1433,9428
3673.739,9429
3307.117,9430
3713.1462,9431
3653.5933,9432
3062.2195,9433
3170.2178,9434
3422.1565,9435
3681.012,9436
3826.721,9437
3701.0132,9438
2953.878,9439
3366.1182,9440
3424.6228,9441
3605.611,9442
3528.3271,9443
2472.7822,9444
2486.71,9445
2342.4304,9446
2496.395,9447
3666.396,9448
3199.1316,9449
3465.0173,9450
4387.4727,9451
4198.0874,9452
4506.833,9453
3476.9668,9454
3413.2637,9455
3839.402,9456
4013.9834,9457
3800.0764,9458
4198.079,9459
3131.3237,9460
3782.768,9461
3557.9653,9462
3094.1282,9463
4266.631,9464
2873.5146,9465
2910.1438,9466
3308.642,9467
3156.8699,9468
3313.2366,9469
3223.3193,9470
3363.6956,9471
3665.6458,9472
3377.0342,9473
3810.0195,9474
4190.079,9475
2806.5588,9476
2745.035,9477
2935.3745,9478
2635.4585,9479
3807.6606,9480
2783.6106,9481
3384.1873,9482
3140.275,9483
3462.3684,9484
3555.7405,9485
2976.6777,9486
2044.4586,9487
2289.5017,9488
2407.0342,9489
2767.883,9490
3820.8325,9491
2954.852,9492
3229.854,9493
3596.543,9494
3329.8933,9495
3373.2961,9496
2814.4624,9497
2241.684,9498
2956.486,9499
2936.964,9500
3351.5623,9501
3257.2874,9502
2745.962,9503
2932.139,9504
2765.471,9505
2806.1025,9506
2698.1433,9507
2274.3167,9508
1914.7605,9509
2250.6538,9510
2862.628,9511
2991.4434,9512
2721.8547,9513
2994.8374,9514
2655.1108,9515
3441.6501,9516
3247.7188,9517
3877.0537,9518
2567.5847,9519
3193.3333,9520
2889.6572,9521
3402.7383,9522
3546.971,9523
2565.3376,9524
2739.2578,9525
3000.701,9526
4283.7676,9527
4403.9487,9528
4397.2173,9529
2341.4219,9530
3069.326,9531
3848.2505,9532
3360.9224,9533
3710.7944,9534
2858.4778,9535
3336.7498,9536
3592.4272,9537
3035.598,9538
3444.761,9539
3236.5918,9540
2667.9456,9541
4085.2556,9542
4812.1523,9543
4125.4463,9544
3648.232,9545
2942.6497,9546
3375.1907,9547
3037.501,9548
2904.071,9549
2808.1387,9550
2693.3938,9551
1921.3596,9552
2709.0715,9553
2336.5942,9554
3310.4622,9555
2879.674,9556
3217.525,9557
3658.387,9558
3130.1577,9559
3233.1245,9560
3762.6333,9561
2518.9868,9562
3071.6284,9563
3372.4126,9564
3390.35,9565
4187.8823,9566
2941.1462,9567
3809.6885,9568
3354.1968,9569
3157.1501,9570
3331.3418,9571
3790.8628,9572
2482.7634,9573
3101.123,9574
3113.2085,9575
2760.4858,9576
3218.6367,9577
3057.101,9578
3477.8062,9579
3591.1028,9580
3658.8047,9581
2723.6772,9582
3273.1333,9583
3434.3887,9584
4028.4836,9585
2976.264,9586
3353.4583,9587
4415.386,9588
3397.1567,9589
2808.0015,9590
2548.903,9591
2545.3481,9592
2804.1028,9593
2588.7188,9594
2731.297,9595
2807.8328,9596
2678.3625,9597
4565.02,9598
2754.2358,9599
3355.914,9600
2667.378,9601
3134.8557,9602
2878.2507,9603
2925.6243,9604
3860.8208,9605
2781.6775,9606
2114.207,9607
3095.161,9608
3043.405,9609
3205.622,9610
2606.344,9611
3307.7354,9612
3694.4016,9613
4821.443,9614
4415.7236,9615
4399.967,9616
4741.7026,9617
4690.612,9618
3923.3137,9619
4274.6196,9620
3941.2983,9621
3244.0605,9622
4043.9016,9623
3085.38,9624
3787.5232,9625
3328.1855,9626
3015.2593,9627
3397.7024,9628
2581.2515,9629
3119.606,9630
3545.7651,9631
3800.6555,9632
3441.0605,9633
3122.413,9634
2864.026,9635
3344.6658,9636
3156.1292,9637
3533.0603,9638
3293.0312,9639
3559.286,9640
3459.124,9641
3016.89,9642
2632.5652,9643
2678.3323,9644
2855.1377,9645
3570.0889,9646
2542.7305,9647
3150.215,9648
2818.4543,9649
3530.4575,9650
2140.2307,9651
2485.0156,9652
2239.2478,9653
2497.2253,9654
2683.336,9655
2155.547,9656
2820.0637,9657
2834.0256,9658
2327.4265,9659
2164.5227,9660
2871.5767,9661
2653.2212,9662
2539.4084,9663
2246.494,9664
2779.7383,9665
1826.5424,9666
1734.2488,9667
2019.5972,9668
2139.662,9669
1663.6667,9670
2981.5193,9671
1789.8105,9672
2013.4103,9673
2159.1707,9674
2085.0718,9675
2537.476,9676
1820.0227,9677
1794.4777,9678
2169.1333,9679
1745.1323,9680
1688.9474,9681
1897.4214,9682
1405.2001,9683
1402.7847,9684
1318.0997,9685
1914.723,9686
2057.6746,9687
2205.0596,9688
1639.4165,9689
1715.7974,9690
2266.192,9691
1588.7892,9692
1753.4365,9693
1490.8037,9694
2393.949,9695
2056.6067,9696
1461.9575,9697
1311.9926,9698
1279.3734,9699
2321.3623,9700
1355.3508,9701
1456.7115,9702
1834.5686,9703
1386.2577,9704
1243.6412,9705
2690.7573,9706
1941.446,9707
2332.5342,9708
2191.479,9709
2034.3269,9710
4958.903,9711
4963.8447,9712
5106.9087,9713
5136.566,9714
5283.951,9715
5254.1714,9716
5436.2466,9717
5224.2065,9718
5395.264,9719
5310.6074,9720
5383.7495,9721
5243.874,9722
4864.2915,9723
4980.701,9724
5253.2134,9725
5522.611,9726
5220.0103,9727
5497.813,9728
-1.0,9729
-1.0,9730
-1.0,9731
-1.0,9732
-1.0,9733
-1.0,9734
-1.0,9735
-1.0,9736
-1.0,9737
-1.0,9738
-1.0,9739
-1.0,9740
-1.0,9741
-1.0,9742
-1.0,9743
-1.0,9744
-1.0,9745
-1.0,9746
-1.0,9747
-1.0,9748
-1.0,9749
-1.0,9750
-1.0,9751
-1.0,9752
-1.0,9753
-1.0,9754
-1.0,9755
-1.0,9756
-1.0,9757
-1.0,9758
-1.0,9759
-1.0,9760
-1.0,9761
-1.0,9762
-1.0,9763
-1.0,9764
-1.0,9765
-1.0,9766
-1.0,9767
-1.0,9768
-1.0,9769
-1.0,9770
