@RELATION 'Music feature'
%rows=1
%columns=9770
%sample_rate=22050
%window_size=512
%step_size=512

@ATTRIBUTE 'Angles in phase domain' NUMERIC
@ATTRIBUTE WindowNumber NUMERIC

@DATA
0.0,1
0.0,2
0.0,3
0.0,4
0.101839446,5
0.32529885,6
0.2870021,7
0.32782733,8
0.25431985,9
0.2684858,10
0.5585509,11
1.8019983,12
1.6519499,13
1.4067092,14
1.3969911,15
1.4685237,16
1.4940488,17
1.3560485,18
1.4833112,19
1.5122224,20
1.4936585,21
1.6011556,22
1.7478539,23
1.7584383,24
1.7186043,25
1.7139804,26
1.7730973,27
1.8278692,28
1.7079196,29
1.8799263,30
1.8387139,31
1.8375298,32
1.8787987,33
1.8255049,34
1.8190455,35
1.9559358,36
2.009835,37
1.8620434,38
1.7872269,39
1.8268179,40
1.864757,41
1.9350996,42
1.8151568,43
1.794159,44
1.7381637,45
1.7563561,46
1.8084865,47
1.7799633,48
1.8393075,49
1.7708985,50
1.8180759,51
1.8804239,52
1.9059724,53
1.7376387,54
1.768417,55
1.845629,56
1.832232,57
1.9751971,58
2.0329049,59
1.8726745,60
1.8440117,61
1.7111592,62
1.7675059,63
1.828702,64
1.8545718,65
1.7972614,66
1.8044604,67
1.8693383,68
1.948736,69
1.888404,70
1.8486923,71
1.807909,72
1.9124942,73
2.153953,74
2.3338523,75
2.14071,76
1.7686814,77
1.7893255,78
1.7610501,79
1.7779013,80
1.828771,81
1.8277628,82
1.795708,83
1.8517171,84
1.9578041,85
2.0064876,86
1.7827953,87
1.8430504,88
1.5566008,89
1.2351005,90
1.5773255,91
1.6859516,92
1.6585754,93
1.7104665,94
1.6776744,95
1.5888593,96
1.5351508,97
1.6839677,98
1.6317806,99
1.4997122,100
1.3460212,101
1.5138301,102
1.4819273,103
1.5267315,104
1.5553281,105
1.5433713,106
1.6075903,107
1.5774205,108
1.7324057,109
1.7920662,110
1.7053844,111
1.7328373,112
1.7555009,113
1.7313199,114
1.8031646,115
1.7251958,116
1.809712,117
1.7941953,118
1.7701347,119
1.8347837,120
1.803783,121
1.8441552,122
1.9506358,123
1.8667374,124
1.7985215,125
1.8355085,126
1.8288339,127
1.9310666,128
1.9274011,129
1.7659432,130
1.7806576,131
1.7961788,132
1.8274484,133
1.8766018,134
1.7745174,135
1.8146757,136
1.8221794,137
1.8011802,138
1.94694,139
2.4086218,140
2.0397704,141
1.8793849,142
1.7794809,143
1.8067995,144
1.9416165,145
2.2787945,146
1.8355732,147
1.8071636,148
1.7977406,149
1.8790911,150
1.7958399,151
1.7965082,152
1.87344,153
1.866381,154
1.8439097,155
1.8826535,156
1.8230985,157
1.7999216,158
1.8026515,159
1.8128759,160
1.9967006,161
2.1287408,162
1.9436696,163
1.8060122,164
1.7899947,165
1.7536182,166
1.857982,167
1.7480817,168
1.8031412,169
1.8378426,170
1.8848671,171
2.0358202,172
1.9500178,173
1.8580384,174
1.8143969,175
1.807444,176
1.7749298,177
1.8354824,178
1.8630551,179
1.7832376,180
1.7722449,181
1.8659405,182
1.9550117,183
1.947042,184
1.6828196,185
1.257461,186
1.4490123,187
1.503671,188
1.5265876,189
1.5488193,190
1.5544168,191
1.6354992,192
1.6698192,193
1.5664585,194
1.6624027,195
1.8262962,196
1.8329027,197
1.7728736,198
1.8097141,199
1.7954986,200
1.8709491,201
1.8351873,202
1.8217367,203
1.8268275,204
1.7687473,205
1.8034241,206
1.7987014,207
1.8529234,208
1.8644116,209
2.3244455,210
2.14476,211
1.7997977,212
1.8365182,213
2.0217392,214
2.294829,215
2.4818904,216
2.1277246,217
1.8295426,218
1.8416688,219
1.8447064,220
1.8228854,221
1.8080195,222
1.8093594,223
1.793623,224
1.8923188,225
1.9350961,226
2.050527,227
1.8004384,228
1.7145635,229
1.4731473,230
1.3587304,231
1.5278403,232
1.5189476,233
1.4235541,234
1.4952657,235
1.5056893,236
1.495425,237
1.611266,238
1.7204999,239
1.6933352,240
1.6541761,241
1.6568599,242
1.6893116,243
1.7437959,244
1.7605851,245
1.7728419,246
1.6986492,247
1.7392433,248
1.8151044,249
1.827365,250
1.8404347,251
1.9246747,252
1.87807,253
1.8173862,254
1.7690768,255
1.5857345,256
1.5689255,257
1.5225003,258
1.6400437,259
1.6880943,260
1.4770544,261
1.686595,262
1.6274492,263
1.6520665,264
1.6379973,265
1.6665145,266
1.5563881,267
1.6133637,268
1.6198723,269
1.5828668,270
1.3994243,271
1.3261086,272
1.4318362,273
1.4146997,274
1.4066551,275
1.2741897,276
1.2219712,277
1.3484809,278
1.4457337,279
1.3914528,280
1.1804364,281
1.2322924,282
1.4236389,283
1.4359299,284
1.463029,285
1.3755465,286
1.173959,287
1.5596077,288
1.5904803,289
1.5845958,290
1.1939687,291
1.1766391,292
1.4652567,293
1.5594003,294
1.4432713,295
1.2563949,296
1.1405605,297
1.6563091,298
1.6634791,299
1.5730036,300
1.4281982,301
0.95776355,302
1.412361,303
1.5726866,304
1.5251458,305
1.4779083,306
1.2721225,307
1.5196545,308
1.4598802,309
1.5068369,310
1.5514562,311
1.376406,312
1.3416337,313
1.5278579,314
1.310664,315
1.4154668,316
1.2643397,317
1.1618142,318
1.5700748,319
1.6805116,320
1.7517945,321
1.6986334,322
1.3048828,323
1.2788754,324
1.4663734,325
1.4819039,326
1.432442,327
1.3629984,328
1.0736475,329
1.5639936,330
1.5754677,331
1.543207,332
1.4867814,333
1.0912205,334
1.6217144,335
1.583958,336
1.5903246,337
1.5369124,338
1.2968569,339
1.6080836,340
1.5296326,341
1.5249633,342
1.6878408,343
1.4520124,344
1.2120228,345
1.5171922,346
1.4821804,347
1.55536,348
1.4864676,349
1.1826676,350
1.268298,351
1.3933952,352
1.3603663,353
1.4812337,354
1.3095393,355
1.3087063,356
1.4930215,357
1.4723638,358
1.4700456,359
1.5096092,360
1.1438149,361
1.466982,362
1.5126213,363
1.6005915,364
1.5722415,365
1.1718782,366
1.1465676,367
1.3983119,368
1.3944238,369
1.4318513,370
1.3389143,371
1.1335753,372
1.5419426,373
1.5148265,374
1.5919425,375
1.5409741,376
1.279706,377
1.3831891,378
1.4231373,379
1.4497684,380
1.5083597,381
1.216309,382
1.3339102,383
1.5853442,384
1.5052522,385
1.5854117,386
1.4815129,387
1.1838101,388
1.4731584,389
1.4824591,390
1.5258228,391
1.5330638,392
1.0240157,393
1.4023601,394
1.4672285,395
1.4221271,396
1.5539944,397
1.5337149,398
1.2225857,399
1.3855339,400
1.4140011,401
1.4388374,402
1.6475089,403
1.4063346,404
1.4213346,405
1.6677928,406
1.7093335,407
1.7532529,408
1.622509,409
1.0897902,410
1.1196896,411
1.4295659,412
1.467264,413
1.4532288,414
1.0247355,415
1.1511385,416
1.2325394,417
1.5275254,418
1.6524425,419
1.5183462,420
1.080473,421
1.3350602,422
1.4772801,423
1.4496814,424
1.4066079,425
1.3960048,426
1.2088021,427
1.4886125,428
1.5848621,429
1.514393,430
1.3683861,431
0.98662215,432
1.3555238,433
1.4910076,434
1.5382255,435
1.4559095,436
0.9726631,437
1.3077369,438
1.5939953,439
1.5352337,440
1.5645875,441
1.4666318,442
1.4051266,443
1.5747638,444
1.5673412,445
1.5830965,446
1.4210874,447
1.069844,448
1.5819337,449
1.4728116,450
1.5470473,451
1.5540794,452
0.9711364,453
1.3069539,454
1.3065264,455
1.5105238,456
1.4775305,457
1.2565963,458
1.1179271,459
1.5750309,460
1.559905,461
1.6163602,462
1.465903,463
1.1114775,464
1.2167767,465
1.4745996,466
1.5322025,467
1.457982,468
1.2431114,469
1.1246079,470
1.4766804,471
1.5897485,472
1.5914274,473
1.48376,474
1.14199,475
1.4358138,476
1.538217,477
1.5763996,478
1.5127065,479
0.97530687,480
1.392812,481
1.4584883,482
1.6099132,483
1.6328772,484
1.4882478,485
1.1828796,486
1.5522941,487
1.5413013,488
1.4905012,489
1.4704957,490
1.2129713,491
1.3756922,492
1.3807136,493
1.5534666,494
1.6581823,495
1.1928861,496
1.0916399,497
1.2898027,498
1.4559928,499
1.4786944,500
1.2386482,501
1.2889771,502
1.6814187,503
1.6139084,504
1.5808616,505
1.617298,506
1.0264258,507
1.2442496,508
1.3547143,509
1.342861,510
1.4953614,511
1.0153924,512
1.2578142,513
1.418648,514
1.4646628,515
1.5283031,516
1.3446693,517
1.1100763,518
1.5335783,519
1.396938,520
1.5413913,521
1.4889102,522
1.2190849,523
1.4294037,524
1.5090464,525
1.586417,526
1.618007,527
1.4715691,528
1.2958368,529
1.617964,530
1.6900615,531
1.633454,532
1.5347377,533
1.1207458,534
1.5765996,535
1.4177495,536
1.5442696,537
1.5545621,538
1.0930496,539
1.3069646,540
1.3362697,541
1.4671605,542
1.4921706,543
1.2904811,544
1.2501624,545
1.5411949,546
1.5531459,547
1.6039922,548
1.4096893,549
1.2420241,550
1.4663373,551
1.3728055,552
1.495396,553
1.364861,554
1.1526269,555
1.434334,556
1.3637754,557
1.4918845,558
1.6027313,559
1.2195865,560
1.2822032,561
1.4425722,562
1.5338924,563
1.5671921,564
1.5012295,565
1.1860536,566
1.5828588,567
1.4384472,568
1.5413345,569
1.5661032,570
1.3597089,571
1.3322066,572
1.3239859,573
1.3480128,574
1.5111716,575
1.4200629,576
0.9750846,577
1.6501536,578
1.6048716,579
1.616457,580
1.55457,581
1.3098905,582
1.3302917,583
1.347664,584
1.494499,585
1.5420767,586
1.3730502,587
1.1644243,588
1.4726764,589
1.5253137,590
1.3550968,591
1.5123105,592
1.0734415,593
1.6267678,594
1.6868402,595
1.5851046,596
1.5148536,597
1.2052565,598
1.4084597,599
1.3101723,600
1.5603528,601
1.5979868,602
1.4929471,603
1.0512592,604
1.4582459,605
1.606625,606
1.6123059,607
1.4817195,608
1.2725382,609
1.3429453,610
1.4740417,611
1.5311108,612
1.5869627,613
1.4167994,614
1.0740081,615
1.5910274,616
1.634988,617
1.6098979,618
1.4804276,619
1.145959,620
1.4525558,621
1.4685744,622
1.6315935,623
1.6229576,624
1.1672342,625
1.0355307,626
1.3958346,627
1.4526875,628
1.4350902,629
1.4467998,630
1.0499322,631
1.4967926,632
1.5647652,633
1.5917302,634
1.6175733,635
1.4055154,636
1.2452062,637
1.336047,638
1.4798632,639
1.5297828,640
1.4401304,641
0.9954551,642
1.4610877,643
1.4694902,644
1.5950042,645
1.546802,646
1.0180653,647
1.4298338,648
1.4922972,649
1.5762395,650
1.5394361,651
1.4495058,652
1.4275162,653
1.4914477,654
1.5355732,655
1.5610036,656
1.401606,657
1.2894514,658
1.3288332,659
1.377835,660
1.3588419,661
1.3960406,662
1.1159981,663
1.4799924,664
1.6150477,665
1.7200272,666
1.6757778,667
1.3389889,668
1.2239957,669
1.4319798,670
1.4617226,671
1.4167343,672
1.396194,673
1.0838683,674
1.4829375,675
1.4849899,676
1.5949911,677
1.57754,678
1.223502,679
1.2158669,680
1.5787311,681
1.5511296,682
1.6178297,683
1.4722717,684
1.2693504,685
1.5503446,686
1.5572981,687
1.6343982,688
1.5805306,689
1.0409423,690
1.2212448,691
1.4929626,692
1.4860505,693
1.5441049,694
1.127927,695
1.2375441,696
1.4755374,697
1.5598035,698
1.5572648,699
1.5933226,700
1.053829,701
1.5023482,702
1.6312891,703
1.622639,704
1.5548301,705
1.3692677,706
1.3999692,707
1.2507411,708
1.5406904,709
1.625293,710
1.3559643,711
0.9458993,712
1.3723129,713
1.329122,714
1.4680125,715
1.499059,716
1.5686603,717
1.4810543,718
1.3796976,719
1.6397811,720
1.617584,721
1.311627,722
1.1044834,723
1.3159056,724
1.3766484,725
1.4323881,726
1.5230632,727
1.1024007,728
1.4489563,729
1.4836726,730
1.5531303,731
1.5888051,732
1.1480433,733
1.2966096,734
1.41052,735
1.5416614,736
1.4496223,737
1.2946713,738
1.0588315,739
1.3678023,740
1.4761897,741
1.5575601,742
1.4938709,743
1.3330333,744
1.6021184,745
1.4775865,746
1.5621716,747
1.4439497,748
1.3972677,749
1.2496376,750
1.4739492,751
1.541672,752
1.5845764,753
1.1141485,754
1.1875261,755
1.4474976,756
1.3706207,757
1.5040485,758
1.3926427,759
1.2162302,760
1.4881184,761
1.6135243,762
1.5233363,763
1.4824122,764
1.2714279,765
1.38795,766
1.4691143,767
1.4648284,768
1.4728436,769
1.4523613,770
1.0436065,771
1.4911062,772
1.4772102,773
1.4200053,774
1.5589325,775
1.5534915,776
1.602403,777
1.6067832,778
1.4563665,779
1.5554278,780
1.5013444,781
1.6346672,782
1.5876621,783
1.6065156,784
1.3994743,785
1.3398432,786
1.3749107,787
1.4839503,788
1.383659,789
1.4707216,790
1.3525254,791
1.4292706,792
1.4427109,793
1.4938107,794
1.4124327,795
1.3878317,796
1.4225166,797
1.5584817,798
1.5405608,799
1.573117,800
1.5690657,801
1.5320723,802
1.5667102,803
1.5461831,804
1.6035584,805
1.5765289,806
1.6231289,807
1.6464641,808
1.7341253,809
1.6643999,810
1.716015,811
1.6493083,812
1.4811462,813
1.616721,814
1.5357758,815
1.5800207,816
1.6634033,817
1.5983324,818
1.6139435,819
1.4974521,820
1.5808166,821
1.5926815,822
1.6560621,823
1.4335321,824
1.5020361,825
1.659708,826
1.5940343,827
1.7525309,828
1.4940257,829
1.3340858,830
1.6466308,831
1.4404883,832
1.4188002,833
1.4324477,834
1.0705265,835
1.3835094,836
1.4606051,837
1.5508429,838
1.4747121,839
1.438397,840
1.1510241,841
1.455203,842
1.3608756,843
1.4340589,844
0.9479396,845
1.027616,846
1.2190094,847
1.1078869,848
1.102521,849
1.167739,850
0.96953607,851
1.5733356,852
1.4520428,853
1.518444,854
1.3423434,855
1.1904436,856
1.592174,857
1.4764625,858
1.4779392,859
1.474196,860
1.249312,861
1.1129148,862
1.3932357,863
1.3470622,864
1.409027,865
1.2513309,866
1.1603377,867
1.6357543,868
1.5337963,869
1.5080832,870
1.4937611,871
1.1198266,872
1.3393205,873
1.4092177,874
1.3394107,875
1.4456432,876
1.1548061,877
1.1568596,878
1.2839819,879
1.403811,880
1.4004321,881
1.4189388,882
1.1961792,883
1.2886522,884
1.4072479,885
1.4899983,886
1.5361241,887
1.3864423,888
1.6513253,889
1.5186125,890
1.4234694,891
1.4254451,892
1.282493,893
1.361031,894
1.4608598,895
1.3873051,896
1.3757612,897
1.3909084,898
1.1191622,899
1.4638499,900
1.5170223,901
1.3595587,902
1.4011534,903
1.3515049,904
1.0962138,905
1.0860204,906
1.0811372,907
1.0712243,908
1.1006458,909
1.3374386,910
1.4426528,911
1.4815966,912
1.4314473,913
1.3836372,914
1.1365137,915
1.5585871,916
1.6040456,917
1.5956292,918
1.4802772,919
1.3422065,920
1.2169135,921
1.5011537,922
1.512741,923
1.5442417,924
1.1730186,925
0.9384923,926
1.403137,927
1.4460696,928
1.4206327,929
1.2764199,930
1.2000978,931
1.4128065,932
1.2300687,933
1.4565678,934
1.40165,935
1.2948225,936
1.4126673,937
1.5063837,938
1.4816164,939
1.4851787,940
1.4426756,941
1.2747291,942
1.5423546,943
1.4510432,944
1.2655327,945
1.3329891,946
1.1840817,947
1.4911565,948
1.2718024,949
1.173553,950
1.2348595,951
1.1275554,952
1.3602743,953
1.542851,954
1.5221533,955
1.541757,956
1.4043758,957
1.1377659,958
1.4333222,959
1.262725,960
1.3516653,961
1.4762723,962
1.2854348,963
1.1490963,964
1.482492,965
1.4598062,966
1.5714244,967
1.4367456,968
0.99101716,969
1.323918,970
1.3580824,971
1.4160225,972
1.4580506,973
1.44799,974
1.0694183,975
1.4626149,976
1.3969214,977
1.6089184,978
1.4144171,979
1.1696451,980
1.418742,981
1.3454794,982
1.4234163,983
1.5189517,984
1.1567898,985
1.3518301,986
1.36701,987
1.2572062,988
1.4353538,989
1.2454795,990
1.2053266,991
1.4756361,992
1.4623713,993
1.3769404,994
1.4249889,995
1.143166,996
1.4880054,997
1.4614464,998
1.0663655,999
1.2408546,1000
1.256186,1001
1.3841729,1002
1.5484979,1003
1.5009351,1004
1.4426122,1005
1.3209226,1006
1.172114,1007
1.4563652,1008
1.3504851,1009
1.3338156,1010
1.3443584,1011
1.0892847,1012
1.2369343,1013
1.2218587,1014
1.2202047,1015
1.0696491,1016
1.0066239,1017
1.0856721,1018
1.4268306,1019
1.3807412,1020
1.396772,1021
1.3142987,1022
1.0503491,1023
1.2854881,1024
1.3951675,1025
1.3976686,1026
1.5120652,1027
1.1652422,1028
1.4077668,1029
1.3531306,1030
1.3995324,1031
1.4716197,1032
1.3177906,1033
1.2674756,1034
1.2347233,1035
1.0401157,1036
1.0107769,1037
1.0864156,1038
1.1026794,1039
1.400961,1040
1.4996164,1041
1.4484252,1042
1.438965,1043
1.1825346,1044
1.1763419,1045
1.4975841,1046
1.4952105,1047
1.3229061,1048
1.3486795,1049
1.1697117,1050
1.4584848,1051
1.5011721,1052
1.4111725,1053
1.4946871,1054
1.3024592,1055
1.4866374,1056
1.3216909,1057
1.4236054,1058
1.5052916,1059
1.352339,1060
1.336482,1061
1.3706105,1062
1.435227,1063
1.393942,1064
1.1919609,1065
0.89682955,1066
1.342676,1067
1.3902177,1068
1.3710746,1069
1.318041,1070
1.1280392,1071
1.2789892,1072
1.5055646,1073
1.442552,1074
1.3266246,1075
1.2391946,1076
1.1093938,1077
1.3912132,1078
1.4849691,1079
1.564182,1080
1.3999175,1081
1.3034123,1082
1.5463727,1083
1.4552575,1084
1.4657992,1085
1.1683993,1086
1.1882558,1087
1.4302685,1088
1.3387531,1089
1.35173,1090
1.3926734,1091
1.013549,1092
1.4309984,1093
1.4672556,1094
1.4442606,1095
1.4826373,1096
1.3302643,1097
1.32281,1098
1.3668094,1099
1.420535,1100
1.4276451,1101
1.380467,1102
1.2143692,1103
1.5073913,1104
1.529655,1105
1.4981842,1106
1.5922548,1107
1.2197012,1108
1.1713175,1109
1.4889617,1110
1.4367812,1111
1.4610269,1112
1.3206174,1113
1.0557189,1114
1.5395784,1115
1.476793,1116
1.6162065,1117
1.4601798,1118
1.1039534,1119
1.3800496,1120
1.3732336,1121
1.462188,1122
1.4751484,1123
1.2692089,1124
1.3352405,1125
1.466829,1126
1.5593132,1127
1.4469371,1128
1.1355851,1129
1.4310064,1130
1.3582611,1131
1.4318928,1132
1.4429265,1133
1.2047682,1134
1.2962965,1135
1.4059333,1136
1.484026,1137
1.5176029,1138
1.3939394,1139
1.1824422,1140
1.4723756,1141
1.429005,1142
1.4818834,1143
1.4348294,1144
1.1541116,1145
1.388199,1146
1.428269,1147
1.571281,1148
1.5352025,1149
1.3352106,1150
1.1530191,1151
1.4786648,1152
1.6008775,1153
1.5024589,1154
1.5056832,1155
1.1552345,1156
1.3483908,1157
1.4689857,1158
1.5447614,1159
1.5464822,1160
1.2982504,1161
1.2754498,1162
1.435129,1163
1.5394447,1164
1.4210624,1165
1.4439274,1166
1.2928852,1167
1.3573825,1168
1.5177878,1169
1.5090911,1170
1.4224645,1171
1.4443111,1172
1.2440587,1173
1.4492053,1174
1.4597691,1175
1.4026216,1176
1.3823265,1177
1.2542185,1178
1.3447881,1179
1.3385556,1180
1.4386429,1181
1.4739413,1182
1.2790831,1183
1.2158767,1184
1.3643658,1185
1.4504168,1186
1.361268,1187
1.2520776,1188
1.0266051,1189
1.147997,1190
1.3415511,1191
1.4051343,1192
1.372684,1193
1.1365857,1194
1.5576651,1195
1.5249876,1196
1.4466451,1197
1.4555703,1198
1.1478783,1199
1.1231176,1200
1.3384513,1201
1.3657604,1202
1.3475379,1203
1.1557833,1204
1.1166425,1205
1.3569738,1206
1.3272986,1207
1.374248,1208
1.4122066,1209
1.1565071,1210
1.3501555,1211
1.564391,1212
1.6551604,1213
1.6478924,1214
1.3172002,1215
1.1735432,1216
1.5122159,1217
1.3452102,1218
1.5227215,1219
1.4167476,1220
0.9021752,1221
1.4078866,1222
1.4852722,1223
1.4348545,1224
1.5274792,1225
1.3359321,1226
1.1224359,1227
1.4453493,1228
1.4169075,1229
1.5088269,1230
1.2791415,1231
1.2567925,1232
1.483727,1233
1.4950486,1234
1.4941156,1235
1.5589416,1236
1.2319763,1237
1.4987663,1238
1.4380077,1239
1.5335001,1240
1.4689384,1241
1.3156651,1242
1.0779698,1243
1.4802569,1244
1.5345211,1245
1.511279,1246
1.5405611,1247
1.1473109,1248
1.2283716,1249
1.0392547,1250
1.2458066,1251
1.4349965,1252
1.0976611,1253
1.3156755,1254
1.357483,1255
1.428127,1256
1.6137395,1257
1.4505025,1258
1.2300141,1259
1.6380293,1260
1.6489261,1261
1.6203747,1262
1.4923693,1263
1.4102156,1264
1.6140285,1265
1.5939978,1266
1.5710826,1267
1.5366526,1268
1.0507694,1269
1.2465634,1270
1.3729391,1271
1.4361064,1272
1.4023509,1273
1.4948163,1274
1.038885,1275
1.5880066,1276
1.5523671,1277
1.5240037,1278
1.5396923,1279
1.1004153,1280
1.4247729,1281
1.4638131,1282
1.464579,1283
1.5208678,1284
1.2851667,1285
1.20867,1286
1.1133324,1287
1.1423562,1288
1.3454596,1289
1.2817979,1290
1.1396619,1291
1.40041,1292
1.4341809,1293
1.4639816,1294
1.5754863,1295
1.3289332,1296
1.3892426,1297
1.5481409,1298
1.6569347,1299
1.6190544,1300
1.5396621,1301
1.1027393,1302
1.528147,1303
1.547125,1304
1.4236056,1305
1.4750011,1306
1.4274772,1307
1.2164698,1308
1.5467558,1309
1.560445,1310
1.5877645,1311
1.2041113,1312
1.1908346,1313
1.3413697,1314
1.1899824,1315
1.201801,1316
1.3803153,1317
1.0494963,1318
1.4569426,1319
1.4470233,1320
1.5054922,1321
1.5156871,1322
1.3482724,1323
1.1888171,1324
1.2796162,1325
1.4070593,1326
1.4100863,1327
1.4924933,1328
1.0966079,1329
1.3562984,1330
1.4634707,1331
1.5083891,1332
1.4319364,1333
1.2957433,1334
1.1082543,1335
1.3581233,1336
1.5029359,1337
1.545337,1338
1.3322145,1339
1.3786366,1340
1.3690201,1341
1.3054284,1342
1.1198168,1343
1.4623413,1344
1.2970289,1345
1.4704888,1346
1.5211786,1347
1.5158947,1348
1.4681673,1349
1.1983347,1350
1.3061192,1351
1.5372154,1352
1.6098171,1353
1.494339,1354
1.3011292,1355
1.2885877,1356
1.4238346,1357
1.412118,1358
1.4423743,1359
1.4407704,1360
1.1976,1361
1.3746167,1362
1.4916618,1363
1.4310218,1364
1.4484665,1365
1.1821253,1366
1.1630784,1367
1.4511479,1368
1.4059248,1369
1.4501399,1370
1.4852643,1371
1.1384137,1372
1.3380053,1373
1.2672789,1374
1.4539043,1375
1.379663,1376
1.1469762,1377
1.2798928,1378
1.3512095,1379
1.4768026,1380
1.4935594,1381
1.3669161,1382
1.2599998,1383
1.6395314,1384
1.5962509,1385
1.6657761,1386
1.4445685,1387
1.1260886,1388
1.4543042,1389
1.494543,1390
1.5578275,1391
1.3410325,1392
1.1896106,1393
1.4771953,1394
1.6556327,1395
1.653948,1396
1.5724366,1397
1.2827183,1398
1.1620429,1399
1.3927097,1400
1.4336731,1401
1.4068679,1402
1.2718688,1403
0.9969432,1404
1.4912817,1405
1.4311126,1406
1.4468632,1407
1.4957218,1408
1.0251954,1409
1.157386,1410
1.2848676,1411
1.3747888,1412
1.4263966,1413
1.442829,1414
1.2866447,1415
1.3946849,1416
1.4438683,1417
1.4664247,1418
1.402286,1419
1.1979036,1420
1.3281934,1421
1.3934335,1422
1.381571,1423
1.3569,1424
1.0864732,1425
1.414752,1426
1.2002923,1427
1.295181,1428
1.2394487,1429
1.1355854,1430
1.4025252,1431
1.4274356,1432
1.5154359,1433
1.4706119,1434
1.1984427,1435
1.2945796,1436
1.383244,1437
1.4912444,1438
1.5337406,1439
1.3188616,1440
1.2399735,1441
1.349134,1442
1.4699433,1443
1.5051421,1444
1.4816885,1445
1.2043873,1446
1.4206215,1447
1.4262731,1448
1.573106,1449
1.5542283,1450
1.3887167,1451
1.0224568,1452
1.4331551,1453
1.3989503,1454
1.5025768,1455
1.3395953,1456
0.9957908,1457
1.3994434,1458
1.5811373,1459
1.6467115,1460
1.5317839,1461
1.3716578,1462
1.1894553,1463
1.5324129,1464
1.4794232,1465
1.3772286,1466
1.3545082,1467
1.256368,1468
1.4477533,1469
1.3585135,1470
1.3666683,1471
1.360065,1472
1.1279247,1473
1.4218286,1474
1.3450323,1475
1.3824238,1476
1.4369648,1477
1.1317797,1478
1.4805394,1479
1.4319882,1480
1.5620719,1481
1.5426792,1482
1.4132589,1483
1.194821,1484
1.3227239,1485
1.4518361,1486
1.5149928,1487
1.4494545,1488
1.2891126,1489
1.5210599,1490
1.5190215,1491
1.6187081,1492
1.5639102,1493
1.2101697,1494
1.1914165,1495
1.5525138,1496
1.467088,1497
1.6127816,1498
1.4235747,1499
0.94349337,1500
1.4788405,1501
1.4719416,1502
1.5657072,1503
1.5963281,1504
1.2885065,1505
1.3197432,1506
1.4933785,1507
1.614302,1508
1.5716867,1509
1.4555058,1510
1.2447078,1511
1.4091829,1512
1.661456,1513
1.6569062,1514
1.5423658,1515
1.4481411,1516
1.4118251,1517
1.4378814,1518
1.5816109,1519
1.4598262,1520
1.3572811,1521
1.2524742,1522
1.0960962,1523
1.4229791,1524
1.5379865,1525
1.5467265,1526
1.4261844,1527
0.8916265,1528
1.501507,1529
1.4001287,1530
1.4731588,1531
1.5422988,1532
1.0777049,1533
1.40889,1534
1.4390312,1535
1.5793924,1536
1.5295864,1537
1.2621439,1538
1.2929035,1539
1.4051358,1540
1.5200986,1541
1.4862735,1542
1.2713115,1543
1.555418,1544
1.6271077,1545
1.5835692,1546
1.52674,1547
0.9374803,1548
1.274788,1549
1.2965448,1550
1.100386,1551
1.3565058,1552
1.4292519,1553
1.5459635,1554
1.2090107,1555
1.4579346,1556
1.13868,1557
1.207481,1558
1.5759236,1559
1.674297,1560
1.5241913,1561
1.6149863,1562
1.6431775,1563
1.6116568,1564
1.6888183,1565
1.5811418,1566
1.5310377,1567
1.5934304,1568
1.6678268,1569
1.4359801,1570
1.1890974,1571
1.172449,1572
1.240974,1573
1.2134913,1574
1.3545921,1575
1.4762203,1576
1.605621,1577
1.5654643,1578
1.5791625,1579
1.3715737,1580
1.3056016,1581
1.3037663,1582
1.298924,1583
1.3313545,1584
1.4221998,1585
1.3566664,1586
1.339845,1587
1.5073748,1588
1.4783566,1589
1.422459,1590
1.43377,1591
1.5686795,1592
1.4155867,1593
1.2746035,1594
1.3109537,1595
1.2508842,1596
1.0474198,1597
0.9941565,1598
1.0703958,1599
0.9966369,1600
0.9304539,1601
1.2835531,1602
1.5520173,1603
1.4695756,1604
1.0490665,1605
1.3279198,1606
1.3615419,1607
1.4626896,1608
1.3258336,1609
1.1983706,1610
1.3862102,1611
1.3126004,1612
1.4326699,1613
1.3771799,1614
1.1058071,1615
1.3963771,1616
1.3157573,1617
1.3531147,1618
1.0977634,1619
1.4354349,1620
1.5540565,1621
1.6075646,1622
1.5889268,1623
1.509451,1624
1.1808661,1625
1.4340967,1626
1.3420763,1627
1.5220808,1628
1.4578228,1629
1.2946709,1630
1.2100304,1631
1.4467598,1632
1.4691641,1633
1.5443296,1634
1.431838,1635
1.1070162,1636
1.4619907,1637
1.5291163,1638
1.4791391,1639
1.3384485,1640
1.3220935,1641
1.5436058,1642
1.4421676,1643
1.4182746,1644
1.4990675,1645
1.3471155,1646
1.4486631,1647
1.4418691,1648
1.5300051,1649
1.4715374,1650
1.3154105,1651
1.4282534,1652
1.5411894,1653
1.565198,1654
1.6688416,1655
1.4215783,1656
1.0844275,1657
1.4349011,1658
1.4513278,1659
1.6084495,1660
1.5399685,1661
1.1220219,1662
1.4889979,1663
1.2713916,1664
1.4795527,1665
1.3707641,1666
1.0179068,1667
1.4131446,1668
1.6071779,1669
1.6600515,1670
1.6792711,1671
1.3829205,1672
1.0157881,1673
1.5607674,1674
1.682533,1675
1.5515332,1676
1.4048587,1677
1.1926854,1678
1.4384335,1679
1.4194546,1680
1.6044086,1681
1.5890887,1682
1.1761804,1683
1.2787939,1684
1.3298963,1685
1.2544665,1686
1.1858739,1687
1.3209765,1688
1.188932,1689
1.37166,1690
1.4706008,1691
1.3994329,1692
1.2796094,1693
1.1095754,1694
1.3497887,1695
1.3031443,1696
1.3432163,1697
1.3535768,1698
1.1650398,1699
1.3009503,1700
1.3946719,1701
1.3473985,1702
1.38275,1703
1.1421298,1704
1.3608207,1705
1.5098745,1706
1.5489745,1707
1.3939688,1708
1.1622674,1709
1.0492935,1710
1.3716704,1711
1.4002054,1712
1.4110035,1713
1.4796387,1714
1.059459,1715
1.3866029,1716
1.5077643,1717
1.4874413,1718
1.437502,1719
1.1771327,1720
1.4506687,1721
1.4407853,1722
1.5320966,1723
1.5639198,1724
1.2208945,1725
1.0991678,1726
1.5228306,1727
1.3525727,1728
1.4343565,1729
1.3935145,1730
1.2674458,1731
1.497194,1732
1.4160726,1733
1.4535921,1734
1.5786126,1735
1.1688421,1736
1.5081818,1737
1.6472384,1738
1.6973916,1739
1.6378571,1740
1.279334,1741
1.3252629,1742
1.4820524,1743
1.4829658,1744
1.5461974,1745
1.3378525,1746
1.2564168,1747
1.4246511,1748
1.5126948,1749
1.4891245,1750
1.5119562,1751
1.161194,1752
1.387644,1753
1.3615917,1754
1.555727,1755
1.5398024,1756
1.2283665,1757
1.1121866,1758
1.3556731,1759
1.4188274,1760
1.55913,1761
1.3873285,1762
1.2519717,1763
1.358211,1764
1.5062941,1765
1.4953896,1766
1.542542,1767
1.3219805,1768
1.1388515,1769
1.4627382,1770
1.4291377,1771
1.4487599,1772
1.4373921,1773
1.0973731,1774
1.4593849,1775
1.5690496,1776
1.6536534,1777
1.5902398,1778
1.4691725,1779
1.2853824,1780
1.2180518,1781
1.146851,1782
0.9122752,1783
1.0829023,1784
0.81931174,1785
0.9681684,1786
1.0724856,1787
1.0524137,1788
1.330747,1789
1.2283561,1790
1.436035,1791
1.5240334,1792
1.6007178,1793
1.61635,1794
1.3577929,1795
1.1117524,1796
1.3823692,1797
1.3169829,1798
1.4460566,1799
1.4463531,1800
1.1531276,1801
1.3236477,1802
1.2221051,1803
1.311111,1804
1.4773386,1805
1.139344,1806
1.4217393,1807
1.5469384,1808
1.5125903,1809
1.6801789,1810
1.4250923,1811
1.0078862,1812
1.4707915,1813
1.362967,1814
1.6091915,1815
1.4155829,1816
1.0679469,1817
1.5689392,1818
1.6717986,1819
1.6871747,1820
1.5914638,1821
1.3605435,1822
1.2986169,1823
1.5358301,1824
1.5285131,1825
1.6475829,1826
1.193609,1827
1.0258712,1828
1.388369,1829
1.4692532,1830
1.5306225,1831
1.5311713,1832
1.1451315,1833
1.4837524,1834
1.6523134,1835
1.7213053,1836
1.6038644,1837
1.3384038,1838
1.1343893,1839
1.426166,1840
1.2170541,1841
1.4271168,1842
1.4490411,1843
1.0133425,1844
1.3875775,1845
1.5472516,1846
1.6239923,1847
1.5300852,1848
1.2838577,1849
1.2317873,1850
1.3821324,1851
1.4917067,1852
1.4382484,1853
1.4569384,1854
1.0009236,1855
1.5808895,1856
1.4927108,1857
1.6816632,1858
1.5913147,1859
1.04442,1860
1.3589373,1861
1.2088462,1862
1.3334341,1863
1.3330873,1864
1.2837316,1865
1.0015252,1866
1.3347956,1867
1.4308008,1868
1.4412843,1869
1.0452839,1870
1.0191848,1871
1.4313856,1872
1.4160783,1873
1.5227071,1874
1.5638595,1875
1.4031935,1876
1.1739401,1877
1.2998947,1878
1.2965168,1879
1.3466636,1880
1.0570749,1881
1.2418399,1882
1.2500652,1883
1.2361723,1884
1.4295498,1885
1.4328899,1886
0.97264045,1887
1.1029327,1888
1.2194972,1889
1.50126,1890
1.4703598,1891
1.2154617,1892
1.2123876,1893
1.6113454,1894
1.5290945,1895
1.5793105,1896
1.2326635,1897
1.1787542,1898
1.3510325,1899
1.5040027,1900
1.5939432,1901
1.3115467,1902
1.06112,1903
1.4219129,1904
1.2026622,1905
1.505961,1906
1.4940804,1907
1.358558,1908
1.4725438,1909
1.7226113,1910
1.6902161,1911
1.6434058,1912
1.2219682,1913
1.1664459,1914
1.3217566,1915
1.5380683,1916
1.5053303,1917
1.3727083,1918
1.1462673,1919
1.336147,1920
1.4618489,1921
1.5750171,1922
1.4551072,1923
1.1754218,1924
1.613673,1925
1.5929629,1926
1.5953538,1927
1.557931,1928
1.5337644,1929
1.3534046,1930
1.5430475,1931
1.4560034,1932
1.3920695,1933
1.1712654,1934
1.0801038,1935
1.4375513,1936
1.5183214,1937
1.4990655,1938
1.3008152,1939
0.95891607,1940
0.9508523,1941
0.97393245,1942
1.0054055,1943
1.0264418,1944
1.0910275,1945
1.3909208,1946
1.4289985,1947
1.382823,1948
1.318962,1949
1.2226934,1950
1.1067519,1951
1.1417246,1952
1.3509939,1953
1.2832762,1954
1.3041242,1955
1.0372967,1956
1.432295,1957
1.4090843,1958
1.5738974,1959
1.4492819,1960
1.2703583,1961
1.1480834,1962
1.3967541,1963
1.4197255,1964
1.3483367,1965
1.5039434,1966
1.0843095,1967
1.4006387,1968
1.4201001,1969
1.5346612,1970
1.525304,1971
1.3210388,1972
1.2832934,1973
1.3561623,1974
1.3840214,1975
1.5398201,1976
1.114675,1977
1.2317348,1978
1.4717276,1979
1.6157073,1980
1.6343975,1981
1.5786849,1982
1.1003715,1983
1.35521,1984
1.4018036,1985
1.4227448,1986
1.3999121,1987
1.3204896,1988
1.515694,1989
1.4967544,1990
1.32696,1991
1.551978,1992
1.4096249,1993
1.3566483,1994
1.6447138,1995
1.607634,1996
1.6490241,1997
1.6104511,1998
0.9837523,1999
1.495226,2000
1.5077353,2001
1.5460998,2002
1.5385718,2003
1.2575809,2004
1.2969519,2005
1.5712111,2006
1.541118,2007
1.5967742,2008
1.4194432,2009
1.1264055,2010
1.4569367,2011
1.5476587,2012
1.5545208,2013
1.4885494,2014
1.2046018,2015
1.4063776,2016
1.4665622,2017
1.6238931,2018
1.6520298,2019
1.1871928,2020
1.180216,2021
1.4182702,2022
1.4400691,2023
1.6428152,2024
1.4838834,2025
1.208801,2026
1.3422238,2027
1.3379912,2028
1.4127038,2029
1.3958144,2030
1.2091597,2031
1.4345344,2032
1.5345182,2033
1.5880607,2034
1.5359523,2035
1.3244011,2036
1.1853335,2037
1.3275124,2038
1.3008919,2039
1.4966284,2040
1.4757236,2041
1.3675064,2042
1.3422456,2043
1.2244755,2044
1.4404285,2045
1.393764,2046
1.4624636,2047
1.4489889,2048
1.5005091,2049
1.699203,2050
1.6286404,2051
1.3801873,2052
1.2795868,2053
1.2475376,2054
1.390511,2055
1.2729149,2056
1.1118314,2057
0.88402134,2058
1.4754537,2059
1.4365344,2060
1.3349531,2061
1.4073883,2062
1.0730426,2063
1.2916749,2064
1.3926747,2065
1.5527573,2066
1.5317479,2067
1.2920164,2068
0.8574023,2069
1.1198994,2070
1.2385688,2071
1.4662923,2072
1.5247787,2073
1.2392077,2074
1.5545943,2075
1.6463202,2076
1.5164505,2077
1.5898976,2078
1.2563959,2079
1.3072286,2080
1.505359,2081
1.5683244,2082
1.43598,2083
1.2955132,2084
1.1265428,2085
1.2766759,2086
1.2832079,2087
1.2951663,2088
1.4641346,2089
1.1053205,2090
1.5088799,2091
1.4931496,2092
1.5829664,2093
1.5926242,2094
1.2464474,2095
1.2147492,2096
1.2720754,2097
1.4011904,2098
1.4892789,2099
1.5133989,2100
1.161813,2101
1.4642215,2102
1.4317756,2103
1.4770019,2104
1.2410653,2105
1.139298,2106
1.4206765,2107
1.4634638,2108
1.4713494,2109
1.4385179,2110
1.1969469,2111
1.3034672,2112
1.5046967,2113
1.5379754,2114
1.5236245,2115
1.2624153,2116
1.2839942,2117
1.4074427,2118
1.3523422,2119
1.2995509,2120
1.3681992,2121
1.0171502,2122
1.2862589,2123
1.3767887,2124
1.4400247,2125
1.3900198,2126
1.0607066,2127
0.9672887,2128
1.0253087,2129
1.230568,2130
1.4198588,2131
1.4087458,2132
1.0893395,2133
1.4315852,2134
1.5194623,2135
1.6375071,2136
1.5127891,2137
1.2588532,2138
1.3074433,2139
1.3925089,2140
1.5160954,2141
1.6139964,2142
1.4448858,2143
1.0616785,2144
1.3544515,2145
1.4421759,2146
1.6482052,2147
1.444789,2148
1.0722734,2149
1.4221762,2150
1.4902374,2151
1.4631491,2152
1.511119,2153
1.2169592,2154
1.4824064,2155
1.4446573,2156
1.4076226,2157
1.5717717,2158
1.381394,2159
1.1670766,2160
1.4832221,2161
1.3725164,2162
1.4028721,2163
1.4434828,2164
1.3276116,2165
1.4757967,2166
1.6255659,2167
1.6454757,2168
1.674301,2169
1.0660197,2170
1.4210043,2171
1.4220474,2172
1.4170069,2173
1.5006175,2174
1.5758605,2175
1.1594565,2176
1.473345,2177
1.3653458,2178
1.4348927,2179
1.4094188,2180
1.0968299,2181
1.5743358,2182
1.6255916,2183
1.6121502,2184
1.4535831,2185
1.1475017,2186
1.3741368,2187
1.6358936,2188
1.4710058,2189
1.4220266,2190
1.2527838,2191
1.2949952,2192
1.4094415,2193
1.4836493,2194
1.4864973,2195
1.3307911,2196
1.3511345,2197
1.5087248,2198
1.5185053,2199
1.5997604,2200
1.5964907,2201
1.3603733,2202
1.2916217,2203
1.5457903,2204
1.5610582,2205
1.5733973,2206
1.4027389,2207
0.9416453,2208
1.5128899,2209
1.5878339,2210
1.5686679,2211
1.4212189,2212
0.9654979,2213
1.3208896,2214
1.2583312,2215
1.284208,2216
1.4659292,2217
1.4623522,2218
1.2208453,2219
1.6464847,2220
1.6724223,2221
1.6568614,2222
1.427266,2223
1.3172922,2224
1.46028,2225
1.4321021,2226
1.5496535,2227
1.5688812,2228
1.2773643,2229
1.1487578,2230
1.440577,2231
1.482428,2232
1.655591,2233
1.3759732,2234
1.2641139,2235
1.5148484,2236
1.5556355,2237
1.5016867,2238
1.4739306,2239
1.2213979,2240
1.5410259,2241
1.4035596,2242
1.5470179,2243
1.4939754,2244
1.3631909,2245
1.4110069,2246
1.482294,2247
1.5382,2248
1.5196021,2249
1.5181038,2250
1.069025,2251
1.5243196,2252
1.4609671,2253
1.6676189,2254
1.6073962,2255
1.1105553,2256
1.3191415,2257
1.4286426,2258
1.4874736,2259
1.544163,2260
1.2375418,2261
1.2351135,2262
1.5972202,2263
1.6315086,2264
1.6397681,2265
1.4444354,2266
0.9932055,2267
1.3691725,2268
1.4890745,2269
1.5977895,2270
1.6188686,2271
1.1423604,2272
1.3356435,2273
1.4781148,2274
1.6137227,2275
1.6272571,2276
1.3846747,2277
1.1640188,2278
1.5656377,2279
1.6246461,2280
1.6980194,2281
1.4796753,2282
1.1462717,2283
1.48645,2284
1.4594623,2285
1.6197333,2286
1.5431533,2287
1.4269997,2288
1.2748636,2289
1.6550701,2290
1.6201661,2291
1.550871,2292
1.482244,2293
1.0538331,2294
1.5297707,2295
1.4677533,2296
1.5623834,2297
1.5639758,2298
1.2228366,2299
1.3381289,2300
1.4035615,2301
1.3663038,2302
1.4726084,2303
1.1259164,2304
1.2726401,2305
1.5343336,2306
1.6230662,2307
1.6482471,2308
1.5361192,2309
1.2304826,2310
1.3666085,2311
1.3916811,2312
1.476608,2313
1.5085442,2314
1.0077493,2315
1.2808987,2316
1.4803681,2317
1.5208051,2318
1.5718765,2319
1.1798251,2320
1.1293143,2321
1.4604152,2322
1.4713264,2323
1.5440973,2324
1.3833365,2325
1.1774536,2326
1.4692006,2327
1.4810089,2328
1.5508109,2329
1.6017689,2330
1.111808,2331
1.207612,2332
1.4229164,2333
1.4504269,2334
1.5149336,2335
1.4408324,2336
1.1404691,2337
1.6588701,2338
1.6856976,2339
1.7251956,2340
1.5895895,2341
1.2446082,2342
1.413996,2343
1.3748373,2344
1.5316192,2345
1.4759399,2346
1.3393998,2347
1.2557863,2348
1.4860504,2349
1.5367147,2350
1.5864853,2351
1.4957504,2352
1.0885799,2353
1.6055305,2354
1.664266,2355
1.6729836,2356
1.6068522,2357
1.2488747,2358
1.1581463,2359
1.5049211,2360
1.5632836,2361
1.6244339,2362
1.4063014,2363
1.2863731,2364
1.4243051,2365
1.4900017,2366
1.5283976,2367
1.5213373,2368
1.2790852,2369
1.5025544,2370
1.5744306,2371
1.6955445,2372
1.5495322,2373
1.0585353,2374
1.3697861,2375
1.5193348,2376
1.6071012,2377
1.623019,2378
1.5039386,2379
0.92953724,2380
1.5218246,2381
1.34846,2382
1.5029578,2383
1.5170649,2384
1.2905067,2385
1.4236598,2386
1.3841025,2387
1.3661073,2388
1.4698637,2389
1.3352973,2390
1.1176028,2391
1.6286305,2392
1.59657,2393
1.6989561,2394
1.2550524,2395
1.0957166,2396
1.3774443,2397
1.3683548,2398
1.5064902,2399
1.4796613,2400
1.2223028,2401
1.2894834,2402
1.4340147,2403
1.523229,2404
1.6096628,2405
1.4394507,2406
1.4037207,2407
1.5706762,2408
1.5021925,2409
1.5106084,2410
1.4483039,2411
0.9766298,2412
1.2845964,2413
1.3831851,2414
1.5758212,2415
1.5869021,2416
1.4652675,2417
1.4615444,2418
1.5522172,2419
1.6324615,2420
1.5806024,2421
1.4794626,2422
1.0212629,2423
1.3297175,2424
1.2453568,2425
1.6177275,2426
1.5424855,2427
1.3683896,2428
1.399366,2429
1.4466171,2430
1.5114524,2431
1.5762928,2432
1.228461,2433
1.2657709,2434
1.6374534,2435
1.5798756,2436
1.6258175,2437
1.5343937,2438
0.9730705,2439
1.3163202,2440
1.4790833,2441
1.5173066,2442
1.5263981,2443
1.441697,2444
0.99818057,2445
1.2708915,2446
1.6186682,2447
1.7065673,2448
1.4095058,2449
1.0354912,2450
1.5096165,2451
1.5025779,2452
1.3978167,2453
1.4372398,2454
1.2564241,2455
1.2217182,2456
1.4133106,2457
1.5263473,2458
1.542112,2459
1.3601433,2460
1.4478544,2461
1.625494,2462
1.6612487,2463
1.6441977,2464
1.5337129,2465
1.3321259,2466
1.4858837,2467
1.421941,2468
1.6822855,2469
1.3643026,2470
1.3748412,2471
1.4843392,2472
1.4007969,2473
1.4780605,2474
1.4081808,2475
1.2552025,2476
1.4474386,2477
1.6380248,2478
1.7125217,2479
1.6804012,2480
1.498925,2481
1.0590458,2482
1.4577447,2483
1.4285158,2484
1.5485865,2485
1.5289834,2486
1.4930035,2487
1.268168,2488
1.492447,2489
1.5528367,2490
1.6491201,2491
1.2884315,2492
1.2210252,2493
1.5334815,2494
1.5108411,2495
1.5784577,2496
1.4683444,2497
1.1800961,2498
1.4740607,2499
1.4159025,2500
1.5986769,2501
1.6189594,2502
1.1673014,2503
1.2228688,2504
1.1977856,2505
1.3421943,2506
1.4225347,2507
1.3659505,2508
1.0362626,2509
1.5640632,2510
1.4912453,2511
1.6685283,2512
1.5492772,2513
1.1329913,2514
1.2622641,2515
1.4189179,2516
1.529175,2517
1.539372,2518
1.3593631,2519
1.1961883,2520
1.4490284,2521
1.4692073,2522
1.6332895,2523
1.5276173,2524
1.2175667,2525
1.4454265,2526
1.5759568,2527
1.6457044,2528
1.6280099,2529
1.5036594,2530
1.2493788,2531
1.4065983,2532
1.474998,2533
1.6298512,2534
1.6142614,2535
1.0599432,2536
1.281081,2537
1.5459003,2538
1.4768766,2539
1.5176635,2540
1.424096,2541
0.9852777,2542
1.5390694,2543
1.569879,2544
1.5586531,2545
1.5653976,2546
1.095159,2547
1.4522082,2548
1.6205184,2549
1.5633795,2550
1.5281221,2551
1.0937389,2552
1.0873153,2553
1.4152365,2554
1.5635693,2555
1.6439161,2556
1.2892177,2557
0.9023685,2558
1.2294544,2559
1.3085132,2560
1.4415019,2561
1.4368145,2562
1.1017071,2563
1.5090368,2564
1.6526093,2565
1.7028759,2566
1.6475962,2567
1.3121057,2568
1.3196576,2569
1.4609562,2570
1.5057175,2571
1.6270143,2572
1.3248143,2573
1.1485685,2574
1.4091252,2575
1.4451523,2576
1.5949973,2577
1.5251606,2578
1.1278555,2579
1.1450112,2580
1.520672,2581
1.4980808,2582
1.5639598,2583
1.1388519,2584
1.1859115,2585
1.5724006,2586
1.5289724,2587
1.5775911,2588
1.4931514,2589
1.1575816,2590
1.5293803,2591
1.5486178,2592
1.5803899,2593
1.4238622,2594
1.4198554,2595
1.3356254,2596
1.5088668,2597
1.5124543,2598
1.5872797,2599
1.2314901,2600
1.120509,2601
1.4311708,2602
1.430299,2603
1.571674,2604
1.3468002,2605
1.2743927,2606
1.6692617,2607
1.6531619,2608
1.5939103,2609
1.5333478,2610
0.9844421,2611
1.42073,2612
1.2417513,2613
1.3819963,2614
1.4756866,2615
1.208568,2616
1.3589464,2617
1.4410744,2618
1.5256433,2619
1.7030842,2620
1.4670796,2621
1.1520038,2622
1.4510725,2623
1.4942386,2624
1.54713,2625
1.2985718,2626
1.1861306,2627
1.5749724,2628
1.3276523,2629
1.5973902,2630
1.6044695,2631
1.0363121,2632
1.2879505,2633
1.5427252,2634
1.6167297,2635
1.6502149,2636
1.3621409,2637
1.2810646,2638
1.6172953,2639
1.6476479,2640
1.5182761,2641
1.4876351,2642
1.0913651,2643
1.4348605,2644
1.415103,2645
1.3772942,2646
1.4370817,2647
1.0551009,2648
1.469621,2649
1.5759625,2650
1.63734,2651
1.6730266,2652
1.365637,2653
1.4232473,2654
1.5431532,2655
1.5410218,2656
1.5509696,2657
1.5216093,2658
1.0539904,2659
1.5466826,2660
1.4807401,2661
1.5652871,2662
1.5426241,2663
1.2234821,2664
1.2429267,2665
1.5228007,2666
1.5826284,2667
1.5908687,2668
1.480471,2669
1.2138562,2670
1.5905273,2671
1.4751993,2672
1.5879226,2673
1.6040933,2674
1.152859,2675
1.31425,2676
1.2425424,2677
1.2273622,2678
1.3763291,2679
1.2807175,2680
1.307031,2681
1.727565,2682
1.8207988,2683
1.706111,2684
1.4598918,2685
1.1957692,2686
1.5040284,2687
1.3958625,2688
1.4588907,2689
1.4231328,2690
1.0408747,2691
1.4850707,2692
1.4518565,2693
1.4722658,2694
1.6101941,2695
1.2070739,2696
1.2811148,2697
1.5087991,2698
1.5613091,2699
1.5852445,2700
1.4685227,2701
1.2898593,2702
1.4718382,2703
1.1843765,2704
1.3149048,2705
1.4070529,2706
1.3525017,2707
1.3836143,2708
1.3955243,2709
1.5330045,2710
1.595432,2711
1.5259362,2712
1.2907813,2713
1.6361662,2714
1.6693472,2715
1.6063709,2716
1.5531487,2717
1.2668535,2718
1.3141875,2719
1.5869972,2720
1.5842083,2721
1.6303535,2722
1.4242363,2723
1.2356331,2724
1.6482426,2725
1.6648735,2726
1.7010565,2727
1.5144889,2728
1.1183513,2729
1.4323503,2730
1.4428538,2731
1.504767,2732
1.5649788,2733
1.4275633,2734
1.3183028,2735
1.7271048,2736
1.6317548,2737
1.6512632,2738
1.522405,2739
1.1098843,2740
1.5838962,2741
1.4634628,2742
1.5000633,2743
1.5971155,2744
1.3615221,2745
1.2686291,2746
1.6475664,2747
1.60409,2748
1.6196741,2749
1.27637,2750
1.1106867,2751
1.5246652,2752
1.6143252,2753
1.6058524,2754
1.5814972,2755
1.1241096,2756
1.3087997,2757
1.4763026,2758
1.3997066,2759
1.5115494,2760
1.3524945,2761
1.4358459,2762
1.5554434,2763
1.5747246,2764
1.6513556,2765
1.503795,2766
1.149335,2767
1.6606184,2768
1.5455674,2769
1.6500154,2770
1.3369985,2771
1.0952344,2772
1.4840773,2773
1.435199,2774
1.5309267,2775
1.561073,2776
1.1597666,2777
1.3250368,2778
1.6422695,2779
1.6868255,2780
1.6653367,2781
1.5000657,2782
0.9977641,2783
1.4622228,2784
1.3022391,2785
1.360518,2786
1.5121864,2787
1.391687,2788
1.363417,2789
1.5788025,2790
1.629663,2791
1.544583,2792
1.2168026,2793
1.2111064,2794
1.4833627,2795
1.6933099,2796
1.6684622,2797
1.6115462,2798
1.4535018,2799
1.5626382,2800
1.5573976,2801
1.6403086,2802
1.6870517,2803
1.5126572,2804
1.2156922,2805
1.4307904,2806
1.3381107,2807
1.3809226,2808
1.4242908,2809
1.4089024,2810
1.4225861,2811
1.4381952,2812
1.508918,2813
1.4994131,2814
1.5417676,2815
1.4684346,2816
1.517036,2817
1.5577437,2818
1.6357512,2819
1.5724145,2820
1.575621,2821
1.6352729,2822
1.6490339,2823
1.654558,2824
1.6712606,2825
1.7248472,2826
1.779944,2827
1.6892831,2828
1.8031255,2829
1.7780789,2830
1.7589234,2831
1.6125741,2832
1.6394973,2833
1.6599689,2834
1.64581,2835
1.4718716,2836
1.4528913,2837
1.583625,2838
1.6409981,2839
1.6069553,2840
1.6725807,2841
1.534837,2842
1.6536103,2843
1.6443155,2844
1.7198131,2845
1.6724576,2846
1.6190318,2847
1.4543967,2848
1.3165175,2849
1.5417866,2850
1.54644,2851
1.4159319,2852
1.1377414,2853
1.2974868,2854
1.5018474,2855
1.4864072,2856
1.405302,2857
1.2271309,2858
1.1575352,2859
1.3759038,2860
1.4382555,2861
1.4612685,2862
1.3357046,2863
1.1406163,2864
1.4915218,2865
1.5438678,2866
1.4918063,2867
1.3804064,2868
1.158022,2869
1.5443943,2870
1.5447024,2871
1.4536213,2872
1.4952093,2873
1.0422266,2874
1.415144,2875
1.4333378,2876
1.4813778,2877
1.508213,2878
1.2787998,2879
1.1636597,2880
1.4892892,2881
1.3225023,2882
1.3513665,2883
1.2863667,2884
1.3544596,2885
1.3328432,2886
1.5284941,2887
1.4826527,2888
1.4726955,2889
1.3188854,2890
1.4815872,2891
1.373506,2892
1.4485029,2893
1.2691379,2894
0.69712734,2895
1.165456,2896
1.482542,2897
1.5598495,2898
1.5235945,2899
0.9983602,2900
1.3148834,2901
1.427747,2902
1.4277272,2903
1.4320238,2904
1.1835598,2905
1.1779577,2906
1.4457507,2907
1.4339873,2908
1.4232094,2909
1.4455259,2910
1.1025426,2911
1.3267804,2912
1.3346039,2913
1.4732953,2914
1.4302311,2915
1.0335927,2916
1.3977282,2917
1.552181,2918
1.5317959,2919
1.2756709,2920
1.508872,2921
0.94660294,2922
1.524572,2923
1.5002104,2924
1.5208123,2925
1.4517326,2926
1.2291113,2927
1.5316638,2928
1.5601267,2929
1.4618546,2930
1.5106342,2931
1.2849586,2932
1.1140697,2933
1.4624736,2934
1.520267,2935
1.4859699,2936
1.43655,2937
0.97190666,2938
1.4228365,2939
1.3166072,2940
1.3463551,2941
1.5883658,2942
1.2167879,2943
1.1246383,2944
1.4218966,2945
1.4541932,2946
1.4812716,2947
1.4000937,2948
1.2332764,2949
1.5601441,2950
1.4088135,2951
1.438951,2952
1.3806683,2953
1.243123,2954
1.5062774,2955
1.4312813,2956
1.4603575,2957
1.4805154,2958
1.3959956,2959
1.2954131,2960
1.6156551,2961
1.5210979,2962
1.5293941,2963
1.2672598,2964
1.032125,2965
1.4061788,2966
1.3535861,2967
1.4107008,2968
1.4907516,2969
1.389335,2970
1.1908808,2971
1.65295,2972
1.6546216,2973
1.6070559,2974
1.4643716,2975
1.0763612,2976
1.3770236,2977
1.4054829,2978
1.3984507,2979
1.4364619,2980
1.3546512,2981
1.2224611,2982
1.4956146,2983
1.4788016,2984
1.5856398,2985
1.47762,2986
1.2142773,2987
1.1376129,2988
1.2392317,2989
1.4275839,2990
1.4292924,2991
1.1350105,2992
1.6000391,2993
1.5239339,2994
1.4529217,2995
1.511519,2996
1.3713049,2997
1.2854435,2998
1.2687291,2999
1.437101,3000
1.4697299,3001
1.3149606,3002
1.2281485,3003
1.6300164,3004
1.592623,3005
1.6299723,3006
1.5056154,3007
1.3312687,3008
1.1399496,3009
1.1890372,3010
1.4708267,3011
1.5248765,3012
1.3846326,3013
1.1769522,3014
1.6347669,3015
1.5875579,3016
1.5554261,3017
1.4325918,3018
0.79492515,3019
1.4183782,3020
1.3763087,3021
1.3511132,3022
1.4623388,3023
1.3459866,3024
0.890486,3025
0.8751397,3026
0.9048609,3027
0.94000673,3028
1.2165531,3029
1.0614746,3030
1.3438972,3031
1.3026483,3032
1.3955112,3033
1.3406335,3034
1.3145679,3035
1.136313,3036
1.3753638,3037
1.3853858,3038
1.584443,3039
1.3254565,3040
1.0832518,3041
1.5343812,3042
1.4199808,3043
1.4474789,3044
1.3873798,3045
0.9690548,3046
1.3379618,3047
1.2425566,3048
1.4729816,3049
1.5846108,3050
1.3440762,3051
1.2454202,3052
1.5114343,3053
1.4721104,3054
1.495652,3055
1.3184239,3056
1.1697432,3057
1.4943937,3058
1.5224401,3059
1.5060364,3060
1.5004957,3061
1.2516633,3062
1.502165,3063
1.3196238,3064
1.439604,3065
1.3837347,3066
1.4196031,3067
1.3210025,3068
1.5032262,3069
1.4726415,3070
1.5712359,3071
1.4470168,3072
1.1369524,3073
1.3444823,3074
1.3810608,3075
1.409151,3076
1.388957,3077
1.1532599,3078
1.4152886,3079
1.4587083,3080
1.5008289,3081
1.4216251,3082
1.2177303,3083
1.2190564,3084
1.255987,3085
1.2397519,3086
1.2789861,3087
1.3843962,3088
1.0485185,3089
1.312907,3090
1.2741641,3091
1.3048575,3092
1.43163,3093
1.2903565,3094
1.2989523,3095
1.438202,3096
1.5211755,3097
1.4984344,3098
1.2629879,3099
1.246914,3100
1.4605559,3101
1.4414148,3102
1.47575,3103
0.99229556,3104
1.276026,3105
1.4142054,3106
1.4460429,3107
1.4325571,3108
1.2831075,3109
1.1540705,3110
1.5460023,3111
1.5344102,3112
1.5247825,3113
1.4338022,3114
1.0038009,3115
1.3302342,3116
1.4373852,3117
1.4896556,3118
1.498335,3119
1.2552409,3120
1.195655,3121
1.5312556,3122
1.5268335,3123
1.5962366,3124
1.4441615,3125
1.0650249,3126
1.2399133,3127
1.3646955,3128
1.4959973,3129
1.5111059,3130
1.2918874,3131
1.1884233,3132
1.4748,3133
1.5566839,3134
1.5710615,3135
1.6197596,3136
1.0838829,3137
1.2539531,3138
1.4483602,3139
1.4366106,3140
1.3004411,3141
1.0406919,3142
1.0985054,3143
1.3794314,3144
1.4586238,3145
1.5398413,3146
1.2368674,3147
1.2604837,3148
1.4269096,3149
1.492326,3150
1.5650711,3151
1.4340143,3152
1.1376877,3153
1.5237707,3154
1.5741869,3155
1.5966583,3156
1.4832891,3157
1.2545483,3158
1.3125247,3159
1.4594253,3160
1.4840459,3161
1.5462729,3162
1.4160784,3163
1.1940328,3164
1.4701737,3165
1.5419911,3166
1.5456493,3167
1.5596219,3168
1.2266599,3169
1.4208788,3170
1.5293772,3171
1.5168846,3172
1.4816344,3173
1.4888426,3174
1.1310109,3175
1.5810118,3176
1.6143699,3177
1.6158476,3178
1.5509515,3179
1.139297,3180
1.2723039,3181
1.4482113,3182
1.4304789,3183
1.5225413,3184
1.3807365,3185
1.1490948,3186
1.4760433,3187
1.3837732,3188
1.5067345,3189
1.5180845,3190
1.0396918,3191
1.440022,3192
1.5294038,3193
1.5184199,3194
1.3985378,3195
1.4119235,3196
1.0290602,3197
1.4118481,3198
1.5228131,3199
1.3132097,3200
1.2624947,3201
0.9699356,3202
1.3796209,3203
1.4830537,3204
1.4582129,3205
1.4829051,3206
1.2383976,3207
1.10367,3208
1.5302144,3209
1.4908465,3210
1.4529734,3211
1.3491278,3212
1.1977202,3213
1.33126,3214
1.4079404,3215
1.5264349,3216
1.4921722,3217
1.3047568,3218
1.4454329,3219
1.4732702,3220
1.4506717,3221
1.6317717,3222
1.1974908,3223
1.209712,3224
1.4647828,3225
1.4835666,3226
1.4203601,3227
1.3574903,3228
1.0522248,3229
1.5103495,3230
1.4784285,3231
1.5760405,3232
1.5039005,3233
1.2673998,3234
1.4649504,3235
1.5044259,3236
1.5751901,3237
1.5087622,3238
1.296677,3239
1.3391697,3240
1.6401448,3241
1.564488,3242
1.6188413,3243
1.456035,3244
1.0691491,3245
1.3729906,3246
1.4598287,3247
1.2856454,3248
1.5571327,3249
1.1581864,3250
1.0598196,3251
1.5774928,3252
1.5152608,3253
1.6016439,3254
1.2396277,3255
1.1296414,3256
1.4314905,3257
1.3842506,3258
1.48959,3259
1.5538256,3260
1.3234541,3261
1.1014991,3262
1.4537032,3263
1.3712176,3264
1.497225,3265
1.2128428,3266
1.1994278,3267
1.3171296,3268
1.2357808,3269
1.2427955,3270
1.3320274,3271
1.1036369,3272
1.4115419,3273
1.3808386,3274
1.528687,3275
1.5097444,3276
1.2819942,3277
1.3887703,3278
1.4714658,3279
1.6441678,3280
1.5876354,3281
1.5545568,3282
1.4149802,3283
1.560933,3284
1.5508204,3285
1.6121217,3286
1.5341852,3287
1.0040762,3288
1.3684363,3289
1.5202496,3290
1.522576,3291
1.4733944,3292
1.2521611,3293
1.5340751,3294
1.6063833,3295
1.6329495,3296
1.6550175,3297
1.1626844,3298
1.241216,3299
1.3355116,3300
1.3335232,3301
1.3559355,3302
1.3954936,3303
0.91792136,3304
1.4035385,3305
1.1954277,3306
1.5886266,3307
1.5068427,3308
1.231266,3309
1.3105103,3310
1.2226183,3311
1.1211349,3312
1.057294,3313
1.1509268,3314
1.1579804,3315
1.4594306,3316
1.608905,3317
1.5996842,3318
1.5514791,3319
1.1946203,3320
1.3286444,3321
1.5830936,3322
1.6187879,3323
1.5521286,3324
1.3350242,3325
1.0556293,3326
1.5107411,3327
1.5381824,3328
1.6810677,3329
1.5031096,3330
1.1956713,3331
1.4046891,3332
1.3629409,3333
1.4628879,3334
1.5003195,3335
1.175272,3336
1.5597456,3337
1.5786135,3338
1.4931378,3339
1.5640452,3340
1.1470435,3341
1.3066404,3342
1.3245186,3343
1.4103678,3344
1.4337965,3345
1.4625143,3346
1.2119329,3347
1.5750619,3348
1.4750644,3349
1.4139352,3350
1.4408456,3351
1.1622435,3352
1.3422247,3353
1.2649453,3354
1.3767556,3355
1.4015204,3356
1.303964,3357
1.2454666,3358
1.5409434,3359
1.445898,3360
1.4765836,3361
1.1930379,3362
1.4274532,3363
1.5042107,3364
1.7034822,3365
1.6165498,3366
1.4584309,3367
1.2838676,3368
1.5454398,3369
1.677948,3370
1.6705412,3371
1.1869595,3372
1.225276,3373
1.4787443,3374
1.4741884,3375
1.5348587,3376
1.4793756,3377
1.2427877,3378
1.3385917,3379
1.5402441,3380
1.4612279,3381
1.3959779,3382
1.4150037,3383
1.3111012,3384
1.4134585,3385
1.339563,3386
1.3589514,3387
1.3081312,3388
1.1176643,3389
1.2214931,3390
1.3049331,3391
1.2755258,3392
1.5411605,3393
1.285232,3394
1.009768,3395
1.3781785,3396
1.3398358,3397
1.3898278,3398
1.3737783,3399
1.2341657,3400
1.5023776,3401
1.4719402,3402
1.4415226,3403
1.4740667,3404
1.2228885,3405
1.2978618,3406
1.6199862,3407
1.6446944,3408
1.5087746,3409
1.3759797,3410
1.0277451,3411
1.5795486,3412
1.6869594,3413
1.742425,3414
1.5796397,3415
1.1251267,3416
1.4372967,3417
1.394683,3418
1.436071,3419
1.4904459,3420
1.2761908,3421
1.1616336,3422
1.5196016,3423
1.5312314,3424
1.4593877,3425
1.3809462,3426
1.1670085,3427
1.4049915,3428
1.3732724,3429
1.3729174,3430
1.4047793,3431
1.0801189,3432
1.2460152,3433
1.3059024,3434
1.334137,3435
1.3738102,3436
1.2021569,3437
1.2601838,3438
1.3980256,3439
1.5837381,3440
1.5510286,3441
1.2494973,3442
1.2817955,3443
1.5387093,3444
1.3312144,3445
1.3636131,3446
1.2771404,3447
1.3249102,3448
1.2485491,3449
1.3895806,3450
1.376249,3451
1.3740978,3452
1.039662,3453
1.3371794,3454
1.3782526,3455
1.5506552,3456
1.5743908,3457
1.2091297,3458
1.2045482,3459
1.4272727,3460
1.4293821,3461
1.5336448,3462
1.4866822,3463
1.149387,3464
1.4662064,3465
1.5339637,3466
1.5844314,3467
1.5925789,3468
1.3035713,3469
1.3287572,3470
1.3856333,3471
1.4535271,3472
1.3849949,3473
1.3855771,3474
1.2738116,3475
1.5301448,3476
1.6032214,3477
1.5027514,3478
1.4795865,3479
1.2687535,3480
1.4128904,3481
1.5114639,3482
1.525374,3483
1.4563917,3484
1.3299245,3485
1.3738829,3486
1.5349998,3487
1.5492119,3488
1.4050596,3489
1.1599497,3490
1.1609172,3491
1.381454,3492
1.4375699,3493
1.4774537,3494
1.419642,3495
1.136179,3496
1.5105481,3497
1.5706135,3498
1.5185248,3499
1.594246,3500
1.1848564,3501
1.2268246,3502
1.4457862,3503
1.5415202,3504
1.5491242,3505
1.4179907,3506
1.0706347,3507
1.4708533,3508
1.4445418,3509
1.5621068,3510
1.5089833,3511
1.2778676,3512
1.4421204,3513
1.5233741,3514
1.5681618,3515
1.5153782,3516
1.4656544,3517
1.197426,3518
1.6000563,3519
1.6032248,3520
1.6069093,3521
1.5233214,3522
1.2134662,3523
1.428839,3524
1.4915905,3525
1.4047529,3526
1.5570089,3527
1.4378638,3528
1.224838,3529
1.5177618,3530
1.5372527,3531
1.6205132,3532
1.5953249,3533
1.4513984,3534
1.2232903,3535
1.3981014,3536
1.4364828,3537
1.4116024,3538
1.3704743,3539
1.3683658,3540
1.3233024,3541
1.3447148,3542
1.3591424,3543
1.2417651,3544
1.2230523,3545
1.0190768,3546
1.3773606,3547
1.3310218,3548
1.2580725,3549
1.3384556,3550
1.1504498,3551
1.3415848,3552
1.1916625,3553
1.3541038,3554
1.542617,3555
1.3370997,3556
1.1068983,3557
1.4888217,3558
1.3523991,3559
1.2752489,3560
1.263409,3561
0.9857807,3562
1.3673655,3563
1.2690127,3564
1.2766074,3565
1.0208807,3566
1.260691,3567
1.3633059,3568
0.91294974,3569
1.3738425,3570
1.5442234,3571
1.4865941,3572
1.2399739,3573
1.5917075,3574
1.046928,3575
1.2841891,3576
1.5937506,3577
1.4217942,3578
1.5736877,3579
1.6144085,3580
1.6468369,3581
1.6613289,3582
1.5526367,3583
1.6303767,3584
1.5774217,3585
1.6311483,3586
1.6566758,3587
1.4413717,3588
0.91822344,3589
0.75622374,3590
0.99187654,3591
0.9670433,3592
1.1686695,3593
1.4019792,3594
1.4614298,3595
1.4382817,3596
1.2201775,3597
1.2584008,3598
1.24582,3599
1.2703954,3600
1.1934625,3601
1.2903712,3602
1.3424662,3603
1.3583367,3604
1.3111573,3605
1.1654444,3606
1.2336577,3607
1.5268838,3608
1.6101607,3609
1.4553187,3610
1.3008358,3611
1.328094,3612
1.3434736,3613
1.312918,3614
1.1576436,3615
1.1845121,3616
1.1875205,3617
1.0282714,3618
0.90859437,3619
1.381653,3620
1.3581421,3621
1.5559179,3622
1.4482424,3623
1.4442413,3624
1.1227591,3625
1.287132,3626
1.3741256,3627
1.3879015,3628
1.3815697,3629
1.3870791,3630
1.0156002,3631
1.2804503,3632
1.4027163,3633
1.4311917,3634
1.4184891,3635
1.0240163,3636
1.4525572,3637
1.5280422,3638
1.3408238,3639
1.4317003,3640
1.1725326,3641
1.0947944,3642
1.2595632,3643
1.3861269,3644
1.3688582,3645
1.3774471,3646
1.1763175,3647
1.456057,3648
1.3799658,3649
1.4105475,3650
1.3769422,3651
1.2011323,3652
1.2882563,3653
1.4501649,3654
1.5389341,3655
1.559302,3656
1.3772323,3657
1.325765,3658
1.6220936,3659
1.6262223,3660
1.413821,3661
1.3585156,3662
1.2116843,3663
1.4991361,3664
1.4384923,3665
1.3548269,3666
1.4764497,3667
1.3963343,3668
1.3711944,3669
1.6349082,3670
1.6433198,3671
1.6550801,3672
1.2088764,3673
1.2979847,3674
1.4840734,3675
1.4085624,3676
1.555353,3677
1.4992274,3678
1.2325021,3679
1.4871147,3680
1.4066517,3681
1.3868397,3682
1.4973638,3683
1.2371049,3684
1.1859096,3685
1.5422208,3686
1.6056631,3687
1.6249502,3688
1.5241715,3689
1.2406167,3690
1.3885912,3691
1.446941,3692
1.5842793,3693
1.5637128,3694
1.1412927,3695
1.1365105,3696
1.4795296,3697
1.514085,3698
1.5262594,3699
1.5008478,3700
1.1785024,3701
1.2521601,3702
1.2697383,3703
1.288914,3704
1.3910631,3705
1.119149,3706
1.3023702,3707
1.3251528,3708
1.3604369,3709
1.4384156,3710
1.3203459,3711
1.1150699,3712
1.3838912,3713
1.3087076,3714
1.4170187,3715
1.4006901,3716
1.0768361,3717
1.2741867,3718
1.1428487,3719
1.5216552,3720
1.4859457,3721
1.1692477,3722
1.3389242,3723
1.5586101,3724
1.4773607,3725
1.3765231,3726
1.1225674,3727
1.1419044,3728
1.3557127,3729
1.3812419,3730
1.416,3731
1.3136116,3732
1.0697793,3733
1.273943,3734
1.4226658,3735
1.623981,3736
1.4375057,3737
0.9995667,3738
1.4316294,3739
1.4844227,3740
1.5398288,3741
1.5329995,3742
1.1930629,3743
0.91458404,3744
1.47608,3745
1.4216684,3746
1.599646,3747
1.5323173,3748
1.1272925,3749
1.2651033,3750
1.2946413,3751
1.6031986,3752
1.6545057,3753
1.269544,3754
1.389611,3755
1.5755216,3756
1.5560344,3757
1.6402562,3758
1.2929639,3759
0.9435912,3760
1.4195517,3761
1.4513235,3762
1.5912639,3763
1.5402128,3764
1.3214798,3765
1.0720228,3766
1.5019718,3767
1.5224271,3768
1.6308517,3769
1.4187586,3770
0.98924196,3771
1.5770957,3772
1.5643277,3773
1.6069303,3774
1.6359987,3775
1.0866827,3776
1.1376054,3777
1.4987651,3778
1.6253232,3779
1.7012451,3780
1.0738314,3781
1.210668,3782
1.4574147,3783
1.5605744,3784
1.6049123,3785
1.3858778,3786
1.1228508,3787
1.2737684,3788
1.3551191,3789
1.5903546,3790
1.5911598,3791
1.0566192,3792
1.3582213,3793
1.4948777,3794
1.6362367,3795
1.5544688,3796
1.2315888,3797
1.2053394,3798
1.5015719,3799
1.3412449,3800
1.0983765,3801
1.0922793,3802
0.8295145,3803
1.0951937,3804
1.0564969,3805
1.1419524,3806
1.2531202,3807
1.0806677,3808
1.4185251,3809
1.6397412,3810
1.4368855,3811
1.5937321,3812
1.3613114,3813
1.1101604,3814
1.0709966,3815
1.3242648,3816
1.5369879,3817
1.5295591,3818
0.90811104,3819
1.2719526,3820
1.3420222,3821
1.4565586,3822
1.4204209,3823
1.2477863,3824
1.186252,3825
1.4119327,3826
1.4752713,3827
1.6233503,3828
1.3319012,3829
1.1741405,3830
1.3407677,3831
1.417199,3832
1.5533992,3833
1.4616274,3834
1.1468205,3835
1.398274,3836
1.5594312,3837
1.7310553,3838
1.6881226,3839
1.4965609,3840
1.1032709,3841
1.4735924,3842
1.5588751,3843
1.7073152,3844
1.386834,3845
1.1959785,3846
1.3001196,3847
1.3579745,3848
1.4066255,3849
1.5237707,3850
1.0842128,3851
1.4428368,3852
1.5522813,3853
1.6344016,3854
1.6865517,3855
1.3142102,3856
1.2584423,3857
1.345068,3858
1.4503847,3859
1.4579954,3860
1.3948834,3861
1.2627139,3862
1.378724,3863
1.5651696,3864
1.6677332,3865
1.4430695,3866
1.1848929,3867
1.265596,3868
1.487058,3869
1.4847028,3870
1.5137897,3871
1.3223842,3872
1.1658741,3873
1.5330342,3874
1.6169996,3875
1.6153585,3876
1.3238959,3877
1.2321951,3878
1.2952306,3879
1.4230492,3880
1.4416947,3881
1.423123,3882
1.0248425,3883
1.315494,3884
1.333924,3885
1.5215594,3886
1.446971,3887
1.2526758,3888
1.1003059,3889
1.3863422,3890
1.5029583,3891
1.5159553,3892
1.4533257,3893
1.2553185,3894
1.340081,3895
1.4029337,3896
1.3766029,3897
1.3360085,3898
0.95308024,3899
1.21476,3900
1.2746755,3901
1.3878464,3902
1.3910781,3903
1.2534595,3904
0.9467089,3905
1.0986873,3906
1.4078957,3907
1.530118,3908
1.3988963,3909
1.256545,3910
1.5320402,3911
1.3740643,3912
1.5379691,3913
1.4913236,3914
1.3179033,3915
1.2948108,3916
1.4117664,3917
1.5061997,3918
1.5905917,3919
1.302072,3920
1.1230937,3921
1.4170678,3922
1.4436604,3923
1.5924463,3924
1.4965116,3925
1.2388947,3926
1.7422216,3927
1.7358576,3928
1.7189449,3929
1.4725584,3930
1.2254015,3931
1.2492645,3932
1.4258718,3933
1.4857973,3934
1.5053505,3935
1.109082,3936
1.2735281,3937
1.2982767,3938
1.4154598,3939
1.5672098,3940
1.5384552,3941
1.2554501,3942
1.5619454,3943
1.463186,3944
1.587983,3945
1.5503687,3946
1.1911937,3947
1.4628913,3948
1.4641858,3949
1.3232734,3950
1.4353137,3951
1.2244959,3952
1.3839134,3953
1.4583342,3954
1.535714,3955
1.2982635,3956
1.1674448,3957
0.8196861,3958
1.008169,3959
0.9860911,3960
1.0350409,3961
1.1750563,3962
1.1812425,3963
1.2517363,3964
1.3212044,3965
1.432431,3966
1.5310912,3967
1.3442072,3968
1.1001587,3969
1.4333296,3970
1.319875,3971
1.4251999,3972
1.4136928,3973
1.3208421,3974
1.2021724,3975
1.3183202,3976
1.4194219,3977
1.4560319,3978
1.2608954,3979
1.2614287,3980
1.431089,3981
1.389463,3982
1.3220471,3983
1.1714213,3984
1.0581197,3985
1.2727748,3986
1.2686443,3987
1.389825,3988
1.4379926,3989
1.1179063,3990
1.3046418,3991
1.3792536,3992
1.5674102,3993
1.4894009,3994
0.9487562,3995
1.3030001,3996
1.5255299,3997
1.5400354,3998
1.5139583,3999
1.3293896,4000
1.0801313,4001
1.2668257,4002
1.4610868,4003
1.5305588,4004
1.4630295,4005
1.3150411,4006
1.4256771,4007
1.3878525,4008
1.4698057,4009
1.4893202,4010
1.3015841,4011
1.4014348,4012
1.600328,4013
1.6966422,4014
1.723377,4015
1.391287,4016
1.1767235,4017
1.5003408,4018
1.3633484,4019
1.5972366,4020
1.519255,4021
1.0126094,4022
1.4616176,4023
1.5255477,4024
1.5073334,4025
1.5273131,4026
1.2373301,4027
1.463131,4028
1.5125179,4029
1.5851126,4030
1.6170492,4031
1.3906649,4032
1.2178819,4033
1.3971418,4034
1.0799962,4035
1.0937014,4036
1.5533372,4037
1.1374723,4038
1.3060122,4039
1.45958,4040
1.4464632,4041
1.4903886,4042
1.2313055,4043
0.8970364,4044
1.2758224,4045
1.3589438,4046
1.5669702,4047
1.5026101,4048
1.2637237,4049
1.5554284,4050
1.5733854,4051
1.6401284,4052
1.6261609,4053
1.1734523,4054
1.2794349,4055
1.5588123,4056
1.5094048,4057
1.7488923,4058
1.3385295,4059
1.1448674,4060
1.3534878,4061
1.2965602,4062
1.3464613,4063
1.4126788,4064
1.0918139,4065
1.55357,4066
1.6298718,4067
1.6574672,4068
1.6051432,4069
1.3322073,4070
1.2896833,4071
1.3881961,4072
1.4525539,4073
1.6945492,4074
1.5460386,4075
1.1306591,4076
1.2101729,4077
1.216237,4078
1.3577205,4079
1.298795,4080
1.2105283,4081
1.3056198,4082
1.3738793,4083
1.4442962,4084
1.2506974,4085
1.1225071,4086
0.8489136,4087
1.0971316,4088
1.4023416,4089
1.4804438,4090
1.4607792,4091
1.0788928,4092
1.4986151,4093
1.5625478,4094
1.570304,4095
1.5575417,4096
1.1190054,4097
1.3773911,4098
1.4723194,4099
1.6164155,4100
1.655374,4101
1.03206,4102
1.2779033,4103
1.326812,4104
1.3260852,4105
1.4061887,4106
1.4683732,4107
1.1044796,4108
1.5816191,4109
1.5436605,4110
1.5868583,4111
1.6170576,4112
1.1873595,4113
1.0424618,4114
1.2717131,4115
1.3478621,4116
1.4538784,4117
1.2993401,4118
0.93044573,4119
1.4142056,4120
1.5010252,4121
1.6158335,4122
1.5543991,4123
1.3921261,4124
1.4552889,4125
1.5488653,4126
1.6199826,4127
1.5249778,4128
1.1813596,4129
1.5687331,4130
1.4239548,4131
1.608119,4132
1.4517514,4133
1.403981,4134
1.1431298,4135
1.4171882,4136
1.3860284,4137
1.3781163,4138
1.3540345,4139
1.0502591,4140
1.4007255,4141
1.3191926,4142
1.470664,4143
1.4141254,4144
1.2300206,4145
1.1555418,4146
1.2322772,4147
1.4861292,4148
1.5068482,4149
1.2263145,4150
1.1259493,4151
1.5024525,4152
1.4394855,4153
1.3806362,4154
1.4248643,4155
1.1561613,4156
1.2209775,4157
1.2931526,4158
1.369849,4159
1.6295035,4160
1.0075527,4161
1.0851971,4162
1.4397429,4163
1.4034674,4164
1.5626913,4165
1.3766491,4166
1.2832131,4167
1.5585121,4168
1.5577785,4169
1.5600804,4170
1.4597561,4171
1.1973913,4172
1.3974433,4173
1.54075,4174
1.5431135,4175
1.5221009,4176
1.262254,4177
1.2723929,4178
1.437541,4179
1.3784968,4180
1.5881681,4181
1.3937052,4182
1.1974661,4183
1.682587,4184
1.6857088,4185
1.6881826,4186
1.530933,4187
1.3104135,4188
1.3062605,4189
1.3615512,4190
1.5115794,4191
1.5035384,4192
1.2242975,4193
1.1993482,4194
1.4741815,4195
1.5054077,4196
1.586628,4197
1.5629355,4198
1.0470456,4199
1.5743567,4200
1.5297083,4201
1.6415806,4202
1.5926629,4203
1.1192318,4204
1.0227574,4205
1.3034236,4206
1.508429,4207
1.5410633,4208
1.2786475,4209
1.1618053,4210
1.449846,4211
1.4766301,4212
1.5759803,4213
1.5856864,4214
1.2849796,4215
1.3472205,4216
1.0036969,4217
1.1068201,4218
1.2661378,4219
1.1970527,4220
1.213375,4221
1.4073906,4222
1.450877,4223
1.4531617,4224
1.4415927,4225
1.0616597,4226
1.3022677,4227
1.3239046,4228
1.3988874,4229
1.5077564,4230
1.2236556,4231
1.2876687,4232
1.2203522,4233
1.2637991,4234
1.421936,4235
1.2470516,4236
1.1376855,4237
1.3698163,4238
1.4629186,4239
1.3567067,4240
1.4861435,4241
1.2396897,4242
1.348566,4243
1.2997146,4244
1.4563953,4245
1.5240352,4246
1.1111356,4247
1.2314453,4248
1.4316725,4249
1.5090483,4250
1.4814233,4251
1.3629695,4252
1.353071,4253
1.4966979,4254
1.5810442,4255
1.592418,4256
1.523456,4257
1.233668,4258
1.4395294,4259
1.3865385,4260
1.455301,4261
1.4032001,4262
1.1067587,4263
1.3423576,4264
1.2491301,4265
1.286813,4266
1.4732586,4267
1.5043752,4268
1.1833124,4269
1.7066842,4270
1.6801721,4271
1.6959704,4272
1.4184827,4273
1.037016,4274
1.4005069,4275
1.3906329,4276
1.606172,4277
1.5728922,4278
1.287052,4279
1.009097,4280
1.3779517,4281
1.5097317,4282
1.6372223,4283
1.4920615,4284
1.3182595,4285
1.6386647,4286
1.5353636,4287
1.6189151,4288
1.5356765,4289
1.4065517,4290
1.267992,4291
1.4598421,4292
1.5967662,4293
1.6676168,4294
1.2898997,4295
1.4211948,4296
1.3676686,4297
1.4880512,4298
1.5979724,4299
1.3703746,4300
0.9555441,4301
1.467776,4302
1.6028122,4303
1.6319721,4304
1.5596484,4305
1.1248404,4306
1.3152944,4307
1.55241,4308
1.5193686,4309
1.4858147,4310
1.4820298,4311
1.3180914,4312
1.3006793,4313
1.2837461,4314
1.2726845,4315
1.0750676,4316
0.84812987,4317
0.83256006,4318
0.9217769,4319
1.02566,4320
1.1920991,4321
1.192562,4322
1.2414697,4323
1.5554949,4324
1.5899343,4325
1.5624379,4326
1.3535562,4327
1.0925914,4328
1.4000032,4329
1.3784337,4330
1.6027648,4331
1.5287648,4332
1.2087342,4333
1.1412476,4334
1.4610947,4335
1.5274358,4336
1.5335767,4337
1.2279882,4338
1.2489626,4339
1.4952446,4340
1.6164978,4341
1.5846019,4342
1.3836856,4343
1.2088091,4344
1.4074532,4345
1.486087,4346
1.554339,4347
1.3920206,4348
1.1658744,4349
1.527785,4350
1.5956162,4351
1.6489736,4352
1.6523211,4353
1.4207994,4354
1.1174517,4355
1.3312355,4356
1.5116522,4357
1.5611198,4358
1.2416877,4359
1.0303648,4360
1.3756834,4361
1.3866994,4362
1.4709363,4363
1.5349351,4364
1.2939187,4365
1.3805562,4366
1.5490388,4367
1.5950361,4368
1.6405818,4369
1.3920143,4370
1.052049,4371
1.454609,4372
1.332903,4373
1.5217096,4374
1.4551828,4375
1.1872956,4376
1.165227,4377
1.374254,4378
1.7002511,4379
1.6297473,4380
1.3363116,4381
0.9469517,4382
1.4094173,4383
1.4738144,4384
1.5362278,4385
1.4302286,4386
1.1855941,4387
1.3226758,4388
1.4331925,4389
1.471041,4390
1.4784245,4391
1.0950376,4392
1.2940594,4393
1.4061157,4394
1.5217448,4395
1.499508,4396
1.4231943,4397
1.0012114,4398
1.3817431,4399
1.4107547,4400
1.4380842,4401
1.3865709,4402
0.9974745,4403
1.4133611,4404
1.5009224,4405
1.4501412,4406
1.4789135,4407
1.0010312,4408
1.2967432,4409
1.5011388,4410
1.5278462,4411
1.5549858,4412
1.266636,4413
1.048121,4414
1.2409712,4415
1.3962235,4416
1.441873,4417
1.3996603,4418
1.0301166,4419
1.398913,4420
1.2937733,4421
1.4915373,4422
1.497065,4423
1.2670181,4424
1.3485874,4425
1.5452532,4426
1.6150146,4427
1.5251312,4428
1.3793093,4429
1.0567417,4430
1.3860488,4431
1.2938282,4432
1.4713697,4433
1.5433879,4434
1.0344481,4435
1.2230567,4436
1.2903646,4437
1.458741,4438
1.5833774,4439
1.224073,4440
1.4781432,4441
1.6652143,4442
1.6366552,4443
1.6945056,4444
1.4074934,4445
1.0143085,4446
1.3765981,4447
1.4685649,4448
1.5992262,4449
1.4842483,4450
1.1484147,4451
1.509858,4452
1.5609426,4453
1.5595533,4454
1.5121254,4455
1.2405351,4456
1.3130724,4457
1.6147578,4458
1.5959847,4459
1.632788,4460
1.5000715,4461
1.0797634,4462
1.5025982,4463
1.4941514,4464
1.5736252,4465
1.2767556,4466
1.298488,4467
1.1431398,4468
1.5286157,4469
1.4886969,4470
1.5463206,4471
1.2818077,4472
0.97615343,4473
1.0060973,4474
1.007274,4475
1.068329,4476
1.1343886,4477
1.0928426,4478
1.3453003,4479
1.3489112,4480
1.4572476,4481
1.4539236,4482
1.2697984,4483
1.1151806,4484
1.301713,4485
1.3083647,4486
1.3751949,4487
1.4221961,4488
1.0868077,4489
1.2549871,4490
1.3277739,4491
1.4502629,4492
1.4867319,4493
1.3088526,4494
1.2283533,4495
1.4734896,4496
1.4481584,4497
1.5241332,4498
1.4184078,4499
1.0802569,4500
1.4215152,4501
1.4635009,4502
1.5320406,4503
1.6116524,4504
1.1695644,4505
1.107071,4506
1.4035951,4507
1.642501,4508
1.6310055,4509
1.3718156,4510
1.1694682,4511
1.5357511,4512
1.5649765,4513
1.5302511,4514
1.3982247,4515
1.3171673,4516
1.3599994,4517
1.4219625,4518
1.3927361,4519
1.507253,4520
1.2812101,4521
1.4871731,4522
1.3878772,4523
1.4133509,4524
1.6168991,4525
1.5054466,4526
1.1941366,4527
1.629566,4528
1.6948843,4529
1.7222235,4530
1.4309888,4531
1.1250552,4532
1.3826658,4533
1.3854563,4534
1.5365659,4535
1.51466,4536
1.4138497,4537
1.1715786,4538
1.4835135,4539
1.5741813,4540
1.6233621,4541
1.1946023,4542
1.4311184,4543
1.5220107,4544
1.602475,4545
1.669888,4546
1.5105171,4547
1.2652158,4548
1.3749183,4549
1.5035237,4550
1.541361,4551
1.7610388,4552
1.0779557,4553
1.2396054,4554
1.2980831,4555
1.5187503,4556
1.5257803,4557
1.5610378,4558
1.2508676,4559
1.3052447,4560
1.4774407,4561
1.698505,4562
1.6199371,4563
1.4536546,4564
1.6202753,4565
1.4858289,4566
1.6510551,4567
1.5997539,4568
1.4553807,4569
1.1876198,4570
1.6246186,4571
1.6258553,4572
1.5789374,4573
1.425714,4574
1.1465862,4575
1.421267,4576
1.5532813,4577
1.5301049,4578
1.5063976,4579
1.3975161,4580
1.1033704,4581
1.4214567,4582
1.6845595,4583
1.7764244,4584
1.5623193,4585
1.3574324,4586
1.3670481,4587
1.475415,4588
1.3273191,4589
1.0739259,4590
1.168587,4591
1.0528477,4592
1.3042542,4593
1.4792553,4594
1.5753646,4595
1.2778268,4596
1.191425,4597
1.4524288,4598
1.4367627,4599
1.5579327,4600
1.569047,4601
1.3885975,4602
0.90477777,4603
1.1676509,4604
1.4409436,4605
1.579391,4606
1.2950418,4607
1.299797,4608
1.5257827,4609
1.5534844,4610
1.5916736,4611
1.5500866,4612
1.2979932,4613
1.3955647,4614
1.5174038,4615
1.6437507,4616
1.5990007,4617
1.2197963,4618
1.2846828,4619
1.4361486,4620
1.4851148,4621
1.6259186,4622
1.350167,4623
1.1859205,4624
1.6154295,4625
1.6159339,4626
1.6116192,4627
1.5209764,4628
1.2367284,4629
1.2211573,4630
1.266791,4631
1.4580712,4632
1.4884592,4633
1.1101516,4634
1.2215632,4635
1.3014702,4636
1.3793389,4637
1.5273398,4638
1.2346094,4639
1.1980534,4640
1.4535011,4641
1.3660647,4642
1.5398631,4643
1.4285649,4644
0.998454,4645
1.4181869,4646
1.3500522,4647
1.5366855,4648
1.5939137,4649
1.3571819,4650
1.4128258,4651
1.4571466,4652
1.2867796,4653
1.2715147,4654
1.1187946,4655
1.0128158,4656
1.282664,4657
1.2449414,4658
1.251408,4659
1.3508465,4660
0.9424446,4661
1.2232947,4662
1.176668,4663
1.359596,4664
1.4535966,4665
1.339515,4666
1.3942816,4667
1.5772306,4668
1.5574286,4669
1.5182757,4670
1.3392802,4671
1.2337173,4672
1.5307447,4673
1.482358,4674
1.609528,4675
1.4707077,4676
1.0508249,4677
1.4366335,4678
1.3239092,4679
1.5526146,4680
1.5472424,4681
1.3062208,4682
1.3526546,4683
1.5305017,4684
1.5676668,4685
1.498486,4686
1.4249415,4687
1.0899932,4688
1.3929822,4689
1.4469146,4690
1.580321,4691
1.5488855,4692
1.1553416,4693
1.4323156,4694
1.4495305,4695
1.4198108,4696
1.5552136,4697
1.4320999,4698
1.3900399,4699
1.6707497,4700
1.7400835,4701
1.7308722,4702
1.4145269,4703
1.3326977,4704
1.3916757,4705
1.3354243,4706
1.5646167,4707
1.5824257,4708
1.4547992,4709
1.1990638,4710
1.4285265,4711
1.4469037,4712
1.535025,4713
1.2434636,4714
1.255444,4715
1.5991195,4716
1.6504024,4717
1.5987841,4718
1.434655,4719
1.1700672,4720
1.4548376,4721
1.4609591,4722
1.5132506,4723
1.5923216,4724
1.315246,4725
1.1847428,4726
1.53837,4727
1.5672178,4728
1.5902097,4729
1.4041977,4730
0.9804766,4731
1.4770598,4732
1.42738,4733
1.5322543,4734
1.553748,4735
1.3713288,4736
1.5044241,4737
1.605177,4738
1.62429,4739
1.6426613,4740
1.2865903,4741
1.0678275,4742
1.4929314,4743
1.4875959,4744
1.5240595,4745
1.3560272,4746
1.140996,4747
1.303726,4748
1.2937424,4749
1.3715826,4750
1.4816436,4751
1.3271018,4752
1.2331746,4753
1.6392443,4754
1.6402494,4755
1.6116072,4756
1.3448946,4757
1.1749344,4758
1.48933,4759
1.5430105,4760
1.6092589,4761
1.5353411,4762
1.16881,4763
1.2146751,4764
1.5138919,4765
1.5934931,4766
1.7077173,4767
1.2168717,4768
1.198924,4769
1.4898103,4770
1.5625077,4771
1.5922729,4772
1.4414927,4773
1.255623,4774
1.5052123,4775
1.509314,4776
1.6234103,4777
1.4825456,4778
1.2679318,4779
1.5444428,4780
1.683675,4781
1.6175082,4782
1.5055741,4783
1.3721399,4784
1.3116809,4785
1.634724,4786
1.5677109,4787
1.6808503,4788
1.4160986,4789
1.1246399,4790
1.2684458,4791
1.2639519,4792
1.4068639,4793
1.4746991,4794
1.0318338,4795
1.2403642,4796
1.6043447,4797
1.5784705,4798
1.6252825,4799
1.4641305,4800
1.0422957,4801
1.353784,4802
1.3635288,4803
1.6255124,4804
1.38582,4805
0.90977776,4806
1.3461199,4807
1.3858953,4808
1.6141542,4809
1.6406318,4810
1.0520686,4811
1.2381843,4812
1.3759998,4813
1.4521164,4814
1.5809153,4815
1.2613883,4816
1.2816455,4817
1.4884945,4818
1.4129148,4819
1.5426713,4820
1.4839933,4821
1.1670924,4822
1.4302325,4823
1.5963148,4824
1.6283416,4825
1.5732418,4826
1.3807763,4827
1.3114754,4828
1.5681393,4829
1.5316852,4830
1.5855736,4831
1.1617285,4832
1.2732906,4833
1.3180159,4834
1.3006973,4835
1.3822227,4836
1.1243161,4837
0.9932469,4838
1.5683924,4839
1.6261833,4840
1.6088756,4841
1.5954846,4842
1.3445873,4843
1.2594702,4844
1.5594321,4845
1.4357208,4846
1.6412773,4847
1.4858475,4848
0.9156409,4849
1.3998351,4850
1.4747018,4851
1.5649191,4852
1.5323355,4853
1.1799706,4854
1.4586924,4855
1.5315841,4856
1.484435,4857
1.4280937,4858
1.3298515,4859
1.1717783,4860
1.4136852,4861
1.4571544,4862
1.6140096,4863
1.2054791,4864
1.1717527,4865
1.3904618,4866
1.3738037,4867
1.494255,4868
1.405784,4869
1.078879,4870
1.512074,4871
1.6141313,4872
1.6905423,4873
1.6271162,4874
1.3220372,4875
1.3004584,4876
1.3549109,4877
1.3984537,4878
1.4684972,4879
1.3897549,4880
0.9727726,4881
1.3315248,4882
1.2929463,4883
1.2783942,4884
1.5330919,4885
1.2350969,4886
1.5006912,4887
1.6708618,4888
1.5395998,4889
1.5711358,4890
1.4722127,4891
1.1920917,4892
1.4740955,4893
1.4376146,4894
1.5750797,4895
1.3748016,4896
1.1388395,4897
1.4069891,4898
1.3436106,4899
1.490105,4900
1.5174743,4901
1.3546326,4902
1.1689725,4903
1.5835248,4904
1.5927391,4905
1.6259314,4906
1.4856272,4907
1.2330137,4908
1.5551628,4909
1.6854001,4910
1.6625264,4911
1.6202571,4912
1.1950886,4913
1.3690243,4914
1.5283614,4915
1.62946,4916
1.766022,4917
1.2581116,4918
1.132881,4919
1.4124255,4920
1.341181,4921
1.4304781,4922
1.4348764,4923
1.388276,4924
1.5430106,4925
1.5905938,4926
1.5651282,4927
1.4761478,4928
1.0694605,4929
1.31466,4930
1.2787328,4931
1.4155009,4932
1.5332263,4933
1.2961208,4934
1.071362,4935
1.3774958,4936
1.5299919,4937
1.6573999,4938
1.3857976,4939
1.09174,4940
1.5256836,4941
1.453267,4942
1.4565308,4943
1.4567373,4944
1.1497498,4945
1.2703528,4946
1.516172,4947
1.6213276,4948
1.5446901,4949
1.4860913,4950
1.3230104,4951
1.5542476,4952
1.6291084,4953
1.5808802,4954
1.5746572,4955
1.0696875,4956
1.1850554,4957
1.4607056,4958
1.591052,4959
1.5685408,4960
1.1568441,4961
1.0807658,4962
1.3388844,4963
1.2955605,4964
1.60519,4965
1.4651752,4966
1.0621325,4967
1.5243771,4968
1.6310796,4969
1.6092973,4970
1.5100778,4971
1.1266687,4972
1.3379524,4973
1.3242724,4974
1.5227032,4975
1.4623526,4976
1.3893719,4977
1.0820705,4978
1.414046,4979
1.5450534,4980
1.5975804,4981
1.5289675,4982
0.9760773,4983
1.5073297,4984
1.4618797,4985
1.489473,4986
1.5579048,4987
1.4323612,4988
1.2618674,4989
1.538148,4990
1.64208,4991
1.638545,4992
1.5320283,4993
1.1126524,4994
1.5851066,4995
1.6946197,4996
1.6187083,4997
1.6167196,4998
1.5533965,4999
1.0621325,5000
1.41078,5001
1.532866,5002
1.6806126,5003
1.4231284,5004
1.0516305,5005
1.4210578,5006
1.2452836,5007
1.4655752,5008
1.493767,5009
1.2158568,5010
1.6069578,5011
1.5792774,5012
1.5812068,5013
1.7300258,5014
1.4592261,5015
1.0755796,5016
1.501497,5017
1.6126312,5018
1.6642461,5019
1.4607737,5020
1.2281506,5021
1.5185555,5022
1.4987969,5023
1.6290824,5024
1.6767495,5025
1.315583,5026
1.3264453,5027
1.4257439,5028
1.5274837,5029
1.4549153,5030
1.3906567,5031
1.112249,5032
1.5240669,5033
1.5976107,5034
1.5672667,5035
1.6165051,5036
1.0314106,5037
1.1907465,5038
1.2992674,5039
1.4198917,5040
1.5504574,5041
1.4199481,5042
1.3552274,5043
1.6551253,5044
1.6991761,5045
1.7410557,5046
1.5571567,5047
1.1726258,5048
1.3570664,5049
1.2945491,5050
1.5271376,5051
1.5903184,5052
1.2579838,5053
1.1962947,5054
1.4493537,5055
1.5596132,5056
1.6590693,5057
1.308274,5058
1.2877312,5059
1.5565822,5060
1.5933027,5061
1.5829667,5062
1.5106788,5063
1.3468978,5064
1.3534081,5065
1.5889194,5066
1.6106356,5067
1.521505,5068
1.2582338,5069
1.2224711,5070
1.5479774,5071
1.5495517,5072
1.579149,5073
1.5527037,5074
0.9771567,5075
1.4917895,5076
1.5718206,5077
1.6159185,5078
1.6412611,5079
1.2552364,5080
1.1675448,5081
1.6354376,5082
1.562288,5083
1.6761608,5084
1.5256318,5085
1.2962742,5086
1.4208634,5087
1.3370708,5088
1.6745046,5089
1.3986266,5090
1.3647615,5091
1.209322,5092
1.368403,5093
1.4881425,5094
1.4870505,5095
1.326123,5096
1.2140372,5097
1.5400416,5098
1.5786109,5099
1.6711191,5100
1.3176523,5101
1.2011602,5102
1.1261897,5103
1.2717793,5104
1.4361918,5105
1.478136,5106
0.99695987,5107
1.3838198,5108
1.4656615,5109
1.4996789,5110
1.5891101,5111
1.4384812,5112
1.2663957,5113
1.4942666,5114
1.5107518,5115
1.536455,5116
1.4196299,5117
1.0308136,5118
1.3476193,5119
1.4645861,5120
1.596498,5121
1.5084658,5122
1.1563681,5123
1.3944668,5124
1.5203635,5125
1.6310683,5126
1.5568477,5127
1.3492956,5128
1.0394937,5129
1.4362732,5130
1.4994965,5131
1.531011,5132
1.441897,5133
1.0615528,5134
1.2662274,5135
1.4555854,5136
1.4456173,5137
1.5750799,5138
1.2256814,5139
1.3704151,5140
1.5449598,5141
1.6997387,5142
1.6162579,5143
1.3278893,5144
1.1077294,5145
1.2114712,5146
1.4010904,5147
1.4885148,5148
1.4600205,5149
1.0098543,5150
1.2520721,5151
1.311325,5152
1.5233269,5153
1.5863584,5154
1.1571665,5155
1.2270674,5156
1.4774269,5157
1.498601,5158
1.4876467,5159
1.5286195,5160
1.1909244,5161
1.4894636,5162
1.6168952,5163
1.51849,5164
1.5448989,5165
1.0849739,5166
1.447019,5167
1.543581,5168
1.5794631,5169
1.6000472,5170
1.3920038,5171
1.0165049,5172
1.404408,5173
1.3990412,5174
1.6832224,5175
1.3750902,5176
0.86742526,5177
1.1812367,5178
1.297905,5179
1.3212949,5180
1.4835148,5181
1.2608715,5182
1.2450905,5183
1.5514477,5184
1.61797,5185
1.6008843,5186
1.4329442,5187
1.0549152,5188
1.4309955,5189
1.6468639,5190
1.5828195,5191
1.5692763,5192
1.1100851,5193
1.3179314,5194
1.4792577,5195
1.5996033,5196
1.6191823,5197
1.1416444,5198
1.2822155,5199
1.5080217,5200
1.5353365,5201
1.549833,5202
1.4090915,5203
1.2703962,5204
1.539712,5205
1.5910136,5206
1.7149119,5207
1.4700897,5208
1.1048491,5209
1.2713934,5210
1.238723,5211
1.5193218,5212
1.5842878,5213
1.4632009,5214
1.1925281,5215
1.7292415,5216
1.6178132,5217
1.7304597,5218
1.2827203,5219
1.2032994,5220
1.3998986,5221
1.3073492,5222
1.5365931,5223
1.4887396,5224
1.1100024,5225
1.3030795,5226
1.4117173,5227
1.585961,5228
1.6307714,5229
1.2004741,5230
1.3230573,5231
1.6074167,5232
1.5762889,5233
1.5342659,5234
1.3773309,5235
1.0063815,5236
1.5316305,5237
1.3850913,5238
1.5491722,5239
1.5557667,5240
0.97709596,5241
1.4290049,5242
1.5351981,5243
1.5290627,5244
1.5817442,5245
1.4908344,5246
1.2129534,5247
1.5431936,5248
1.5381683,5249
1.5920565,5250
1.4617283,5251
1.2020466,5252
1.4209946,5253
1.5752547,5254
1.6699913,5255
1.6484336,5256
1.4869548,5257
1.3774568,5258
1.6140049,5259
1.6179252,5260
1.6692764,5261
1.4502321,5262
1.0697957,5263
1.3760866,5264
1.3409469,5265
1.4127551,5266
1.563133,5267
1.3086352,5268
1.42438,5269
1.7031466,5270
1.6649523,5271
1.685668,5272
1.1463689,5273
1.13334,5274
1.4219925,5275
1.5850611,5276
1.7185258,5277
1.4758344,5278
1.3637117,5279
1.4225333,5280
1.5505307,5281
1.60359,5282
1.5828433,5283
1.0411719,5284
1.3478478,5285
1.4505523,5286
1.5301776,5287
1.543171,5288
1.4135866,5289
1.0697252,5290
1.5441346,5291
1.5068028,5292
1.4815879,5293
1.5379742,5294
1.3804059,5295
1.6277671,5296
1.6024333,5297
1.689486,5298
1.5872271,5299
1.1357925,5300
1.3325995,5301
1.5879555,5302
1.6361072,5303
1.5713967,5304
1.2536888,5305
1.2434039,5306
1.2903521,5307
1.4653033,5308
1.4668002,5309
1.3934379,5310
1.2723645,5311
1.608189,5312
1.6596451,5313
1.6158869,5314
1.5012807,5315
1.2895771,5316
1.5622684,5317
1.4883398,5318
1.4877713,5319
1.5248613,5320
1.2265687,5321
1.2362216,5322
1.6097564,5323
1.502245,5324
1.5068429,5325
1.2363042,5326
1.2805977,5327
1.5430051,5328
1.504749,5329
1.4861277,5330
1.4118698,5331
1.0154424,5332
1.4404458,5333
1.3886095,5334
1.4034928,5335
1.5092595,5336
1.4327359,5337
1.1777097,5338
1.401359,5339
1.4282322,5340
1.4613825,5341
1.4016173,5342
1.2263517,5343
1.2075303,5344
1.4719318,5345
1.5263221,5346
1.4572537,5347
1.4451565,5348
1.0141112,5349
1.3770735,5350
1.3434471,5351
1.411194,5352
1.3522148,5353
1.2414584,5354
1.2642379,5355
1.3668183,5356
1.4223522,5357
1.5398601,5358
1.3883588,5359
0.9886868,5360
1.4372302,5361
1.3474911,5362
1.3545172,5363
1.4524873,5364
1.2006818,5365
1.3947788,5366
1.1758803,5367
0.95330507,5368
1.1249585,5369
1.1942343,5370
1.3784595,5371
1.1813613,5372
1.3967358,5373
1.3686032,5374
1.3241314,5375
1.3212451,5376
1.4642093,5377
1.3538611,5378
1.3574346,5379
1.3116428,5380
0.8772453,5381
1.3460838,5382
1.2939345,5383
1.2817336,5384
1.2540243,5385
1.1350365,5386
1.2075607,5387
1.501433,5388
1.5338131,5389
1.5160408,5390
1.3481231,5391
1.0427972,5392
1.4348578,5393
1.3647921,5394
1.5276268,5395
1.5179119,5396
0.96857667,5397
1.412529,5398
1.520607,5399
1.5223514,5400
1.5501288,5401
1.2203733,5402
1.1188993,5403
1.4090818,5404
1.289032,5405
1.5320474,5406
1.5183839,5407
1.287457,5408
1.2437758,5409
1.2942594,5410
1.6071812,5411
1.5606924,5412
1.2318625,5413
1.2993512,5414
1.3363857,5415
1.4170768,5416
1.5549238,5417
1.3176848,5418
1.274228,5419
1.2809967,5420
1.3138881,5421
1.3150573,5422
1.3536476,5423
1.0749173,5424
1.383292,5425
1.3171476,5426
1.4967563,5427
1.52836,5428
1.4298736,5429
1.2439724,5430
1.3939214,5431
1.4078963,5432
1.3019066,5433
1.3392577,5434
1.1173819,5435
1.4649502,5436
1.5628108,5437
1.5512393,5438
1.5659523,5439
1.1416812,5440
1.2441804,5441
1.4656734,5442
1.4350909,5443
1.4813658,5444
1.4021034,5445
0.8338683,5446
1.2977396,5447
1.468929,5448
1.5162286,5449
1.55826,5450
1.0893251,5451
1.2100902,5452
1.3145013,5453
1.4457371,5454
1.454942,5455
1.2304817,5456
1.1502684,5457
1.3756213,5458
1.3242947,5459
1.4716803,5460
1.4488934,5461
1.2198647,5462
1.3930403,5463
1.4426066,5464
1.5413461,5465
1.4963002,5466
1.3038253,5467
1.223195,5468
1.3677516,5469
1.3956385,5470
1.3714442,5471
1.2218478,5472
1.0457356,5473
1.5218881,5474
1.4115393,5475
1.3457375,5476
1.443975,5477
1.0393571,5478
1.4162132,5479
1.4801391,5480
1.4363346,5481
1.4511868,5482
1.245415,5483
1.0169983,5484
1.2998494,5485
1.4310987,5486
1.347151,5487
1.4079958,5488
1.0980703,5489
1.3445493,5490
1.5466845,5491
1.4122881,5492
1.4089733,5493
1.0895823,5494
1.3892939,5495
1.4533467,5496
1.40083,5497
1.4296527,5498
1.2240989,5499
1.374618,5500
1.3337033,5501
1.3408376,5502
1.3388778,5503
1.3152126,5504
1.0652682,5505
1.3761692,5506
1.4634304,5507
1.3713043,5508
1.3689053,5509
1.1462573,5510
1.1767706,5511
1.3776127,5512
1.4068545,5513
1.3904719,5514
1.2853009,5515
0.94837725,5516
1.3762555,5517
1.3916177,5518
1.4064848,5519
1.3534949,5520
1.2326943,5521
1.4253801,5522
1.3327224,5523
1.3800567,5524
1.4061059,5525
1.0804048,5526
1.4763898,5527
1.5048282,5528
1.315923,5529
1.4603491,5530
1.2234639,5531
1.1599642,5532
1.2061578,5533
1.2214003,5534
1.4223909,5535
1.3526282,5536
1.2235506,5537
1.4536636,5538
1.1970665,5539
1.5272775,5540
1.4786336,5541
1.141353,5542
1.3099675,5543
1.3163115,5544
1.2887017,5545
1.2130215,5546
1.4040526,5547
1.159956,5548
1.3399984,5549
1.3132126,5550
1.3764745,5551
1.3459258,5552
0.9332058,5553
1.3769917,5554
1.3574526,5555
1.4396977,5556
1.3592957,5557
1.1139146,5558
1.0924685,5559
1.4275216,5560
1.4342768,5561
1.4452727,5562
1.2611958,5563
1.1393414,5564
1.0786781,5565
1.0689757,5566
1.1011567,5567
1.147183,5568
0.9428461,5569
1.0991229,5570
1.0081996,5571
1.1950226,5572
1.4510186,5573
1.2566947,5574
0.95288,5575
0.99937004,5576
1.1900856,5577
1.5455595,5578
1.4919206,5579
0.9260134,5580
1.1939695,5581
1.330522,5582
1.5631443,5583
1.5065757,5584
1.1459203,5585
1.290232,5586
1.364766,5587
1.533612,5588
1.4928865,5589
1.2728277,5590
1.0081611,5591
1.2816916,5592
1.2819505,5593
1.2642884,5594
1.3202759,5595
0.85039335,5596
1.2170118,5597
1.3777165,5598
1.3728553,5599
1.3821254,5600
1.090625,5601
1.2126329,5602
1.4063455,5603
1.5010448,5604
1.5099418,5605
1.2303805,5606
0.93603855,5607
1.4355664,5608
1.0274118,5609
0.8810603,5610
0.9625838,5611
1.040507,5612
1.0842192,5613
1.0490518,5614
1.2020869,5615
1.468511,5616
1.3105989,5617
1.0706067,5618
1.3837188,5619
1.4022714,5620
1.2110885,5621
1.3087109,5622
1.1466731,5623
1.3344396,5624
1.3488442,5625
1.4477463,5626
1.2126513,5627
0.98142064,5628
1.2803171,5629
1.369571,5630
1.4236648,5631
1.4031677,5632
1.3726625,5633
1.2843451,5634
1.4527733,5635
1.5122731,5636
1.6048167,5637
1.4051003,5638
1.1027024,5639
1.4042956,5640
1.4024252,5641
1.3204552,5642
1.3727148,5643
1.1029551,5644
1.379659,5645
1.4402939,5646
1.483256,5647
1.3052777,5648
1.2660596,5649
1.3351332,5650
1.4315428,5651
1.4311235,5652
1.5629894,5653
1.3700985,5654
1.0146338,5655
1.4028337,5656
1.3962986,5657
1.3760387,5658
1.3260132,5659
0.9991572,5660
1.3725798,5661
1.3804156,5662
1.420589,5663
1.3813127,5664
1.2230989,5665
1.4921964,5666
1.4255569,5667
1.1097357,5668
1.0650141,5669
0.9192749,5670
1.0334761,5671
1.3553773,5672
1.2318397,5673
1.2997997,5674
1.353934,5675
0.8506344,5676
1.2490149,5677
1.2863312,5678
1.3774573,5679
1.4213947,5680
1.1440023,5681
1.0927459,5682
1.3721527,5683
1.385134,5684
1.364038,5685
1.1993494,5686
0.81219727,5687
0.9931391,5688
0.97809654,5689
1.0451427,5690
1.1611047,5691
0.85804325,5692
1.3150386,5693
1.3633668,5694
1.248559,5695
1.3476568,5696
1.2176259,5697
1.2253128,5698
1.2992797,5699
1.3872069,5700
1.4044768,5701
1.3654896,5702
1.1270993,5703
1.1261218,5704
1.2255514,5705
1.3439082,5706
1.356808,5707
1.3454012,5708
1.187534,5709
1.399154,5710
1.3873932,5711
1.2479556,5712
1.3022987,5713
1.1321125,5714
1.2733948,5715
0.98297304,5716
1.1290482,5717
1.2586803,5718
1.0936731,5719
1.4064058,5720
1.3544338,5721
1.3175329,5722
1.3100784,5723
1.288227,5724
0.9423257,5725
1.3504915,5726
1.3582442,5727
1.362699,5728
1.3147705,5729
1.1559031,5730
1.3430663,5731
1.4852133,5732
1.5945997,5733
1.4852233,5734
1.3812059,5735
0.95789164,5736
1.2802964,5737
1.2041168,5738
1.5414946,5739
1.4143184,5740
1.161794,5741
1.4100595,5742
1.538029,5743
1.5644492,5744
1.4910507,5745
1.0634764,5746
1.2634389,5747
1.3592348,5748
1.3996855,5749
1.4582512,5750
1.4810961,5751
0.86164623,5752
1.1739906,5753
1.3172033,5754
1.5794863,5755
1.388335,5756
1.1120121,5757
1.3752693,5758
1.3345007,5759
1.474481,5760
1.4703715,5761
1.1061919,5762
0.993264,5763
1.3239356,5764
1.367852,5765
1.3566098,5766
1.3011342,5767
0.9485419,5768
1.2172649,5769
1.3983285,5770
1.4377716,5771
1.3787894,5772
1.1388143,5773
1.263049,5774
1.3893071,5775
1.3301544,5776
1.3744588,5777
0.9963914,5778
1.1573294,5779
1.3434893,5780
1.1380191,5781
1.0615637,5782
1.0777587,5783
0.9388746,5784
1.0553347,5785
1.0309404,5786
1.144838,5787
1.4471521,5788
1.0580512,5789
1.3002694,5790
1.357555,5791
1.3943188,5792
1.5194163,5793
1.2882727,5794
1.2316693,5795
1.2822123,5796
1.1726185,5797
1.2237506,5798
1.3694296,5799
1.143397,5800
1.4679904,5801
1.3369397,5802
1.4804296,5803
1.4601269,5804
1.1761633,5805
1.3009107,5806
1.384789,5807
1.3829926,5808
1.4521759,5809
1.1759725,5810
1.1580974,5811
1.2907314,5812
1.3601679,5813
1.3957391,5814
1.3585497,5815
0.96213555,5816
1.2254239,5817
1.2945147,5818
1.3824743,5819
1.3738703,5820
1.1784055,5821
1.2027191,5822
1.4270513,5823
1.463101,5824
1.5019884,5825
1.520942,5826
1.1609874,5827
1.44443,5828
1.4609305,5829
1.3144358,5830
1.4693747,5831
1.266253,5832
1.3079746,5833
1.3370132,5834
1.4379902,5835
1.4110425,5836
1.3004774,5837
1.1895306,5838
1.547075,5839
1.5350882,5840
1.588872,5841
1.4585829,5842
1.1372521,5843
1.4314599,5844
1.3641303,5845
1.323556,5846
1.2734283,5847
1.0798196,5848
1.205559,5849
1.3084021,5850
1.3510145,5851
1.3838633,5852
1.3325813,5853
1.1316904,5854
1.3885992,5855
1.3593748,5856
1.3692156,5857
1.2859843,5858
1.0319043,5859
1.232522,5860
1.3776402,5861
1.3989398,5862
1.421973,5863
1.1771924,5864
1.2166951,5865
1.4484456,5866
1.3654268,5867
1.4599465,5868
1.4505111,5869
1.1938651,5870
1.5929625,5871
1.4440787,5872
1.4202224,5873
1.498491,5874
1.214231,5875
1.083508,5876
1.296235,5877
1.4093058,5878
1.4549514,5879
1.4214275,5880
0.7280855,5881
0.8613287,5882
1.011688,5883
1.4219282,5884
1.4382796,5885
1.3043923,5886
1.2906494,5887
1.314298,5888
1.3982141,5889
1.1347029,5890
1.1943868,5891
1.1768105,5892
1.4318753,5893
1.3707459,5894
1.3810163,5895
1.3441861,5896
1.1249098,5897
1.3773608,5898
1.4174346,5899
1.4684755,5900
1.391462,5901
1.1553038,5902
1.3186752,5903
1.414072,5904
1.4404895,5905
1.518413,5906
1.0596195,5907
1.187374,5908
1.3471465,5909
1.4623585,5910
1.496854,5911
1.4168041,5912
0.9395457,5913
1.3753502,5914
1.2807803,5915
1.4160104,5916
1.5331889,5917
1.0407108,5918
1.280373,5919
1.2825801,5920
1.383405,5921
1.5293616,5922
1.2651683,5923
1.2861189,5924
1.4853323,5925
1.5023513,5926
1.6643081,5927
1.2172576,5928
1.1473892,5929
1.3199917,5930
1.3288954,5931
1.5957043,5932
1.533561,5933
1.075103,5934
1.4242902,5935
1.3466916,5936
1.311642,5937
1.3691021,5938
0.9317557,5939
1.2850673,5940
1.4149951,5941
1.3366201,5942
1.3820691,5943
1.2701423,5944
0.89380676,5945
1.2621254,5946
1.0933192,5947
1.4466149,5948
1.3009337,5949
1.1898254,5950
1.4972181,5951
1.3492885,5952
1.412411,5953
1.4613127,5954
1.2898357,5955
1.311206,5956
1.3350713,5957
1.3569934,5958
1.2803656,5959
1.2231231,5960
1.2203795,5961
1.4855666,5962
1.2380728,5963
1.233859,5964
1.4174471,5965
1.0328115,5966
1.4157493,5967
1.3091694,5968
1.3740759,5969
1.4662867,5970
1.1684319,5971
1.220294,5972
1.2059884,5973
1.1062865,5974
0.9524141,5975
1.1286246,5976
1.2323543,5977
1.491542,5978
1.375053,5979
1.4075391,5980
1.4409267,5981
1.1912106,5982
1.3399926,5983
1.3094503,5984
1.3189512,5985
1.2870138,5986
1.0932136,5987
1.1030885,5988
1.3652557,5989
1.4137213,5990
1.3821517,5991
1.1101627,5992
1.0869398,5993
1.4918938,5994
1.3995444,5995
1.4040947,5996
1.316528,5997
0.9997967,5998
1.463349,5999
1.3955456,6000
1.4020729,6001
1.3229638,6002
1.0664098,6003
1.3171114,6004
1.2903581,6005
1.4342458,6006
1.4377255,6007
1.0306214,6008
0.831603,6009
1.0298686,6010
1.3974752,6011
1.5389782,6012
1.1428602,6013
1.2372537,6014
1.4305358,6015
1.3733878,6016
1.3670424,6017
1.2749301,6018
1.0735084,6019
1.332205,6020
1.4394213,6021
1.3567443,6022
1.4032953,6023
1.234067,6024
1.2209426,6025
1.4999112,6026
1.3951833,6027
1.5110523,6028
1.3495942,6029
1.1771461,6030
1.4537334,6031
1.4494481,6032
1.638757,6033
1.5811938,6034
1.1577548,6035
1.448013,6036
1.4760191,6037
1.6024003,6038
1.481856,6039
1.4205301,6040
1.2348717,6041
1.6061794,6042
1.4916421,6043
1.6697503,6044
1.4897921,6045
1.2332374,6046
1.6709911,6047
1.73429,6048
1.6593398,6049
1.7197223,6050
1.3176293,6051
1.4009491,6052
1.5863014,6053
1.6842741,6054
1.8929398,6055
1.3394212,6056
1.2534328,6057
1.5544808,6058
1.5564264,6059
1.6480554,6060
1.5682113,6061
1.3210357,6062
1.512467,6063
1.6473796,6064
1.7021657,6065
1.763056,6066
1.2993993,6067
1.4495507,6068
1.6375537,6069
1.7430621,6070
1.7309554,6071
1.514736,6072
1.0898498,6073
1.4140562,6074
1.6156355,6075
1.7514353,6076
1.7163359,6077
1.3416361,6078
1.2314317,6079
1.44698,6080
1.2825061,6081
1.523332,6082
1.5163633,6083
1.2224655,6084
1.4774932,6085
1.570179,6086
1.6820816,6087
1.6730644,6088
1.3583072,6089
1.3512021,6090
1.6368898,6091
1.680198,6092
1.6535097,6093
1.6086682,6094
1.3050176,6095
1.7531198,6096
1.6953007,6097
1.6671848,6098
1.6722193,6099
1.1535623,6100
1.4457239,6101
1.5563903,6102
1.6247419,6103
1.6007476,6104
1.4552728,6105
1.0338435,6106
1.744401,6107
1.6205451,6108
1.5818286,6109
1.6158695,6110
1.2250054,6111
1.538236,6112
1.5166495,6113
1.7053056,6114
1.7896155,6115
1.6926647,6116
1.1855394,6117
1.8774216,6118
1.8564703,6119
1.6994474,6120
1.5740683,6121
1.0826018,6122
1.5689273,6123
1.581535,6124
1.590568,6125
1.6253134,6126
1.2792618,6127
1.395201,6128
1.7694782,6129
1.7670966,6130
1.764697,6131
1.4609358,6132
1.0762203,6133
1.802198,6134
1.7815216,6135
1.6888095,6136
1.6397537,6137
1.4309025,6138
1.6508479,6139
1.8283488,6140
1.8314415,6141
1.5549895,6142
1.2097083,6143
1.2969204,6144
1.538355,6145
1.5838861,6146
1.5622697,6147
1.4492644,6148
1.337991,6149
1.6011076,6150
1.7612213,6151
1.6734266,6152
1.6747597,6153
1.4244792,6154
1.3181611,6155
1.3198689,6156
1.4788768,6157
1.6130556,6158
1.4587321,6159
1.3574497,6160
1.5807595,6161
1.5956589,6162
1.6092968,6163
1.6263582,6164
1.320156,6165
1.4548072,6166
1.6650103,6167
1.5906177,6168
1.6595604,6169
1.4810832,6170
1.399633,6171
1.6665907,6172
1.7082791,6173
1.6036019,6174
1.3720369,6175
1.4563079,6176
1.5115889,6177
1.5273961,6178
1.5838724,6179
1.4518441,6180
1.1842791,6181
1.6224427,6182
1.6104361,6183
1.5889784,6184
1.466978,6185
1.1932907,6186
1.4829545,6187
1.5409956,6188
1.4477297,6189
1.5332599,6190
1.3557352,6191
1.334948,6192
1.5082096,6193
1.5034834,6194
1.5427488,6195
1.477918,6196
1.1083875,6197
1.5313667,6198
1.5282967,6199
1.4960992,6200
1.5661814,6201
1.2486701,6202
1.3045672,6203
1.5884712,6204
1.6026665,6205
1.661138,6206
1.3422875,6207
1.3714895,6208
1.4876927,6209
1.3152654,6210
1.5919737,6211
1.5845375,6212
1.2892423,6213
1.4315886,6214
1.3137732,6215
1.5676247,6216
1.684905,6217
1.5012653,6218
1.5301484,6219
1.5934186,6220
1.6321367,6221
1.7442725,6222
1.4878877,6223
1.1829365,6224
1.7381355,6225
1.7210057,6226
1.7896935,6227
1.6054586,6228
1.134518,6229
1.4571171,6230
1.3102711,6231
1.6080778,6232
1.6527225,6233
1.2180951,6234
1.3194681,6235
1.5368309,6236
1.7169025,6237
1.5354007,6238
1.4916744,6239
1.2887242,6240
1.4938105,6241
1.6142071,6242
1.5159558,6243
1.690944,6244
1.2158582,6245
1.405208,6246
1.6654632,6247
1.5730844,6248
1.8002428,6249
1.3361511,6250
1.191181,6251
1.5648528,6252
1.5571021,6253
1.6093078,6254
1.5777316,6255
1.4093884,6256
1.5227108,6257
1.4962254,6258
1.6799736,6259
1.6995037,6260
1.2271773,6261
1.2363611,6262
1.6868614,6263
1.7164987,6264
1.7415392,6265
1.4869534,6266
1.2901951,6267
1.656432,6268
1.72413,6269
1.6632509,6270
1.6622924,6271
1.3653076,6272
1.5179387,6273
1.5511707,6274
1.5710652,6275
1.6231806,6276
1.3824493,6277
1.4780502,6278
1.5143327,6279
1.6516258,6280
1.5067744,6281
1.321697,6282
1.4124081,6283
1.5255151,6284
1.5977057,6285
1.557667,6286
1.4513248,6287
1.4548295,6288
1.4093362,6289
1.5534323,6290
1.4684883,6291
1.533938,6292
1.2348276,6293
1.3603882,6294
1.2362868,6295
1.4808526,6296
1.4019899,6297
1.568605,6298
1.5910746,6299
1.6511476,6300
1.5970567,6301
1.7032118,6302
1.5673649,6303
1.3542519,6304
1.5818243,6305
1.428417,6306
1.6218923,6307
1.7175894,6308
1.5220431,6309
1.3254521,6310
1.7147009,6311
1.7439741,6312
1.7979126,6313
1.498942,6314
1.0309892,6315
1.4023405,6316
1.5419954,6317
1.6261768,6318
1.5108685,6319
1.2385439,6320
1.5206505,6321
1.5448763,6322
1.6864395,6323
1.7923706,6324
1.5799756,6325
1.2463712,6326
1.5573534,6327
1.4282271,6328
1.5689672,6329
1.5731986,6330
1.2346611,6331
1.5940024,6332
1.5241209,6333
1.5383052,6334
1.519763,6335
1.235856,6336
1.2593706,6337
1.5466536,6338
1.5555068,6339
1.6161194,6340
1.5593559,6341
1.3841604,6342
1.5847585,6343
1.6349279,6344
1.6030449,6345
1.2052662,6346
1.3384035,6347
1.4875726,6348
1.6059979,6349
1.603679,6350
1.3980927,6351
1.3954676,6352
1.621977,6353
1.5481025,6354
1.580607,6355
1.6233202,6356
1.4803866,6357
1.3390722,6358
1.4259611,6359
1.5370166,6360
1.4772502,6361
1.3712589,6362
1.2136316,6363
1.5417932,6364
1.5221599,6365
1.5599926,6366
1.5052122,6367
1.3634971,6368
1.3910146,6369
1.5603979,6370
1.5911492,6371
1.6001824,6372
1.4574151,6373
1.2355068,6374
1.584757,6375
1.6178352,6376
1.6479149,6377
1.6523256,6378
1.2658572,6379
1.2529032,6380
1.481851,6381
1.5366828,6382
1.6135272,6383
1.4771715,6384
1.2221519,6385
1.6817559,6386
1.688911,6387
1.8237282,6388
1.7300327,6389
1.2616817,6390
1.4221827,6391
1.6020635,6392
1.532177,6393
1.6237394,6394
1.5079178,6395
1.2201121,6396
1.6197785,6397
1.6515924,6398
1.7105155,6399
1.6631857,6400
1.1341496,6401
1.3979557,6402
1.5337387,6403
1.4293067,6404
1.6533037,6405
1.513832,6406
1.2460058,6407
1.7271613,6408
1.8137888,6409
1.8592228,6410
1.620543,6411
1.3587211,6412
1.6875288,6413
1.6213274,6414
1.6050898,6415
1.6664454,6416
1.364153,6417
1.4418403,6418
1.7574381,6419
1.5664344,6420
1.7304803,6421
1.30842,6422
1.3088982,6423
1.4874015,6424
1.5337001,6425
1.664032,6426
1.6790756,6427
1.3861586,6428
1.3881133,6429
1.6598418,6430
1.6913636,6431
1.6572925,6432
1.3680922,6433
1.261568,6434
1.4538065,6435
1.498312,6436
1.5871344,6437
1.6347961,6438
1.4657092,6439
1.693087,6440
1.6326755,6441
1.7725344,6442
1.697147,6443
1.301353,6444
1.4812242,6445
1.5188935,6446
1.628381,6447
1.7265676,6448
1.5575705,6449
1.4942379,6450
1.7365987,6451
1.6679766,6452
1.71556,6453
1.5391611,6454
1.3838364,6455
1.5802411,6456
1.5138315,6457
1.7234806,6458
1.7667339,6459
1.4394677,6460
1.352749,6461
1.779403,6462
1.7060426,6463
1.6297896,6464
1.3392745,6465
1.122937,6466
1.5196971,6467
1.4158692,6468
1.4763801,6469
1.4515504,6470
1.3355058,6471
1.4663162,6472
1.7109131,6473
1.6993773,6474
1.6015495,6475
1.4005086,6476
1.643814,6477
1.5408375,6478
1.7060063,6479
1.6083124,6480
1.577949,6481
1.511353,6482
1.613451,6483
1.7467184,6484
1.766169,6485
1.3378628,6486
1.1733018,6487
1.4596782,6488
1.580956,6489
1.5543529,6490
1.6517223,6491
1.3592533,6492
1.3085195,6493
1.6682155,6494
1.700632,6495
1.7607759,6496
1.4780205,6497
1.3266371,6498
1.4920357,6499
1.4881873,6500
1.5145181,6501
1.5033376,6502
1.2285073,6503
1.2434344,6504
1.5293838,6505
1.6537795,6506
1.6398175,6507
1.4001694,6508
1.2856153,6509
1.6622733,6510
1.5783978,6511
1.774088,6512
1.5156695,6513
1.3488752,6514
1.7049651,6515
1.5551995,6516
1.4560652,6517
1.3899648,6518
1.1963122,6519
1.5513219,6520
1.5384239,6521
1.5445294,6522
1.3939304,6523
1.1573464,6524
1.4355516,6525
1.518606,6526
1.7095716,6527
1.5804305,6528
1.3132837,6529
1.3938017,6530
1.5437841,6531
1.5115435,6532
1.4595636,6533
1.3584164,6534
1.2624655,6535
1.5450274,6536
1.6666273,6537
1.5671259,6538
1.386899,6539
1.3026353,6540
1.541416,6541
1.5572611,6542
1.6259834,6543
1.5769094,6544
1.3922229,6545
1.3954983,6546
1.6421131,6547
1.703064,6548
1.6560684,6549
1.5949486,6550
1.1455885,6551
1.6547418,6552
1.6477453,6553
1.6805614,6554
1.5676007,6555
1.2237228,6556
1.6779956,6557
1.8220831,6558
1.8402798,6559
1.7969532,6560
1.271086,6561
1.3169041,6562
1.6055429,6563
1.6702486,6564
1.7005452,6565
1.5832236,6566
1.5214645,6567
1.6937519,6568
1.7591782,6569
1.7839532,6570
1.5809355,6571
1.0939404,6572
1.3278502,6573
1.3925576,6574
1.4948254,6575
1.5554216,6576
1.5393089,6577
1.2252913,6578
1.5967999,6579
1.5644037,6580
1.6903843,6581
1.5963274,6582
1.2587924,6583
1.6120291,6584
1.7560031,6585
1.8278174,6586
1.7902353,6587
1.4596468,6588
1.5629745,6589
1.5977789,6590
1.7989322,6591
1.7657802,6592
1.3952051,6593
1.1613263,6594
1.5683327,6595
1.6274899,6596
1.64412,6597
1.6606512,6598
1.2246406,6599
1.5207144,6600
1.7186732,6601
1.7355032,6602
1.6826762,6603
1.4354118,6604
1.5129988,6605
1.5222982,6606
1.650158,6607
1.7783331,6608
1.6785002,6609
1.5585533,6610
1.6838962,6611
1.6367422,6612
1.8388411,6613
1.607549,6614
1.3936881,6615
1.692461,6616
1.6181309,6617
1.6292002,6618
1.6205733,6619
1.4202207,6620
1.3793156,6621
1.6287732,6622
1.644308,6623
1.6567625,6624
1.405089,6625
1.424095,6626
1.5975004,6627
1.6640676,6628
1.6209536,6629
1.3875736,6630
1.4280653,6631
1.800739,6632
1.7940735,6633
1.7193862,6634
1.7547717,6635
1.5163352,6636
1.3559822,6637
1.4458077,6638
1.4841768,6639
1.4619974,6640
1.6807711,6641
1.4671456,6642
1.546587,6643
1.4537734,6644
1.723723,6645
1.6975077,6646
1.2717811,6647
1.4208846,6648
1.6477234,6649
1.5599691,6650
1.7292173,6651
1.6551466,6652
1.3526784,6653
1.6061312,6654
1.5278571,6655
1.7837409,6656
1.4597995,6657
1.3280605,6658
1.5788333,6659
1.503058,6660
1.5690949,6661
1.6545104,6662
1.3349922,6663
1.3252839,6664
1.732985,6665
1.7502362,6666
1.7972703,6667
1.6350658,6668
1.3973937,6669
1.5350991,6670
1.5063598,6671
1.5326086,6672
1.5081825,6673
1.3726946,6674
1.3945717,6675
1.6106141,6676
1.7251745,6677
1.7128593,6678
1.449161,6679
1.2757908,6680
1.6155854,6681
1.7373827,6682
1.6878428,6683
1.3992834,6684
1.3341594,6685
1.6844634,6686
1.6961707,6687
1.6617382,6688
1.4940051,6689
1.1411762,6690
1.5293779,6691
1.5095918,6692
1.5011197,6693
1.5285746,6694
1.1173893,6695
1.5091641,6696
1.6249121,6697
1.5786678,6698
1.6543127,6699
1.2457777,6700
1.1993314,6701
1.5769913,6702
1.5859343,6703
1.4943931,6704
1.4459934,6705
1.2526635,6706
1.4792407,6707
1.5611995,6708
1.519139,6709
1.5930496,6710
1.610506,6711
1.2458885,6712
1.4228154,6713
1.4919266,6714
1.4314171,6715
1.4667478,6716
1.3714617,6717
1.2797096,6718
1.4501606,6719
1.5162416,6720
1.4716303,6721
1.4957755,6722
1.3406167,6723
1.2785221,6724
1.4877431,6725
1.5782875,6726
1.5985924,6727
1.5837053,6728
1.2301276,6729
1.6138527,6730
1.5163397,6731
1.6858058,6732
1.6594911,6733
1.456473,6734
1.4306246,6735
1.4516877,6736
1.5591648,6737
1.6122878,6738
1.5690942,6739
1.2995633,6740
1.3257987,6741
1.4956015,6742
1.6725549,6743
1.7088606,6744
1.2788142,6745
1.4321404,6746
1.6643759,6747
1.7232937,6748
1.7711856,6749
1.4747037,6750
1.2275519,6751
1.5825446,6752
1.4962816,6753
1.5522566,6754
1.2947932,6755
1.4031816,6756
1.4765804,6757
1.5653993,6758
1.6026691,6759
1.5586412,6760
1.483444,6761
1.3365532,6762
1.4964228,6763
1.4979647,6764
1.4572146,6765
1.0649501,6766
1.482981,6767
1.479767,6768
1.4433448,6769
1.4260957,6770
1.4178689,6771
1.2712717,6772
1.3443722,6773
1.3766048,6774
1.4082512,6775
1.2948767,6776
1.226288,6777
1.4224586,6778
1.4064863,6779
1.407456,6780
1.5389801,6781
1.1779056,6782
1.274179,6783
1.5139322,6784
1.4875932,6785
1.4679508,6786
1.2794741,6787
0.9598054,6788
1.5300127,6789
1.5346388,6790
1.6009066,6791
1.5141467,6792
1.3969206,6793
1.3869437,6794
1.4259161,6795
1.4533741,6796
1.4087415,6797
1.2811217,6798
1.429303,6799
1.4217328,6800
1.4614011,6801
1.4967462,6802
1.5001953,6803
1.2272385,6804
1.5213906,6805
1.4884794,6806
1.4165347,6807
1.1889213,6808
1.4247732,6809
1.2434096,6810
1.2890246,6811
1.4893974,6812
1.417288,6813
1.1673788,6814
1.4238863,6815
1.4312383,6816
1.4907247,6817
1.4116532,6818
1.1866589,6819
1.456987,6820
1.3908172,6821
1.4097679,6822
1.4319406,6823
1.4358603,6824
1.1015326,6825
1.4386754,6826
1.4023194,6827
1.4634371,6828
1.3590235,6829
1.1835659,6830
1.4553494,6831
1.5327257,6832
1.5212061,6833
1.5745755,6834
1.1957015,6835
1.4001746,6836
1.5246159,6837
1.4888576,6838
1.441983,6839
1.2194821,6840
1.4320118,6841
1.401737,6842
1.400014,6843
1.4725288,6844
1.4998302,6845
1.0848817,6846
1.4968214,6847
1.6011829,6848
1.5180889,6849
1.3428394,6850
1.222472,6851
1.4183092,6852
1.471278,6853
1.4666579,6854
1.404127,6855
1.2163098,6856
1.3114822,6857
1.3953876,6858
1.423586,6859
1.4542719,6860
1.3114666,6861
1.2170382,6862
1.5214354,6863
1.5337845,6864
1.4775597,6865
1.4717627,6866
1.4794352,6867
1.3742261,6868
1.5644776,6869
1.5591149,6870
1.581862,6871
1.2894678,6872
1.1384516,6873
1.5378019,6874
1.6202842,6875
1.6184945,6876
1.5917045,6877
1.4617777,6878
1.5118682,6879
1.2976638,6880
1.5060322,6881
1.387744,6882
0.9221406,6883
1.4778503,6884
1.4964099,6885
1.4691657,6886
1.5655487,6887
1.5197054,6888
1.4730614,6889
1.4542054,6890
1.4085082,6891
1.4898878,6892
1.272202,6893
1.4758438,6894
1.4613667,6895
1.4588042,6896
1.5494417,6897
1.5015186,6898
1.2573944,6899
1.2535014,6900
1.3609239,6901
1.2768034,6902
1.4294341,6903
1.3622353,6904
1.2618752,6905
1.1550176,6906
1.3729641,6907
1.4890057,6908
1.4186076,6909
1.2185553,6910
1.3646178,6911
1.4511634,6912
1.624335,6913
1.5338577,6914
1.2281959,6915
1.280372,6916
1.5439916,6917
1.5133045,6918
1.6650292,6919
1.5059699,6920
0.94062847,6921
1.4641166,6922
1.4372398,6923
1.4365638,6924
1.3264928,6925
1.414644,6926
1.4270144,6927
1.4957248,6928
1.506889,6929
1.4944582,6930
1.3458629,6931
1.1892519,6932
1.4869981,6933
1.4574245,6934
1.3896933,6935
1.2504267,6936
1.2661481,6937
1.3958861,6938
1.4814265,6939
1.4651555,6940
1.4755615,6941
1.0589036,6942
1.4245864,6943
1.3733392,6944
1.3597008,6945
1.3747913,6946
1.1590601,6947
1.3946152,6948
1.3524356,6949
1.2919248,6950
1.3928949,6951
1.3386792,6952
1.1801223,6953
1.4417771,6954
1.44899,6955
1.5026126,6956
1.2754772,6957
1.2446318,6958
1.448717,6959
1.4300684,6960
1.5816424,6961
1.4713142,6962
1.2810308,6963
1.2304364,6964
1.4195497,6965
1.4420841,6966
1.44827,6967
1.0731332,6968
1.4080274,6969
1.4045968,6970
1.4863039,6971
1.5566667,6972
1.4248847,6973
1.264693,6974
1.4558372,6975
1.472893,6976
1.4234242,6977
1.3441572,6978
1.2131774,6979
1.3421227,6980
1.5165644,6981
1.5041435,6982
1.5369827,6983
1.2861334,6984
1.2896314,6985
1.5055317,6986
1.4805301,6987
1.3502872,6988
1.1638466,6989
1.3148875,6990
1.4781448,6991
1.3223383,6992
1.409643,6993
1.4315633,6994
1.0977701,6995
1.451309,6996
1.5210757,6997
1.3994879,6998
1.4347298,6999
1.2294866,7000
1.482065,7001
1.337083,7002
1.5215409,7003
1.3633693,7004
1.3216859,7005
1.3220682,7006
1.5872619,7007
1.4562798,7008
1.4604677,7009
1.3528126,7010
1.0632411,7011
1.4326805,7012
1.4182074,7013
1.4501535,7014
1.5460031,7015
1.428358,7016
1.2618241,7017
1.4265537,7018
1.4720491,7019
1.4306488,7020
1.2870303,7021
1.3994019,7022
1.4262773,7023
1.4831457,7024
1.5049646,7025
1.5350921,7026
1.3044347,7027
1.3807913,7028
1.4643384,7029
1.4307619,7030
1.3615808,7031
1.1519616,7032
0.9454524,7033
1.4154783,7034
1.4002575,7035
1.31607,7036
1.1211344,7037
1.4003524,7038
1.4462353,7039
1.410822,7040
1.3058959,7041
1.3681592,7042
1.5320563,7043
1.2878454,7044
1.3239576,7045
1.4310181,7046
1.5196568,7047
1.5138934,7048
1.6701118,7049
1.2322923,7050
1.0801904,7051
1.3868153,7052
1.4459907,7053
1.4431764,7054
1.4299728,7055
1.4164602,7056
1.4713302,7057
1.526379,7058
1.4634897,7059
1.6035993,7060
1.6489272,7061
1.7011808,7062
1.7236439,7063
1.7709424,7064
1.7083509,7065
1.7317575,7066
1.7765394,7067
1.7698202,7068
1.7230237,7069
1.7190971,7070
1.7464855,7071
1.8293102,7072
1.7942789,7073
1.7913182,7074
1.7287693,7075
1.8333519,7076
1.8354357,7077
1.8051864,7078
1.8912294,7079
1.8496647,7080
1.9179144,7081
1.8212992,7082
1.8211887,7083
1.8626065,7084
1.7480538,7085
1.7634283,7086
1.7463552,7087
1.8478482,7088
1.7850482,7089
1.7763991,7090
1.7856523,7091
1.8078758,7092
1.8399447,7093
1.7788962,7094
1.841902,7095
1.8470806,7096
1.791483,7097
1.8702403,7098
1.6503084,7099
1.218328,7100
1.1276883,7101
1.4400266,7102
1.4406896,7103
1.4434798,7104
1.4080681,7105
1.425925,7106
1.468418,7107
1.560151,7108
1.5750084,7109
1.6660844,7110
1.6565537,7111
1.5981139,7112
1.6319104,7113
1.6090821,7114
1.736222,7115
1.7163478,7116
1.7714962,7117
1.7775319,7118
1.7107776,7119
1.8187296,7120
1.8649321,7121
1.8481495,7122
1.8812449,7123
1.9645301,7124
1.847073,7125
1.8409601,7126
1.8671129,7127
1.8867704,7128
1.9377803,7129
1.9047015,7130
1.8700323,7131
1.736683,7132
1.8176258,7133
1.8073034,7134
1.838119,7135
1.7962556,7136
1.9055754,7137
1.8181403,7138
1.9404215,7139
1.9929152,7140
1.796422,7141
1.8513114,7142
1.8710779,7143
2.0130982,7144
2.2034373,7145
2.3092778,7146
1.9742355,7147
1.7828145,7148
1.7835878,7149
1.8289874,7150
1.8285203,7151
1.772636,7152
1.8878716,7153
1.7939512,7154
1.8346802,7155
1.9200834,7156
1.7851547,7157
1.8116342,7158
1.8118085,7159
1.8664302,7160
1.9726766,7161
1.9633335,7162
1.8685716,7163
1.7712576,7164
1.729002,7165
1.8471994,7166
1.7434826,7167
1.7839327,7168
1.7696478,7169
1.842598,7170
1.8630689,7171
1.9956121,7172
2.0399537,7173
1.8922412,7174
1.6651978,7175
1.2630217,7176
1.3505163,7177
1.5365102,7178
1.5065999,7179
1.4810065,7180
1.5008483,7181
1.4656727,7182
1.4088701,7183
1.5687647,7184
1.6329603,7185
1.4660689,7186
1.354425,7187
1.4094583,7188
1.3778205,7189
1.5665765,7190
1.5432428,7191
1.5106428,7192
1.5083815,7193
1.5677797,7194
1.5422266,7195
1.7485281,7196
1.7331933,7197
1.7134284,7198
1.6168524,7199
1.5424268,7200
1.6790907,7201
1.7727597,7202
1.8201098,7203
1.7429959,7204
1.8217742,7205
1.7948995,7206
1.8563534,7207
1.7942,7208
1.9798704,7209
1.9211589,7210
1.8075535,7211
1.7880794,7212
1.8567791,7213
2.1030343,7214
2.1892629,7215
1.8506328,7216
1.8614213,7217
1.7815268,7218
1.7709668,7219
1.7561475,7220
1.7979621,7221
1.8758787,7222
1.8210859,7223
1.9091733,7224
1.9192418,7225
1.9667525,7226
1.8500295,7227
1.5425354,7228
1.2105888,7229
1.6160219,7230
1.5938007,7231
1.515909,7232
1.4779036,7233
1.5538044,7234
1.5532684,7235
1.4888208,7236
1.5646802,7237
1.6201762,7238
1.6606452,7239
1.6265454,7240
1.5942534,7241
1.6435895,7242
1.7070082,7243
1.6981238,7244
1.7813835,7245
1.8222537,7246
1.8006623,7247
1.7983158,7248
1.855378,7249
1.8833147,7250
1.8367319,7251
1.8248727,7252
1.8325517,7253
1.8163174,7254
1.8736221,7255
2.1136663,7256
2.1952858,7257
1.8116761,7258
1.802302,7259
1.7858261,7260
1.7731481,7261
1.8953072,7262
1.765343,7263
1.8045491,7264
1.8238904,7265
1.8631953,7266
1.854593,7267
1.9429349,7268
1.7684155,7269
1.8284438,7270
1.6915166,7271
1.1934015,7272
1.3752286,7273
1.54018,7274
1.4118739,7275
1.5011611,7276
1.4980589,7277
1.3496901,7278
1.5559998,7279
1.619908,7280
1.668754,7281
1.6259091,7282
1.6453428,7283
1.6134821,7284
1.6991687,7285
1.8126882,7286
1.8050355,7287
1.869247,7288
1.8992698,7289
1.8665572,7290
1.7253603,7291
1.587316,7292
1.3409212,7293
1.8335991,7294
1.8086263,7295
1.8057925,7296
1.8268653,7297
1.804813,7298
1.8111756,7299
1.8763355,7300
1.7903293,7301
1.7213386,7302
1.7474294,7303
1.7789117,7304
1.7486303,7305
1.7924212,7306
1.7910271,7307
1.9091684,7308
1.8247865,7309
1.8936567,7310
1.9964907,7311
1.7170646,7312
1.088115,7313
1.5248473,7314
1.8517201,7315
1.8372521,7316
1.8769072,7317
1.8468981,7318
1.8015947,7319
1.8018569,7320
1.7768447,7321
1.8454794,7322
1.7441202,7323
1.8336523,7324
1.7945483,7325
1.808614,7326
1.9105297,7327
1.7998247,7328
1.8541734,7329
1.8607923,7330
2.0370355,7331
2.1299617,7332
1.7227715,7333
1.2095807,7334
1.7264639,7335
1.751004,7336
1.7310898,7337
1.7607267,7338
1.8172803,7339
1.794881,7340
1.8855731,7341
1.9193481,7342
1.6765531,7343
1.5139687,7344
1.0247746,7345
1.4631807,7346
1.556956,7347
1.577185,7348
1.5422099,7349
1.5491649,7350
1.6490928,7351
1.6029441,7352
1.5969893,7353
1.6458257,7354
1.3704818,7355
0.9817379,7356
1.4784342,7357
1.5884167,7358
1.5228162,7359
1.6100054,7360
1.5855098,7361
1.4471717,7362
1.4203993,7363
1.3388231,7364
1.5136259,7365
1.6432577,7366
1.6196605,7367
1.5438635,7368
1.5728483,7369
1.5384637,7370
1.7322143,7371
1.7206763,7372
1.7942595,7373
1.7767897,7374
1.7737089,7375
1.7665814,7376
1.8433027,7377
1.3431984,7378
1.4469159,7379
1.8036608,7380
1.8032882,7381
1.8266145,7382
1.9391854,7383
2.0143814,7384
2.0314631,7385
1.8950485,7386
1.8094857,7387
1.8224604,7388
1.8160596,7389
1.7589855,7390
1.7416081,7391
1.7829728,7392
1.8167595,7393
1.8320613,7394
2.1369972,7395
2.4255621,7396
2.0952103,7397
1.7992926,7398
1.3408108,7399
1.3654155,7400
1.4495966,7401
1.4718716,7402
1.3923502,7403
1.3525708,7404
1.2878572,7405
1.3982598,7406
1.448261,7407
1.5276195,7408
1.5729551,7409
1.4988127,7410
1.4673033,7411
1.4122113,7412
1.4291191,7413
1.5460876,7414
1.635976,7415
1.6742965,7416
1.6804562,7417
1.720807,7418
1.6466613,7419
1.4880364,7420
1.178454,7421
1.5551403,7422
1.6106548,7423
1.6581345,7424
1.5995893,7425
1.538344,7426
1.5386491,7427
1.5036074,7428
1.7007909,7429
1.7045684,7430
1.7577991,7431
1.5854559,7432
1.6227019,7433
1.6518655,7434
1.7600887,7435
1.7051392,7436
1.6146414,7437
1.598084,7438
1.7128048,7439
1.6023386,7440
1.23497,7441
1.3227153,7442
1.4232562,7443
1.4593645,7444
1.3566465,7445
1.4484532,7446
1.0506023,7447
1.3650739,7448
1.4286594,7449
1.4061548,7450
1.4442677,7451
1.0126595,7452
1.3251817,7453
1.402474,7454
1.4824212,7455
1.3913116,7456
1.3272662,7457
1.154784,7458
1.5816901,7459
1.6058058,7460
1.5876427,7461
1.5589385,7462
1.1585861,7463
1.3348738,7464
1.1501992,7465
1.5600439,7466
1.5980716,7467
1.1849461,7468
1.1600583,7469
1.1332976,7470
1.2905897,7471
1.5901841,7472
1.4857138,7473
1.1318622,7474
1.4323207,7475
1.4706116,7476
1.4933105,7477
1.3990632,7478
1.0779295,7479
1.4216565,7480
1.4422663,7481
1.534276,7482
1.609872,7483
1.2476149,7484
1.1602665,7485
1.2038876,7486
1.1668369,7487
1.4530467,7488
1.450124,7489
1.2712605,7490
1.5982156,7491
1.6461637,7492
1.7059712,7493
1.4463482,7494
1.1504307,7495
1.2949513,7496
1.2850802,7497
1.4425281,7498
1.5190384,7499
1.2211295,7500
1.3285358,7501
1.2938907,7502
1.2875502,7503
1.6385804,7504
1.5579215,7505
1.2050585,7506
1.5853453,7507
1.5951114,7508
1.553598,7509
1.5224469,7510
1.1963886,7511
1.4775367,7512
1.4257125,7513
1.5548792,7514
1.703272,7515
1.3926419,7516
1.1085696,7517
1.4752421,7518
1.5303122,7519
1.5106187,7520
1.3849422,7521
0.9952002,7522
1.388582,7523
1.3304881,7524
1.5960801,7525
1.5982952,7526
1.3183284,7527
1.3347708,7528
1.4684645,7529
1.5630364,7530
1.5637966,7531
1.546688,7532
1.5404917,7533
1.50917,7534
1.4903519,7535
1.5415461,7536
1.5536331,7537
1.0545177,7538
1.1371791,7539
1.4128219,7540
1.4751549,7541
1.4089788,7542
1.1869282,7543
1.3406434,7544
1.6084772,7545
1.6167071,7546
1.6113737,7547
1.5368047,7548
1.1715817,7549
1.3718987,7550
1.3244852,7551
1.4980547,7552
1.5075125,7553
1.1586338,7554
1.1564251,7555
1.1547717,7556
1.5234319,7557
1.6315688,7558
1.091274,7559
1.2215282,7560
1.4835455,7561
1.5219201,7562
1.5237691,7563
1.3548867,7564
0.99795765,7565
1.4579709,7566
1.476033,7567
1.6144354,7568
1.5576005,7569
1.1009132,7570
1.4584635,7571
1.4236645,7572
1.4307494,7573
1.4772035,7574
1.5091159,7575
1.1387179,7576
1.4227135,7577
1.495004,7578
1.5663732,7579
1.5104192,7580
1.0445848,7581
1.2791613,7582
1.2018794,7583
1.459159,7584
1.3901271,7585
1.3880475,7586
1.4131223,7587
1.5979537,7588
1.6481267,7589
1.6530722,7590
1.3890516,7591
0.96030957,7592
1.451939,7593
1.2865292,7594
1.4958704,7595
1.3693794,7596
1.1224521,7597
1.3882346,7598
1.3551055,7599
1.5236795,7600
1.6398181,7601
1.3952852,7602
1.2473658,7603
1.499902,7604
1.5416147,7605
1.482767,7606
1.1176045,7607
1.494494,7608
1.5572196,7609
1.5745037,7610
1.4605834,7611
1.5837617,7612
1.2178159,7613
1.2906276,7614
1.5261322,7615
1.6084266,7616
1.4815496,7617
1.1236827,7618
1.6172632,7619
1.4572941,7620
1.4442273,7621
1.546761,7622
1.4415984,7623
1.0872582,7624
1.1669614,7625
1.2935423,7626
1.4030058,7627
1.4239292,7628
1.2779143,7629
1.4435664,7630
1.65996,7631
1.6270498,7632
1.6201922,7633
1.2911454,7634
1.3659157,7635
1.3934784,7636
1.5589247,7637
1.5422745,7638
1.518324,7639
1.1192833,7640
1.4136103,7641
1.4699368,7642
1.5788324,7643
1.457562,7644
1.1019669,7645
1.5017822,7646
1.4161838,7647
1.4663533,7648
1.5421103,7649
1.4864805,7650
1.0210403,7651
1.318912,7652
1.5167398,7653
1.516785,7654
1.4938989,7655
1.1996933,7656
1.2440567,7657
1.3697581,7658
1.4599502,7659
1.5347532,7660
1.1911889,7661
1.1914926,7662
1.672484,7663
1.7022644,7664
1.5936728,7665
1.415609,7666
1.1867055,7667
1.4326371,7668
1.3848939,7669
1.4518964,7670
1.5669626,7671
1.2456694,7672
1.2980602,7673
1.2703279,7674
1.4788566,7675
1.5600883,7676
1.5314677,7677
1.2784433,7678
1.4399904,7679
1.5504413,7680
1.582862,7681
1.4723111,7682
1.2401472,7683
1.117307,7684
1.2847828,7685
1.4361854,7686
1.5871274,7687
1.4478081,7688
1.0810168,7689
1.3049197,7690
1.4845756,7691
1.488827,7692
1.5732102,7693
1.201217,7694
1.2152383,7695
1.549718,7696
1.6736507,7697
1.663126,7698
1.4669452,7699
1.4963379,7700
1.6453848,7701
1.6213708,7702
1.5674505,7703
1.5863941,7704
1.401429,7705
1.4982404,7706
1.5748537,7707
1.6072671,7708
1.6481584,7709
1.4530308,7710
1.0496228,7711
1.4542354,7712
1.4535722,7713
1.4006974,7714
1.4450803,7715
1.2543318,7716
1.518792,7717
1.6326634,7718
1.7048874,7719
1.6652519,7720
1.3538284,7721
1.1487973,7722
1.4532288,7723
1.4855924,7724
1.543847,7725
1.4733933,7726
0.98751557,7727
1.5140097,7728
1.3513556,7729
1.4983946,7730
1.5023519,7731
1.2361253,7732
1.4030759,7733
1.4397433,7734
1.5552676,7735
1.5464212,7736
1.4655298,7737
1.0893955,7738
1.4761878,7739
1.4482194,7740
1.5858074,7741
1.5052507,7742
1.2976202,7743
1.5498191,7744
1.6131434,7745
1.5960499,7746
1.5554087,7747
1.2051755,7748
1.1961046,7749
1.5359911,7750
1.6593125,7751
1.6910272,7752
1.4877638,7753
1.0836166,7754
1.3006707,7755
1.355244,7756
1.436241,7757
1.4641201,7758
1.1370008,7759
1.5623089,7760
1.6830877,7761
1.6866543,7762
1.6333864,7763
1.4282436,7764
1.2100242,7765
1.4899609,7766
1.4641695,7767
1.5835855,7768
1.4421648,7769
1.317219,7770
1.2508307,7771
1.3530121,7772
1.304346,7773
1.4179037,7774
1.0166966,7775
1.3399953,7776
1.4153899,7777
1.4420298,7778
1.5023801,7779
1.2318127,7780
1.0605514,7781
1.4266374,7782
1.4082321,7783
1.5269709,7784
1.4446121,7785
1.0837548,7786
1.2355646,7787
1.2084224,7788
1.397676,7789
1.399622,7790
1.2540029,7791
1.0072842,7792
1.4443833,7793
1.4039415,7794
1.3737898,7795
1.3264352,7796
0.96854997,7797
1.3774467,7798
1.2771318,7799
1.1742488,7800
1.1511806,7801
1.2979839,7802
1.0975015,7803
1.426678,7804
1.4031965,7805
1.1687766,7806
1.4604342,7807
1.1476699,7808
1.3283024,7809
1.3601096,7810
1.4078593,7811
1.4845273,7812
1.2234147,7813
1.3440664,7814
1.4506515,7815
1.5055057,7816
1.5483387,7817
1.4404956,7818
1.1234894,7819
1.4408567,7820
1.4174323,7821
1.4638201,7822
1.4831494,7823
1.2611961,7824
1.3696462,7825
1.3902771,7826
1.4163413,7827
1.4828455,7828
1.2648923,7829
1.2715225,7830
1.1555843,7831
1.1942296,7832
1.3376245,7833
1.1801021,7834
1.0999575,7835
1.5395483,7836
1.5236228,7837
1.5604023,7838
1.4229872,7839
1.2668561,7840
1.4039222,7841
1.2738168,7842
1.3078142,7843
1.2165623,7844
1.0360208,7845
1.0337229,7846
1.259436,7847
1.2815385,7848
1.4975302,7849
1.1643108,7850
1.4397641,7851
1.3464884,7852
1.3925223,7853
1.4620923,7854
1.4212976,7855
1.2339296,7856
1.4255804,7857
1.3066485,7858
1.371162,7859
1.4921124,7860
1.2491448,7861
1.2163767,7862
1.3414732,7863
1.2947434,7864
1.2828416,7865
1.2337167,7866
1.0711267,7867
1.1348497,7868
1.207776,7869
1.2563463,7870
1.3574108,7871
1.139753,7872
1.4900819,7873
1.4318308,7874
1.3353547,7875
1.4774373,7876
1.0603881,7877
1.5011154,7878
1.3950745,7879
1.1365976,7880
1.1121118,7881
1.108335,7882
1.2190272,7883
1.4047489,7884
1.3965765,7885
1.3997868,7886
1.3392544,7887
0.97941893,7888
1.3338714,7889
0.99359894,7890
1.1717538,7891
1.417317,7892
1.1383466,7893
1.2223407,7894
1.1995935,7895
1.3072383,7896
1.4079068,7897
1.3093443,7898
1.0754714,7899
1.3420374,7900
1.3211303,7901
1.4965016,7902
1.0990766,7903
1.1360277,7904
1.3752961,7905
1.4185216,7906
1.4204197,7907
1.3706517,7908
1.196938,7909
1.4602134,7910
1.3309252,7911
1.406208,7912
1.5593313,7913
1.1010288,7914
1.1185554,7915
1.2730494,7916
1.1480819,7917
1.370157,7918
1.3596395,7919
1.25269,7920
1.3644714,7921
1.2647945,7922
1.3495604,7923
1.2417874,7924
1.021916,7925
1.097297,7926
1.2519637,7927
1.3814118,7928
1.3689697,7929
1.4354869,7930
1.516862,7931
1.5134718,7932
1.5085658,7933
1.6413124,7934
1.507084,7935
1.1990119,7936
1.2905587,7937
1.2923105,7938
1.321251,7939
1.4668837,7940
1.1354772,7941
1.3660761,7942
1.4896979,7943
1.5713159,7944
1.6115581,7945
1.0754278,7946
1.0960164,7947
1.2384678,7948
1.2621387,7949
1.4215238,7950
1.4364352,7951
1.073297,7952
1.451213,7953
1.5045847,7954
1.3670098,7955
1.321056,7956
1.1139203,7957
1.1618418,7958
1.323113,7959
1.3552742,7960
1.324611,7961
1.0719961,7962
0.8977487,7963
0.9438185,7964
0.93521506,7965
0.9724898,7966
1.0252231,7967
1.0938684,7968
1.2722777,7969
1.246121,7970
1.1509221,7971
1.386776,7972
1.2089996,7973
1.0465443,7974
1.3162328,7975
1.2464731,7976
1.315411,7977
1.3685751,7978
1.072427,7979
1.3478992,7980
1.3546845,7981
1.3593014,7982
1.5009807,7983
1.3891146,7984
1.1531066,7985
1.4024303,7986
1.2897502,7987
1.47724,7988
1.3457503,7989
1.188252,7990
1.3834732,7991
1.3223826,7992
1.4530936,7993
1.3602334,7994
1.236556,7995
1.3234751,7996
1.405617,7997
1.3781047,7998
1.323195,7999
1.401017,8000
1.1280729,8001
1.2808788,8002
1.2957072,8003
1.2745557,8004
1.377164,8005
1.2872503,8006
1.4456599,8007
1.526325,8008
1.4073491,8009
1.6088507,8010
1.0857047,8011
1.1032231,8012
1.2751396,8013
1.1328756,8014
1.1023816,8015
0.85933715,8016
1.0649607,8017
1.4150147,8018
1.3798496,8019
1.374177,8020
1.3914472,8021
1.0633597,8022
1.1945479,8023
1.2680802,8024
1.3300194,8025
1.3244792,8026
1.271842,8027
1.2871976,8028
1.5117567,8029
1.4095058,8030
1.3989835,8031
1.5372587,8032
1.3199065,8033
1.350058,8034
1.4099665,8035
1.4238173,8036
1.3321733,8037
1.260895,8038
1.3277441,8039
1.3493501,8040
1.4636562,8041
1.3979126,8042
1.1302613,8043
1.4352955,8044
1.3881907,8045
1.4233204,8046
1.4180627,8047
1.1586536,8048
1.0403417,8049
1.4380839,8050
1.4683791,8051
1.4943024,8052
1.453483,8053
1.0572337,8054
1.3664141,8055
1.4945205,8056
1.5344318,8057
1.5317811,8058
1.342436,8059
1.3003722,8060
1.412705,8061
1.5165524,8062
1.5058837,8063
1.5234975,8064
1.1400483,8065
1.2054656,8066
1.2281288,8067
1.4567047,8068
1.3954122,8069
1.2819208,8070
1.3268577,8071
1.6219478,8072
1.5195208,8073
1.5222207,8074
1.4706731,8075
1.1863751,8076
1.4752429,8077
1.4990368,8078
1.5131708,8079
1.5565287,8080
1.2259938,8081
1.4606794,8082
1.5694522,8083
1.4886361,8084
1.4454551,8085
1.1099038,8086
1.2409779,8087
1.3529876,8088
1.3458017,8089
1.4295729,8090
1.342804,8091
1.1106507,8092
1.5003977,8093
1.4631879,8094
1.4933072,8095
1.4303402,8096
1.2363148,8097
1.4990491,8098
1.477258,8099
1.4311482,8100
1.4633995,8101
1.5207996,8102
1.0556344,8103
1.4836161,8104
1.5570053,8105
1.5541906,8106
1.5639595,8107
1.3248894,8108
1.2308154,8109
1.4372269,8110
1.4566828,8111
1.5244985,8112
1.4630922,8113
1.0624526,8114
1.5170163,8115
1.6219984,8116
1.6212494,8117
1.5016651,8118
1.2582906,8119
1.3550097,8120
1.3903681,8121
1.423294,8122
1.4282073,8123
1.4684057,8124
1.1525167,8125
1.4058472,8126
1.4703584,8127
1.5083377,8128
1.4503688,8129
1.177688,8130
1.5605502,8131
1.5955933,8132
1.6094608,8133
1.5961449,8134
1.2735335,8135
1.3294863,8136
1.4523764,8137
1.6920952,8138
1.6509014,8139
1.5124334,8140
1.0651836,8141
1.3420668,8142
1.4088222,8143
1.4593532,8144
1.2858486,8145
1.0951643,8146
1.0105486,8147
1.0602313,8148
1.0207332,8149
1.4754655,8150
1.2969279,8151
1.1169807,8152
1.4702038,8153
1.4937466,8154
1.417152,8155
1.5149183,8156
1.1151552,8157
1.375686,8158
1.3327814,8159
1.5403109,8160
1.48312,8161
1.3310554,8162
1.1306522,8163
1.1831207,8164
1.3598084,8165
1.4056185,8166
1.4329783,8167
1.2265004,8168
1.6671946,8169
1.5539185,8170
1.6204246,8171
1.5610505,8172
1.3681793,8173
1.2963557,8174
1.5645533,8175
1.5329053,8176
1.4437019,8177
1.3213886,8178
1.1097502,8179
1.4590988,8180
1.6451503,8181
1.6718026,8182
1.3287675,8183
1.157142,8184
1.3634666,8185
1.2819219,8186
1.4167892,8187
1.5215902,8188
1.3028455,8189
1.2316169,8190
1.3829606,8191
1.5219299,8192
1.5435835,8193
1.504298,8194
1.0890827,8195
1.2628437,8196
1.1405268,8197
1.4140817,8198
1.5048327,8199
1.2210474,8200
1.3947399,8201
1.4666443,8202
1.5248886,8203
1.4321239,8204
0.9968351,8205
1.0445046,8206
1.0643451,8207
1.0466405,8208
1.116951,8209
1.3061166,8210
1.1960578,8211
1.2576083,8212
1.3542627,8213
1.4325022,8214
1.5026366,8215
1.201457,8216
1.2556347,8217
1.4995192,8218
1.6454816,8219
1.6306516,8220
1.5082004,8221
1.2586526,8222
1.5202379,8223
1.5460844,8224
1.460016,8225
1.4890192,8226
1.1858839,8227
1.3323808,8228
1.3784083,8229
1.3978497,8230
1.3906884,8231
1.189133,8232
1.1863183,8233
1.0710899,8234
1.2698914,8235
1.5051757,8236
1.323419,8237
0.99634117,8238
1.3114359,8239
1.2847097,8240
1.2415226,8241
1.5753623,8242
1.2562139,8243
1.2589914,8244
1.3607597,8245
1.5076382,8246
1.5380164,8247
1.503743,8248
1.0952455,8249
1.1252764,8250
1.1606284,8251
1.2260095,8252
1.3736532,8253
1.1717229,8254
1.6054741,8255
1.5414608,8256
1.6832047,8257
1.5145118,8258
1.242588,8259
1.4512137,8260
1.583927,8261
1.5641869,8262
1.6190702,8263
1.4268385,8264
1.3579363,8265
1.6104001,8266
1.5706686,8267
1.4753036,8268
1.4392685,8269
1.1992018,8270
1.3964545,8271
1.4314922,8272
1.5225028,8273
1.5257186,8274
1.1617012,8275
1.4366431,8276
1.4869897,8277
1.5480925,8278
1.5369691,8279
1.226992,8280
1.2328656,8281
1.334064,8282
1.3060948,8283
1.5210675,8284
1.4327112,8285
1.2712755,8286
1.5092678,8287
1.4938707,8288
1.5451123,8289
1.461999,8290
1.1779773,8291
1.3309237,8292
1.0924417,8293
1.3655239,8294
1.3920866,8295
1.1787678,8296
1.3434997,8297
1.369374,8298
1.2167021,8299
1.1005524,8300
1.325867,8301
1.2873778,8302
1.5212321,8303
1.4723268,8304
1.5907936,8305
1.5111997,8306
1.1899769,8307
1.4848675,8308
1.5114251,8309
1.5983326,8310
1.6082795,8311
1.3049806,8312
1.1833178,8313
1.3387241,8314
1.2680353,8315
1.2389685,8316
1.2952514,8317
1.1783977,8318
1.3759315,8319
1.2838024,8320
1.1108376,8321
1.4340292,8322
1.1504856,8323
1.1360801,8324
1.2032466,8325
1.0891182,8326
1.3123007,8327
1.5008093,8328
1.1362076,8329
1.5810394,8330
1.4104574,8331
1.4695956,8332
1.493371,8333
1.1165648,8334
1.1014713,8335
1.1099399,8336
1.1340225,8337
1.2365633,8338
1.1098703,8339
1.24293,8340
1.65122,8341
1.6589699,8342
1.5469074,8343
1.3493336,8344
1.2086983,8345
1.4933945,8346
1.435012,8347
1.4762347,8348
1.5156002,8349
1.2466366,8350
1.2465595,8351
1.5360785,8352
1.6719652,8353
1.6531737,8354
1.267643,8355
1.3257197,8356
1.4556544,8357
1.4511132,8358
1.4204406,8359
1.4060154,8360
1.1082767,8361
1.4252839,8362
1.3731942,8363
1.3901515,8364
1.4249331,8365
1.1510803,8366
1.2520258,8367
1.1360579,8368
1.2747018,8369
1.3701364,8370
1.2109873,8371
1.2701612,8372
1.3644735,8373
1.241777,8374
1.4128687,8375
1.3801259,8376
1.2279154,8377
1.2476903,8378
1.4607843,8379
1.6343851,8380
1.5336475,8381
1.1529921,8382
1.3485014,8383
1.4834,8384
1.3948067,8385
1.4176757,8386
1.2422689,8387
1.3045554,8388
1.399129,8389
1.4705521,8390
1.4376433,8391
1.3302815,8392
1.0859021,8393
1.4259351,8394
1.3788689,8395
1.4761432,8396
1.3562125,8397
1.123709,8398
1.4338548,8399
1.4123143,8400
1.494011,8401
1.4867003,8402
1.1896026,8403
1.1879374,8404
1.4833779,8405
1.5186099,8406
1.6223664,8407
1.4798595,8408
1.0465907,8409
1.3587916,8410
1.5125593,8411
1.4271029,8412
1.4235787,8413
1.0919409,8414
1.1333506,8415
1.4908768,8416
1.5009055,8417
1.6090399,8418
1.4454865,8419
1.2920712,8420
1.3071939,8421
1.5027416,8422
1.553631,8423
1.4207326,8424
1.0258611,8425
1.3350587,8426
1.541719,8427
1.5064158,8428
1.4852992,8429
1.2085382,8430
1.2638243,8431
1.4336238,8432
1.4019598,8433
1.4057462,8434
1.2760681,8435
1.1777157,8436
1.4843369,8437
1.5325617,8438
1.5949355,8439
1.3286351,8440
1.1084119,8441
1.4625778,8442
1.4769984,8443
1.4574753,8444
1.4645767,8445
1.2677826,8446
1.2093973,8447
1.5790334,8448
1.5362093,8449
1.576203,8450
1.4914999,8451
1.1502061,8452
1.4742453,8453
1.468462,8454
1.5556442,8455
1.5605582,8456
1.3596196,8457
1.0744531,8458
1.5880743,8459
1.6087346,8460
1.6148697,8461
1.3688569,8462
1.2151324,8463
1.3767521,8464
1.4420136,8465
1.4609182,8466
1.5414906,8467
1.3509072,8468
1.149838,8469
1.4750383,8470
1.4288839,8471
1.4594973,8472
1.1903225,8473
1.0569625,8474
1.4460562,8475
1.4824406,8476
1.3701675,8477
1.3939872,8478
1.4263268,8479
1.0192106,8480
1.3329489,8481
1.396246,8482
1.3331563,8483
1.2419095,8484
1.1476823,8485
1.434421,8486
1.4569944,8487
1.432466,8488
1.4606355,8489
1.3529325,8490
1.1232235,8491
1.5274695,8492
1.4169894,8493
1.5742847,8494
1.3678541,8495
1.1223131,8496
1.3405906,8497
1.3800586,8498
1.4258174,8499
1.3065561,8500
1.3949122,8501
1.4830956,8502
1.4734563,8503
0.9667103,8504
1.3725743,8505
1.4166573,8506
1.0184118,8507
1.2893968,8508
1.4126188,8509
1.3092039,8510
1.2539245,8511
1.3895255,8512
1.3886276,8513
1.2579392,8514
1.3105625,8515
1.5194261,8516
1.4300035,8517
1.593359,8518
1.5080984,8519
1.5825558,8520
1.6993846,8521
1.5726051,8522
1.6056551,8523
1.5340314,8524
1.655997,8525
1.6345239,8526
1.516399,8527
1.4598207,8528
1.3153087,8529
1.4173076,8530
1.4422153,8531
1.4415253,8532
1.4432849,8533
1.615158,8534
1.593002,8535
1.6725346,8536
1.3097212,8537
1.4712203,8538
1.2039682,8539
1.2392873,8540
1.3968222,8541
1.4788263,8542
1.2815512,8543
1.3245045,8544
1.2115495,8545
1.1471022,8546
1.1903609,8547
1.4138296,8548
1.3758557,8549
1.5023768,8550
1.3256387,8551
1.2951962,8552
1.286159,8553
1.0622265,8554
1.0849873,8555
1.2516454,8556
1.2936682,8557
1.2055712,8558
1.2972282,8559
1.077691,8560
1.440588,8561
1.3544543,8562
1.3598074,8563
1.1681559,8564
1.1527402,8565
1.3453815,8566
1.3211254,8567
1.337617,8568
1.5024081,8569
1.2093784,8570
1.2241573,8571
1.4636585,8572
1.4385757,8573
1.4074831,8574
1.2956526,8575
1.3111458,8576
1.4578042,8577
1.4039619,8578
1.4450171,8579
1.3671939,8580
1.0315061,8581
1.2530638,8582
1.2268827,8583
1.3995873,8584
1.5197581,8585
1.2624811,8586
1.1103822,8587
1.3584186,8588
1.4011283,8589
1.4645988,8590
1.1996969,8591
1.1242008,8592
1.4266822,8593
1.4218953,8594
1.5416995,8595
1.3832115,8596
1.3504177,8597
1.4913956,8598
1.3550682,8599
1.5010934,8600
1.4301775,8601
1.145375,8602
1.3998715,8603
1.2642611,8604
1.4875846,8605
1.4700885,8606
1.2944661,8607
1.3701608,8608
1.584351,8609
1.6632248,8610
1.6179731,8611
1.2755471,8612
1.3706096,8613
1.4026895,8614
1.5931967,8615
1.5486231,8616
1.2497909,8617
1.0079494,8618
1.5818807,8619
1.4805583,8620
1.6518066,8621
1.6075453,8622
1.2065667,8623
1.5462269,8624
1.5008725,8625
1.5730784,8626
1.5840569,8627
1.1565813,8628
1.193267,8629
1.500175,8630
1.6612428,8631
1.4807453,8632
1.366296,8633
1.2492392,8634
1.3750265,8635
1.4323312,8636
1.5021414,8637
1.417304,8638
1.0970368,8639
1.3064939,8640
1.1725477,8641
1.2384624,8642
1.2691433,8643
1.0936117,8644
1.3187642,8645
1.2618568,8646
1.3529235,8647
1.3949995,8648
1.3095944,8649
1.0034441,8650
1.3209958,8651
1.3984331,8652
1.423222,8653
1.4284878,8654
0.97366154,8655
1.2611142,8656
1.3233315,8657
1.4385926,8658
1.4288003,8659
1.2342234,8660
1.3683376,8661
1.4554105,8662
1.436459,8663
1.3500215,8664
1.4054769,8665
1.0942289,8666
1.3040444,8667
1.3139232,8668
1.3841121,8669
1.4165301,8670
1.1334285,8671
1.3428751,8672
1.4275882,8673
1.562074,8674
1.5941982,8675
1.1307648,8676
1.24712,8677
1.4511547,8678
1.5259056,8679
1.5551018,8680
1.4275377,8681
0.8110853,8682
1.4199384,8683
1.4336991,8684
1.5185686,8685
1.4493233,8686
1.0522056,8687
1.3964715,8688
1.4586539,8689
1.5323641,8690
1.5044789,8691
1.4178807,8692
1.1584243,8693
1.6149069,8694
1.6667141,8695
1.7205166,8696
1.3605518,8697
1.0908741,8698
1.3004854,8699
1.5039889,8700
1.5671058,8701
1.4766119,8702
1.2079045,8703
1.1649822,8704
1.3077292,8705
1.4987863,8706
1.5960386,8707
1.1688231,8708
1.3234193,8709
1.5769538,8710
1.6088662,8711
1.6053013,8712
1.3836874,8713
1.3618187,8714
1.4209639,8715
1.0818807,8716
1.5406606,8717
1.4249519,8718
1.0722654,8719
1.2293541,8720
1.3358344,8721
1.4379827,8722
1.4813478,8723
1.4898858,8724
1.0081003,8725
1.4546318,8726
1.4505402,8727
1.4896538,8728
1.42121,8729
1.1429043,8730
1.441741,8731
1.5369186,8732
1.4183499,8733
1.4784918,8734
1.1899151,8735
1.1569039,8736
1.0245742,8737
0.86036134,8738
0.8836367,8739
0.995043,8740
0.89495647,8741
1.0337168,8742
1.0671356,8743
1.3581005,8744
1.3775439,8745
1.3725749,8746
1.1482372,8747
1.4905231,8748
1.4821045,8749
1.4639109,8750
1.3842025,8751
1.0187472,8752
1.0885942,8753
1.4152646,8754
1.5231204,8755
1.543381,8756
1.214715,8757
1.1615683,8758
1.3144569,8759
1.395079,8760
1.5951504,8761
1.2513814,8762
1.2293129,8763
1.5212171,8764
1.5120777,8765
1.6147698,8766
1.4529517,8767
1.123091,8768
1.3048084,8769
1.3879607,8770
1.63313,8771
1.5166497,8772
1.2459519,8773
1.3046641,8774
1.5041164,8775
1.5703444,8776
1.6262667,8777
1.4869623,8778
1.109675,8779
1.4240483,8780
1.6454277,8781
1.6204426,8782
1.5246981,8783
1.0356799,8784
1.3540953,8785
1.2686514,8786
1.4362794,8787
1.5252539,8788
1.3239431,8789
1.252741,8790
1.5185783,8791
1.6191343,8792
1.5817177,8793
1.4088649,8794
1.0145915,8795
1.4306339,8796
1.3247967,8797
1.4635806,8798
1.4599377,8799
1.3927664,8800
1.0768089,8801
1.1790364,8802
1.4327643,8803
1.4998714,8804
1.2748582,8805
1.0694175,8806
1.4009639,8807
1.3726662,8808
1.5425748,8809
1.3712357,8810
1.15131,8811
1.197894,8812
1.3413022,8813
1.47074,8814
1.3255401,8815
1.0874509,8816
1.173426,8817
1.3113606,8818
1.3983443,8819
1.343335,8820
1.3955885,8821
1.0583309,8822
1.2708237,8823
1.191437,8824
1.2206345,8825
1.2801099,8826
1.3341988,8827
1.2855306,8828
1.2863114,8829
1.4049007,8830
1.4146954,8831
1.501681,8832
1.0517588,8833
1.3229921,8834
1.3376828,8835
1.3226382,8836
1.2071126,8837
1.0821085,8838
1.2571163,8839
1.3123139,8840
1.4676439,8841
1.5072951,8842
1.2105438,8843
0.99509627,8844
1.3450835,8845
1.4490547,8846
1.4394248,8847
1.2795212,8848
1.3943684,8849
1.497915,8850
1.5819366,8851
1.5493296,8852
1.493267,8853
1.3376346,8854
1.4975401,8855
1.3503561,8856
1.371221,8857
1.5222843,8858
1.1398554,8859
1.136594,8860
1.1129677,8861
1.3364753,8862
1.5198184,8863
1.576077,8864
1.1044236,8865
1.6710758,8866
1.6349418,8867
1.6617646,8868
1.468287,8869
1.1528453,8870
1.3897355,8871
1.5006708,8872
1.5013648,8873
1.5375663,8874
1.20737,8875
1.2312657,8876
1.465902,8877
1.374982,8878
1.5596879,8879
1.3111078,8880
1.3074337,8881
1.6538403,8882
1.581188,8883
1.6097548,8884
1.5620741,8885
1.5396332,8886
1.3287979,8887
1.5857862,8888
1.3105512,8889
1.4908421,8890
1.0545119,8891
1.3410993,8892
1.3685577,8893
1.2593504,8894
1.2051265,8895
1.0594945,8896
0.86978334,8897
0.8475163,8898
0.98074967,8899
0.9833428,8900
1.1180831,8901
1.1190462,8902
1.1169122,8903
1.3882754,8904
1.4061673,8905
1.3354794,8906
1.3274252,8907
1.009518,8908
1.1806847,8909
1.3528262,8910
1.3995994,8911
1.3960383,8912
1.3334916,8913
1.3285865,8914
1.3564082,8915
1.3854753,8916
1.5578712,8917
1.3763188,8918
1.0237315,8919
1.348463,8920
1.3587625,8921
1.2666337,8922
1.2433484,8923
1.0118318,8924
1.3116542,8925
1.2350744,8926
1.4249022,8927
1.460326,8928
1.3230354,8929
0.8878457,8930
1.2987565,8931
1.2885622,8932
1.4143894,8933
1.3207668,8934
1.267634,8935
1.4014735,8936
1.4064147,8937
1.5332341,8938
1.4948164,8939
1.2066315,8940
1.3334019,8941
1.2394388,8942
1.464632,8943
1.5283376,8944
1.4521989,8945
1.2987268,8946
1.3772306,8947
1.3673375,8948
1.5576338,8949
1.5509424,8950
1.0867686,8951
1.6322752,8952
1.6098875,8953
1.6706594,8954
1.486057,8955
1.3142216,8956
1.2714584,8957
1.4240392,8958
1.5021205,8959
1.5090737,8960
1.14385,8961
1.1220907,8962
1.24366,8963
1.4149978,8964
1.5866826,8965
1.5313963,8966
1.2426695,8967
1.6379923,8968
1.6517617,8969
1.7082908,8970
1.6345546,8971
1.3286767,8972
1.2978108,8973
1.5097826,8974
1.6984911,8975
1.6007143,8976
1.3271666,8977
1.2237982,8978
1.4320893,8979
1.5900376,8980
1.502806,8981
1.7092831,8982
1.1894746,8983
1.553835,8984
1.4898347,8985
1.4804512,8986
1.5736415,8987
1.2333579,8988
1.2723612,8989
1.6004039,8990
1.6074935,8991
1.6138204,8992
1.5424452,8993
1.1756788,8994
1.6075592,8995
1.6567296,8996
1.7234244,8997
1.4997425,8998
0.9923074,8999
1.3608317,9000
1.3010405,9001
1.4120991,9002
1.4672909,9003
1.3169379,9004
1.305208,9005
1.4206198,9006
1.6339573,9007
1.690896,9008
1.5206833,9009
1.0443656,9010
1.3683784,9011
1.2937772,9012
1.438906,9013
1.3413299,9014
1.0267283,9015
1.3503913,9016
1.2088894,9017
1.4910485,9018
1.3961284,9019
1.2170295,9020
1.2188985,9021
1.37239,9022
1.5195984,9023
1.5346648,9024
1.2885431,9025
1.2346318,9026
1.2362028,9027
1.343829,9028
1.579909,9029
1.5220947,9030
1.248307,9031
1.5200931,9032
1.4788852,9033
1.6287099,9034
1.6633376,9035
1.2699658,9036
1.2932098,9037
1.5565883,9038
1.5805428,9039
1.5787724,9040
1.4450971,9041
0.90733784,9042
1.2355188,9043
1.1972059,9044
1.3785391,9045
1.409675,9046
1.0984946,9047
1.5787451,9048
1.5061631,9049
1.5926574,9050
1.5985087,9051
1.1628922,9052
1.2203666,9053
1.2690808,9054
1.4671298,9055
1.3547322,9056
1.3767197,9057
0.8540603,9058
1.2038544,9059
1.1329124,9060
1.389559,9061
1.4293922,9062
1.1034883,9063
1.3392426,9064
1.3598899,9065
1.2785962,9066
1.4981487,9067
1.2741864,9068
1.1176,9069
1.425532,9070
1.2900008,9071
1.1981037,9072
1.4414285,9073
1.1845862,9074
1.2774544,9075
1.3575364,9076
1.3893732,9077
1.4189619,9078
1.1126126,9079
1.2837646,9080
1.3171965,9081
1.4095484,9082
1.4519335,9083
1.2638203,9084
1.1204878,9085
1.4047074,9086
1.3536756,9087
1.4411458,9088
1.4387434,9089
1.3071457,9090
1.3270663,9091
1.3354325,9092
1.3597385,9093
1.4404713,9094
1.3091594,9095
1.025351,9096
1.3378497,9097
1.4806867,9098
1.5468518,9099
1.4833475,9100
1.0190918,9101
1.3125582,9102
1.5625535,9103
1.6608608,9104
1.4679714,9105
1.2953156,9106
1.2499563,9107
1.3201592,9108
1.3259078,9109
1.3843931,9110
1.0959406,9111
1.142726,9112
1.1653965,9113
1.1650659,9114
1.3938552,9115
1.2410698,9116
0.8075533,9117
1.1362149,9118
1.336218,9119
1.3850384,9120
1.4203968,9121
1.1051948,9122
1.4016992,9123
1.6121855,9124
1.6101367,9125
1.6123372,9126
1.2581865,9127
1.1306245,9128
1.3482314,9129
1.501719,9130
1.5877928,9131
1.3496265,9132
1.187323,9133
1.2886375,9134
1.2372379,9135
1.4830914,9136
1.4994819,9137
1.1475291,9138
1.2364355,9139
1.3690016,9140
1.5506979,9141
1.6176367,9142
1.0097985,9143
1.162459,9144
1.3137623,9145
1.4189515,9146
1.5953674,9147
1.3345063,9148
1.1011398,9149
1.4630595,9150
1.4809966,9151
1.5153418,9152
1.4826899,9153
1.0243802,9154
1.2842437,9155
1.1773467,9156
1.2180982,9157
1.1358232,9158
1.3291928,9159
1.102511,9160
1.3427553,9161
1.2859836,9162
1.4470297,9163
1.2901406,9164
0.9892665,9165
1.3785071,9166
1.3179442,9167
1.3352432,9168
1.3315198,9169
1.1401399,9170
1.2872912,9171
1.2134901,9172
1.2788727,9173
1.3762848,9174
1.2884915,9175
1.073372,9176
1.4987712,9177
1.4495391,9178
1.4310431,9179
1.4281318,9180
1.1745609,9181
1.2937722,9182
1.3329843,9183
1.4339057,9184
1.5154896,9185
1.1354216,9186
1.1387222,9187
1.462873,9188
1.5944246,9189
1.4782035,9190
1.1035765,9191
1.0420237,9192
1.2688892,9193
1.3105063,9194
1.2385437,9195
1.2366699,9196
0.9568741,9197
1.0552547,9198
1.030077,9199
1.1612512,9200
1.2403318,9201
1.1669036,9202
1.2016449,9203
1.1556425,9204
1.2389469,9205
1.3116144,9206
1.1244937,9207
1.1288823,9208
1.5890943,9209
1.5296835,9210
1.5833851,9211
1.539265,9212
0.9531057,9213
1.4089216,9214
1.427566,9215
1.4851596,9216
1.5395554,9217
1.1292582,9218
1.5445031,9219
1.4273219,9220
1.5121171,9221
1.498605,9222
1.2381814,9223
1.2431738,9224
1.5674797,9225
1.6105279,9226
1.626395,9227
1.5266014,9228
1.2276853,9229
1.5651698,9230
1.4302735,9231
1.6020224,9232
1.6048076,9233
1.2220011,9234
1.2653531,9235
1.3425814,9236
1.5790985,9237
1.5224688,9238
1.4510304,9239
1.208407,9240
1.335941,9241
1.4385084,9242
1.5273355,9243
1.3968122,9244
1.2041332,9245
1.20675,9246
1.360992,9247
1.5081804,9248
1.5712014,9249
1.4720314,9250
1.3261745,9251
1.4417567,9252
1.3036213,9253
1.0659328,9254
0.9339494,9255
0.8142425,9256
1.0025471,9257
1.0290167,9258
1.0399212,9259
1.0958705,9260
1.1224188,9261
1.4816661,9262
1.5365067,9263
1.5411891,9264
1.4469032,9265
1.1076393,9266
1.4632187,9267
1.3859919,9268
1.4663837,9269
1.5824316,9270
1.2862905,9271
0.9586829,9272
1.3720759,9273
1.5387061,9274
1.5242258,9275
1.302346,9276
1.0523742,9277
1.4481456,9278
1.4653546,9279
1.5989226,9280
1.6252545,9281
1.3714808,9282
1.178395,9283
1.5242411,9284
1.5703498,9285
1.4297808,9286
1.3472168,9287
1.0835332,9288
1.649177,9289
1.5994608,9290
1.6330007,9291
1.538455,9292
1.3668159,9293
1.1949439,9294
1.5674467,9295
1.6190666,9296
1.6654747,9297
1.5234773,9298
0.9425775,9299
1.2841468,9300
1.4232124,9301
1.5745775,9302
1.4620404,9303
1.3317523,9304
1.5044869,9305
1.6408075,9306
1.6991022,9307
1.64659,9308
1.3072915,9309
1.17001,9310
1.320644,9311
1.4558185,9312
1.4448023,9313
1.3281137,9314
1.0307527,9315
1.3274853,9316
1.4304048,9317
1.5593586,9318
1.4907889,9319
1.1063104,9320
1.342236,9321
1.402972,9322
1.3980134,9323
1.424482,9324
1.4263531,9325
1.0730267,9326
1.5540944,9327
1.4675831,9328
1.6429422,9329
1.4733487,9330
1.1446747,9331
1.3094314,9332
1.388305,9333
1.3329031,9334
1.3708677,9335
1.3322786,9336
0.89461285,9337
1.2328584,9338
1.3382642,9339
1.474342,9340
1.4251047,9341
1.0913184,9342
1.3697276,9343
1.4745401,9344
1.4056423,9345
1.4799815,9346
1.3372213,9347
1.1863632,9348
1.4163768,9349
1.3712361,9350
1.3355021,9351
1.2292755,9352
1.0437496,9353
1.254746,9354
1.2469945,9355
1.3179657,9356
1.3507986,9357
0.9082022,9358
0.9177979,9359
1.1855524,9360
1.3961071,9361
1.6011505,9362
1.3014114,9363
1.1591371,9364
1.2853516,9365
1.3159254,9366
1.355166,9367
1.1714126,9368
0.82755935,9369
1.0479726,9370
1.1005358,9371
1.1796678,9372
1.3335824,9373
0.94430524,9374
1.0692887,9375
1.2723857,9376
1.2625641,9377
1.4373146,9378
1.4501165,9379
1.2011546,9380
1.5925871,9381
1.6005589,9382
1.601522,9383
1.4870939,9384
1.0520691,9385
1.4442066,9386
1.4221231,9387
1.534564,9388
1.5799303,9389
1.3485879,9390
1.3419304,9391
1.4323101,9392
1.5392447,9393
1.6085615,9394
1.4315025,9395
1.1400943,9396
1.6035837,9397
1.5315906,9398
1.5082057,9399
1.5261931,9400
1.2267098,9401
1.235461,9402
1.3075718,9403
1.4747981,9404
1.5191616,9405
1.430983,9406
1.2235401,9407
1.4245042,9408
1.421498,9409
1.2616982,9410
1.1011841,9411
0.96232474,9412
0.95626515,9413
0.9515055,9414
0.9738337,9415
1.0770758,9416
1.1493281,9417
1.2514591,9418
1.4288108,9419
1.3407294,9420
1.330055,9421
1.3762444,9422
1.0161655,9423
1.3672793,9424
1.4057056,9425
1.3660616,9426
1.2496907,9427
1.1134677,9428
1.3615401,9429
1.3782423,9430
1.4304322,9431
1.4471973,9432
1.1545296,9433
1.4109458,9434
1.3592327,9435
1.3222799,9436
1.411875,9437
1.190364,9438
1.0082418,9439
1.239456,9440
1.4024094,9441
1.3506134,9442
1.3828231,9443
1.137369,9444
1.2186483,9445
1.2410178,9446
1.3907436,9447
1.4544957,9448
1.0359492,9449
1.1436664,9450
1.2316643,9451
1.2923725,9452
1.2820348,9453
1.2070122,9454
1.1160401,9455
1.1861963,9456
1.1575383,9457
1.2536656,9458
1.2877628,9459
1.247631,9460
1.146654,9461
1.182043,9462
1.2722278,9463
1.3880028,9464
1.1768941,9465
1.4601241,9466
1.6061779,9467
1.6486654,9468
1.6132467,9469
1.4175535,9470
1.2717377,9471
1.4717742,9472
1.458581,9473
1.4583713,9474
1.5089256,9475
1.1178949,9476
1.5141214,9477
1.3228557,9478
1.5118388,9479
1.553256,9480
1.2420734,9481
1.5458163,9482
1.6202639,9483
1.5900259,9484
1.6251485,9485
1.2437361,9486
1.1837645,9487
1.3706967,9488
1.5689934,9489
1.6971586,9490
1.5090623,9491
1.11943,9492
1.3913304,9493
1.4812688,9494
1.5497867,9495
1.5400742,9496
1.1708175,9497
1.3965458,9498
1.5527413,9499
1.6444027,9500
1.6657853,9501
1.5162333,9502
1.1730266,9503
1.5860288,9504
1.6449606,9505
1.691685,9506
1.637215,9507
1.268454,9508
1.3713351,9509
1.7705034,9510
1.7841899,9511
1.6299487,9512
1.2746214,9513
1.2951517,9514
1.2828103,9515
1.4556793,9516
1.4516135,9517
1.4313365,9518
1.037651,9519
1.5412749,9520
1.551537,9521
1.6082785,9522
1.5309814,9523
1.1423916,9524
1.1603041,9525
1.0401784,9526
1.3790485,9527
1.3109335,9528
1.3225826,9529
1.1332475,9530
1.5196772,9531
1.4925162,9532
1.5023513,9533
1.302518,9534
1.2000087,9535
1.4223326,9536
1.5002782,9537
1.5677463,9538
1.5376835,9539
1.2187707,9540
1.0925351,9541
1.2192914,9542
1.1841798,9543
1.3977119,9544
1.4560889,9545
1.2701416,9546
1.5318294,9547
1.6714071,9548
1.6370772,9549
1.6310188,9550
1.3158404,9551
1.3200196,9552
1.4516162,9553
1.6371576,9554
1.5899173,9555
1.3039433,9556
1.1680001,9557
1.2052819,9558
1.4263443,9559
1.5390884,9560
1.3879603,9561
0.97533125,9562
1.6074224,9563
1.572692,9564
1.5602151,9565
1.5056502,9566
1.1083518,9567
1.3520014,9568
1.36231,9569
1.376451,9570
1.431402,9571
1.4233973,9572
1.1114458,9573
1.3281071,9574
1.3336662,9575
1.4530737,9576
1.2777759,9577
1.2594733,9578
1.5488133,9579
1.4801737,9580
1.5283251,9581
1.4189398,9582
1.5441997,9583
1.5098578,9584
1.1921302,9585
1.2881709,9586
1.3714443,9587
1.0497084,9588
1.2193084,9589
1.2420104,9590
1.0718617,9591
1.4748852,9592
1.3269546,9593
1.3179976,9594
1.5360376,9595
1.4855459,9596
1.5789703,9597
1.5527261,9598
1.1087109,9599
1.2945151,9600
1.075989,9601
1.3587091,9602
1.419072,9603
1.1428227,9604
1.2403395,9605
1.262403,9606
1.0755097,9607
1.367634,9608
1.3023419,9609
1.5444322,9610
1.1949116,9611
1.3606757,9612
1.1793638,9613
1.0750482,9614
1.0009942,9615
1.0450147,9616
1.0993485,9617
1.1378725,9618
1.1226829,9619
1.0643394,9620
0.9719357,9621
1.0435994,9622
1.061789,9623
1.1289697,9624
1.141887,9625
1.2308434,9626
1.1878835,9627
1.2055072,9628
1.2447305,9629
1.2227869,9630
1.2554882,9631
1.2811005,9632
1.216561,9633
1.1834116,9634
1.2312564,9635
1.2124939,9636
1.2791553,9637
1.1803811,9638
1.2849255,9639
1.2318175,9640
1.2983917,9641
1.3471385,9642
1.2903721,9643
1.3397385,9644
1.3444221,9645
1.266883,9646
1.3251684,9647
1.3013889,9648
1.3609099,9649
1.3265343,9650
1.3388252,9651
1.3585207,9652
1.3442328,9653
1.3146727,9654
1.3903598,9655
1.3585833,9656
1.4114387,9657
1.398735,9658
1.4071136,9659
1.410887,9660
1.3801928,9661
1.3318577,9662
1.427397,9663
1.392306,9664
1.3909354,9665
1.5091972,9666
1.4901519,9667
1.4014211,9668
1.3474851,9669
1.4604264,9670
1.4131225,9671
1.4879133,9672
1.533504,9673
1.3870842,9674
1.4356405,9675
1.5088553,9676
1.4776033,9677
1.5932237,9678
1.5057832,9679
1.4948174,9680
1.4280267,9681
1.40753,9682
1.5536469,9683
1.4668472,9684
1.5970865,9685
1.6170448,9686
1.3654238,9687
1.4033331,9688
1.4499418,9689
1.5177433,9690
1.4689038,9691
1.5956159,9692
1.563879,9693
1.4740461,9694
1.383911,9695
1.4896148,9696
1.5387858,9697
1.4201108,9698
1.423035,9699
1.3712527,9700
1.4650569,9701
1.2886992,9702
1.4872808,9703
1.4154272,9704
1.4899268,9705
1.2500336,9706
1.1720402,9707
1.2053463,9708
1.1538765,9709
1.1338799,9710
0.93300515,9711
0.66716254,9712
0.9096212,9713
0.6639274,9714
0.6605625,9715
0.7326705,9716
0.72971976,9717
0.68595755,9718
0.69367266,9719
0.6382535,9720
0.6036003,9721
0.47342896,9722
0.65479887,9723
0.77740425,9724
0.5908478,9725
0.49938154,9726
0.40427175,9727
0.26975006,9728
0.0,9729
0.0,9730
0.0,9731
0.0,9732
0.0,9733
0.0,9734
0.0,9735
0.0,9736
0.0,9737
0.0,9738
0.0,9739
0.0,9740
0.0,9741
0.0,9742
0.0,9743
0.0,9744
0.0,9745
0.0,9746
0.0,9747
0.0,9748
0.0,9749
0.0,9750
0.0,9751
0.0,9752
0.0,9753
0.0,9754
0.0,9755
0.0,9756
0.0,9757
0.0,9758
0.0,9759
0.0,9760
0.0,9761
0.0,9762
0.0,9763
0.0,9764
0.0,9765
0.0,9766
0.0,9767
0.0,9768
0.0,9769
0.0,9770
