@RELATION 'Music feature'
%rows=1
%columns=9770
%sample_rate=22050
%window_size=512
%step_size=512

@ATTRIBUTE 'Low energy' NUMERIC
@ATTRIBUTE WindowNumber NUMERIC

@DATA
NaN,1
NaN,2
NaN,3
NaN,4
NaN,5
NaN,6
NaN,7
NaN,8
NaN,9
NaN,10
NaN,11
NaN,12
NaN,13
NaN,14
NaN,15
NaN,16
NaN,17
NaN,18
NaN,19
NaN,20
NaN,21
NaN,22
NaN,23
NaN,24
NaN,25
NaN,26
NaN,27
NaN,28
NaN,29
NaN,30
NaN,31
NaN,32
NaN,33
NaN,34
NaN,35
NaN,36
NaN,37
NaN,38
NaN,39
NaN,40
NaN,41
NaN,42
NaN,43
NaN,44
NaN,45
NaN,46
NaN,47
NaN,48
NaN,49
NaN,50
NaN,51
NaN,52
NaN,53
NaN,54
NaN,55
NaN,56
NaN,57
NaN,58
NaN,59
NaN,60
NaN,61
NaN,62
NaN,63
NaN,64
NaN,65
NaN,66
NaN,67
NaN,68
NaN,69
NaN,70
NaN,71
NaN,72
NaN,73
NaN,74
NaN,75
NaN,76
NaN,77
NaN,78
NaN,79
NaN,80
NaN,81
NaN,82
NaN,83
NaN,84
NaN,85
NaN,86
NaN,87
NaN,88
NaN,89
NaN,90
NaN,91
NaN,92
NaN,93
NaN,94
NaN,95
NaN,96
NaN,97
NaN,98
NaN,99
0.55,100
0.57,101
0.57,102
0.57,103
0.57,104
0.56,105
0.55,106
0.56,107
0.55,108
0.57,109
0.58,110
0.58,111
0.58,112
0.59,113
0.6,114
0.58,115
0.58,116
0.59,117
0.58,118
0.58,119
0.59,120
0.6,121
0.61,122
0.61,123
0.61,124
0.62,125
0.62,126
0.63,127
0.64,128
0.64,129
0.64,130
0.64,131
0.64,132
0.64,133
0.64,134
0.64,135
0.63,136
0.64,137
0.65,138
0.64,139
0.64,140
0.63,141
0.62,142
0.63,143
0.62,144
0.61,145
0.61,146
0.6,147
0.6,148
0.6,149
0.6,150
0.6,151
0.6,152
0.6,153
0.6,154
0.6,155
0.6,156
0.6,157
0.61,158
0.62,159
0.63,160
0.62,161
0.61,162
0.6,163
0.6,164
0.6,165
0.6,166
0.6,167
0.6,168
0.61,169
0.62,170
0.62,171
0.62,172
0.63,173
0.64,174
0.65,175
0.65,176
0.65,177
0.63,178
0.63,179
0.63,180
0.63,181
0.64,182
0.64,183
0.64,184
0.64,185
0.65,186
0.65,187
0.64,188
0.63,189
0.63,190
0.63,191
0.63,192
0.63,193
0.63,194
0.63,195
0.64,196
0.64,197
0.65,198
0.64,199
0.64,200
0.63,201
0.63,202
0.63,203
0.64,204
0.64,205
0.65,206
0.65,207
0.65,208
0.65,209
0.66,210
0.66,211
0.66,212
0.65,213
0.65,214
0.66,215
0.65,216
0.65,217
0.65,218
0.65,219
0.65,220
0.65,221
0.65,222
0.65,223
0.64,224
0.64,225
0.64,226
0.63,227
0.63,228
0.63,229
0.62,230
0.61,231
0.6,232
0.59,233
0.58,234
0.59,235
0.59,236
0.58,237
0.57,238
0.58,239
0.59,240
0.6,241
0.59,242
0.58,243
0.59,244
0.6,245
0.6,246
0.61,247
0.61,248
0.61,249
0.61,250
0.61,251
0.61,252
0.61,253
0.61,254
0.6,255
0.6,256
0.59,257
0.59,258
0.59,259
0.58,260
0.57,261
0.57,262
0.56,263
0.55,264
0.54,265
0.53,266
0.52,267
0.51,268
0.51,269
0.53,270
0.53,271
0.52,272
0.53,273
0.54,274
0.54,275
0.53,276
0.52,277
0.51,278
0.5,279
0.53,280
0.54,281
0.53,282
0.53,283
0.53,284
0.54,285
0.52,286
0.54,287
0.54,288
0.54,289
0.54,290
0.55,291
0.55,292
0.54,293
0.53,294
0.53,295
0.52,296
0.52,297
0.51,298
0.51,299
0.51,300
0.51,301
0.52,302
0.52,303
0.52,304
0.52,305
0.52,306
0.52,307
0.54,308
0.53,309
0.54,310
0.53,311
0.52,312
0.53,313
0.52,314
0.51,315
0.52,316
0.51,317
0.52,318
0.51,319
0.5,320
0.5,321
0.51,322
0.5,323
0.5,324
0.52,325
0.52,326
0.52,327
0.52,328
0.51,329
0.51,330
0.51,331
0.51,332
0.5,333
0.49,334
0.49,335
0.48,336
0.48,337
0.48,338
0.47,339
0.46,340
0.46,341
0.47,342
0.47,343
0.47,344
0.47,345
0.49,346
0.49,347
0.5,348
0.5,349
0.5,350
0.54,351
0.54,352
0.54,353
0.54,354
0.55,355
0.55,356
0.56,357
0.56,358
0.56,359
0.56,360
0.56,361
0.56,362
0.56,363
0.56,364
0.56,365
0.56,366
0.55,367
0.55,368
0.55,369
0.55,370
0.55,371
0.55,372
0.56,373
0.56,374
0.56,375
0.57,376
0.57,377
0.57,378
0.57,379
0.57,380
0.57,381
0.57,382
0.56,383
0.56,384
0.56,385
0.55,386
0.55,387
0.55,388
0.55,389
0.55,390
0.54,391
0.54,392
0.54,393
0.54,394
0.54,395
0.54,396
0.54,397
0.52,398
0.54,399
0.54,400
0.54,401
0.52,402
0.51,403
0.52,404
0.54,405
0.54,406
0.52,407
0.5,408
0.51,409
0.54,410
0.54,411
0.55,412
0.54,413
0.53,414
0.56,415
0.55,416
0.55,417
0.55,418
0.55,419
0.55,420
0.54,421
0.55,422
0.54,423
0.55,424
0.55,425
0.54,426
0.54,427
0.54,428
0.55,429
0.55,430
0.54,431
0.53,432
0.52,433
0.53,434
0.54,435
0.54,436
0.53,437
0.53,438
0.53,439
0.54,440
0.55,441
0.55,442
0.55,443
0.55,444
0.56,445
0.55,446
0.55,447
0.56,448
0.56,449
0.53,450
0.51,451
0.52,452
0.53,453
0.53,454
0.53,455
0.53,456
0.53,457
0.54,458
0.55,459
0.54,460
0.53,461
0.53,462
0.53,463
0.55,464
0.55,465
0.54,466
0.53,467
0.54,468
0.53,469
0.54,470
0.54,471
0.54,472
0.53,473
0.54,474
0.53,475
0.52,476
0.52,477
0.53,478
0.53,479
0.53,480
0.56,481
0.53,482
0.53,483
0.52,484
0.53,485
0.58,486
0.57,487
0.56,488
0.55,489
0.55,490
0.57,491
0.58,492
0.57,493
0.54,494
0.55,495
0.57,496
0.57,497
0.57,498
0.57,499
0.57,500
0.57,501
0.57,502
0.57,503
0.58,504
0.58,505
0.58,506
0.58,507
0.57,508
0.57,509
0.58,510
0.58,511
0.58,512
0.57,513
0.57,514
0.57,515
0.58,516
0.57,517
0.58,518
0.57,519
0.57,520
0.57,521
0.55,522
0.58,523
0.57,524
0.56,525
0.57,526
0.57,527
0.57,528
0.56,529
0.56,530
0.57,531
0.55,532
0.56,533
0.56,534
0.58,535
0.57,536
0.57,537
0.57,538
0.58,539
0.57,540
0.56,541
0.57,542
0.58,543
0.57,544
0.56,545
0.57,546
0.57,547
0.58,548
0.57,549
0.57,550
0.57,551
0.57,552
0.57,553
0.58,554
0.59,555
0.59,556
0.58,557
0.58,558
0.59,559
0.59,560
0.58,561
0.57,562
0.57,563
0.58,564
0.58,565
0.57,566
0.57,567
0.56,568
0.57,569
0.58,570
0.57,571
0.57,572
0.57,573
0.57,574
0.58,575
0.57,576
0.57,577
0.57,578
0.57,579
0.58,580
0.58,581
0.58,582
0.58,583
0.57,584
0.57,585
0.58,586
0.58,587
0.57,588
0.57,589
0.56,590
0.56,591
0.56,592
0.56,593
0.56,594
0.56,595
0.57,596
0.58,597
0.58,598
0.57,599
0.56,600
0.56,601
0.57,602
0.57,603
0.56,604
0.55,605
0.55,606
0.56,607
0.57,608
0.56,609
0.55,610
0.54,611
0.55,612
0.56,613
0.56,614
0.55,615
0.55,616
0.56,617
0.57,618
0.57,619
0.56,620
0.56,621
0.55,622
0.56,623
0.57,624
0.57,625
0.56,626
0.56,627
0.57,628
0.58,629
0.57,630
0.57,631
0.57,632
0.57,633
0.57,634
0.57,635
0.57,636
0.56,637
0.56,638
0.56,639
0.57,640
0.57,641
0.56,642
0.56,643
0.57,644
0.58,645
0.58,646
0.57,647
0.56,648
0.56,649
0.57,650
0.57,651
0.56,652
0.55,653
0.55,654
0.56,655
0.56,656
0.56,657
0.55,658
0.54,659
0.54,660
0.55,661
0.56,662
0.55,663
0.54,664
0.54,665
0.55,666
0.54,667
0.55,668
0.54,669
0.54,670
0.55,671
0.55,672
0.55,673
0.54,674
0.53,675
0.53,676
0.53,677
0.52,678
0.51,679
0.52,680
0.53,681
0.52,682
0.52,683
0.53,684
0.52,685
0.52,686
0.53,687
0.54,688
0.54,689
0.54,690
0.54,691
0.53,692
0.54,693
0.53,694
0.53,695
0.52,696
0.52,697
0.53,698
0.54,699
0.54,700
0.55,701
0.54,702
0.54,703
0.54,704
0.54,705
0.55,706
0.54,707
0.53,708
0.54,709
0.55,710
0.55,711
0.54,712
0.53,713
0.53,714
0.52,715
0.52,716
0.51,717
0.52,718
0.52,719
0.52,720
0.5,721
0.5,722
0.51,723
0.51,724
0.5,725
0.51,726
0.51,727
0.5,728
0.5,729
0.51,730
0.51,731
0.51,732
0.51,733
0.5,734
0.5,735
0.51,736
0.52,737
0.52,738
0.51,739
0.51,740
0.51,741
0.52,742
0.52,743
0.51,744
0.51,745
0.51,746
0.52,747
0.53,748
0.53,749
0.52,750
0.51,751
0.52,752
0.53,753
0.52,754
0.51,755
0.5,756
0.51,757
0.52,758
0.52,759
0.52,760
0.52,761
0.53,762
0.53,763
0.54,764
0.53,765
0.53,766
0.54,767
0.54,768
0.55,769
0.54,770
0.53,771
0.53,772
0.54,773
0.54,774
0.55,775
0.56,776
0.57,777
0.58,778
0.58,779
0.56,780
0.56,781
0.56,782
0.57,783
0.57,784
0.56,785
0.57,786
0.58,787
0.58,788
0.57,789
0.58,790
0.57,791
0.57,792
0.57,793
0.57,794
0.57,795
0.58,796
0.58,797
0.58,798
0.58,799
0.58,800
0.57,801
0.58,802
0.58,803
0.58,804
0.58,805
0.57,806
0.58,807
0.59,808
0.59,809
0.59,810
0.6,811
0.6,812
0.6,813
0.59,814
0.6,815
0.6,816
0.6,817
0.6,818
0.6,819
0.59,820
0.6,821
0.6,822
0.6,823
0.6,824
0.6,825
0.6,826
0.61,827
0.6,828
0.6,829
0.6,830
0.61,831
0.6,832
0.6,833
0.61,834
0.61,835
0.6,836
0.59,837
0.6,838
0.6,839
0.6,840
0.61,841
0.6,842
0.59,843
0.59,844
0.59,845
0.59,846
0.58,847
0.57,848
0.57,849
0.57,850
0.57,851
0.57,852
0.57,853
0.57,854
0.58,855
0.58,856
0.57,857
0.56,858
0.57,859
0.57,860
0.57,861
0.56,862
0.56,863
0.56,864
0.56,865
0.55,866
0.55,867
0.55,868
0.55,869
0.56,870
0.56,871
0.56,872
0.55,873
0.56,874
0.56,875
0.56,876
0.56,877
0.55,878
0.55,879
0.55,880
0.54,881
0.55,882
0.56,883
0.55,884
0.55,885
0.55,886
0.56,887
0.56,888
0.57,889
0.57,890
0.57,891
0.57,892
0.56,893
0.56,894
0.56,895
0.56,896
0.56,897
0.56,898
0.56,899
0.56,900
0.57,901
0.57,902
0.56,903
0.55,904
0.54,905
0.54,906
0.54,907
0.55,908
0.54,909
0.53,910
0.53,911
0.54,912
0.53,913
0.54,914
0.54,915
0.55,916
0.55,917
0.56,918
0.56,919
0.56,920
0.56,921
0.56,922
0.57,923
0.57,924
0.57,925
0.58,926
0.58,927
0.6,928
0.58,929
0.57,930
0.59,931
0.59,932
0.58,933
0.57,934
0.57,935
0.56,936
0.55,937
0.55,938
0.55,939
0.56,940
0.56,941
0.55,942
0.55,943
0.55,944
0.54,945
0.54,946
0.54,947
0.53,948
0.53,949
0.53,950
0.53,951
0.52,952
0.53,953
0.53,954
0.53,955
0.52,956
0.51,957
0.51,958
0.51,959
0.52,960
0.51,961
0.52,962
0.51,963
0.5,964
0.5,965
0.51,966
0.52,967
0.51,968
0.5,969
0.5,970
0.5,971
0.5,972
0.51,973
0.5,974
0.5,975
0.51,976
0.5,977
0.51,978
0.52,979
0.52,980
0.53,981
0.54,982
0.54,983
0.55,984
0.54,985
0.54,986
0.54,987
0.55,988
0.55,989
0.54,990
0.53,991
0.54,992
0.55,993
0.55,994
0.55,995
0.55,996
0.54,997
0.54,998
0.55,999
0.55,1000
0.55,1001
0.54,1002
0.54,1003
0.54,1004
0.55,1005
0.55,1006
0.55,1007
0.55,1008
0.55,1009
0.55,1010
0.56,1011
0.56,1012
0.55,1013
0.55,1014
0.56,1015
0.56,1016
0.55,1017
0.54,1018
0.54,1019
0.55,1020
0.56,1021
0.56,1022
0.55,1023
0.54,1024
0.55,1025
0.56,1026
0.55,1027
0.55,1028
0.54,1029
0.55,1030
0.55,1031
0.55,1032
0.55,1033
0.55,1034
0.56,1035
0.56,1036
0.57,1037
0.57,1038
0.56,1039
0.55,1040
0.56,1041
0.57,1042
0.56,1043
0.56,1044
0.57,1045
0.56,1046
0.56,1047
0.54,1048
0.54,1049
0.55,1050
0.55,1051
0.54,1052
0.54,1053
0.54,1054
0.54,1055
0.54,1056
0.54,1057
0.54,1058
0.53,1059
0.53,1060
0.54,1061
0.55,1062
0.55,1063
0.54,1064
0.54,1065
0.54,1066
0.53,1067
0.54,1068
0.55,1069
0.56,1070
0.55,1071
0.54,1072
0.54,1073
0.55,1074
0.56,1075
0.55,1076
0.55,1077
0.55,1078
0.55,1079
0.55,1080
0.55,1081
0.54,1082
0.54,1083
0.54,1084
0.55,1085
0.55,1086
0.54,1087
0.54,1088
0.54,1089
0.55,1090
0.55,1091
0.55,1092
0.55,1093
0.54,1094
0.55,1095
0.55,1096
0.55,1097
0.55,1098
0.54,1099
0.54,1100
0.55,1101
0.55,1102
0.55,1103
0.55,1104
0.55,1105
0.56,1106
0.56,1107
0.56,1108
0.55,1109
0.55,1110
0.55,1111
0.56,1112
0.56,1113
0.56,1114
0.56,1115
0.56,1116
0.56,1117
0.57,1118
0.57,1119
0.56,1120
0.55,1121
0.55,1122
0.56,1123
0.56,1124
0.56,1125
0.56,1126
0.56,1127
0.56,1128
0.56,1129
0.55,1130
0.55,1131
0.55,1132
0.55,1133
0.55,1134
0.55,1135
0.55,1136
0.55,1137
0.55,1138
0.56,1139
0.56,1140
0.55,1141
0.55,1142
0.55,1143
0.56,1144
0.56,1145
0.55,1146
0.54,1147
0.55,1148
0.55,1149
0.55,1150
0.55,1151
0.55,1152
0.56,1153
0.55,1154
0.56,1155
0.56,1156
0.56,1157
0.56,1158
0.56,1159
0.57,1160
0.57,1161
0.56,1162
0.55,1163
0.56,1164
0.56,1165
0.57,1166
0.57,1167
0.56,1168
0.56,1169
0.56,1170
0.55,1171
0.56,1172
0.55,1173
0.55,1174
0.55,1175
0.56,1176
0.55,1177
0.56,1178
0.55,1179
0.56,1180
0.55,1181
0.56,1182
0.56,1183
0.55,1184
0.55,1185
0.56,1186
0.56,1187
0.56,1188
0.56,1189
0.56,1190
0.56,1191
0.55,1192
0.56,1193
0.56,1194
0.56,1195
0.57,1196
0.57,1197
0.58,1198
0.58,1199
0.57,1200
0.57,1201
0.57,1202
0.58,1203
0.57,1204
0.56,1205
0.56,1206
0.57,1207
0.56,1208
0.57,1209
0.56,1210
0.57,1211
0.58,1212
0.58,1213
0.57,1214
0.56,1215
0.57,1216
0.57,1217
0.56,1218
0.56,1219
0.54,1220
0.57,1221
0.57,1222
0.57,1223
0.55,1224
0.55,1225
0.55,1226
0.58,1227
0.58,1228
0.56,1229
0.57,1230
0.57,1231
0.57,1232
0.57,1233
0.56,1234
0.57,1235
0.57,1236
0.57,1237
0.56,1238
0.57,1239
0.57,1240
0.58,1241
0.58,1242
0.57,1243
0.57,1244
0.58,1245
0.58,1246
0.58,1247
0.58,1248
0.58,1249
0.58,1250
0.59,1251
0.59,1252
0.59,1253
0.59,1254
0.59,1255
0.59,1256
0.59,1257
0.59,1258
0.59,1259
0.6,1260
0.59,1261
0.59,1262
0.59,1263
0.59,1264
0.6,1265
0.59,1266
0.6,1267
0.59,1268
0.6,1269
0.6,1270
0.6,1271
0.6,1272
0.61,1273
0.61,1274
0.61,1275
0.6,1276
0.6,1277
0.6,1278
0.6,1279
0.61,1280
0.61,1281
0.6,1282
0.61,1283
0.6,1284
0.6,1285
0.6,1286
0.61,1287
0.6,1288
0.6,1289
0.59,1290
0.59,1291
0.59,1292
0.59,1293
0.59,1294
0.58,1295
0.58,1296
0.58,1297
0.59,1298
0.58,1299
0.58,1300
0.58,1301
0.57,1302
0.58,1303
0.58,1304
0.59,1305
0.6,1306
0.6,1307
0.59,1308
0.59,1309
0.6,1310
0.61,1311
0.6,1312
0.59,1313
0.59,1314
0.59,1315
0.59,1316
0.59,1317
0.59,1318
0.58,1319
0.58,1320
0.58,1321
0.58,1322
0.57,1323
0.57,1324
0.57,1325
0.57,1326
0.56,1327
0.56,1328
0.55,1329
0.55,1330
0.56,1331
0.55,1332
0.55,1333
0.55,1334
0.57,1335
0.57,1336
0.57,1337
0.58,1338
0.57,1339
0.57,1340
0.56,1341
0.55,1342
0.54,1343
0.54,1344
0.55,1345
0.55,1346
0.55,1347
0.55,1348
0.55,1349
0.55,1350
0.55,1351
0.54,1352
0.53,1353
0.54,1354
0.54,1355
0.55,1356
0.54,1357
0.54,1358
0.53,1359
0.53,1360
0.54,1361
0.55,1362
0.55,1363
0.55,1364
0.55,1365
0.56,1366
0.55,1367
0.54,1368
0.55,1369
0.55,1370
0.55,1371
0.54,1372
0.54,1373
0.54,1374
0.54,1375
0.54,1376
0.54,1377
0.53,1378
0.53,1379
0.53,1380
0.52,1381
0.52,1382
0.53,1383
0.53,1384
0.53,1385
0.53,1386
0.53,1387
0.53,1388
0.54,1389
0.54,1390
0.53,1391
0.54,1392
0.54,1393
0.53,1394
0.52,1395
0.53,1396
0.52,1397
0.52,1398
0.53,1399
0.52,1400
0.52,1401
0.53,1402
0.52,1403
0.52,1404
0.53,1405
0.54,1406
0.52,1407
0.53,1408
0.54,1409
0.55,1410
0.57,1411
0.56,1412
0.56,1413
0.55,1414
0.56,1415
0.56,1416
0.56,1417
0.56,1418
0.56,1419
0.56,1420
0.57,1421
0.56,1422
0.57,1423
0.58,1424
0.57,1425
0.56,1426
0.56,1427
0.56,1428
0.56,1429
0.58,1430
0.57,1431
0.57,1432
0.56,1433
0.57,1434
0.57,1435
0.56,1436
0.55,1437
0.56,1438
0.56,1439
0.56,1440
0.56,1441
0.56,1442
0.56,1443
0.56,1444
0.55,1445
0.55,1446
0.55,1447
0.56,1448
0.56,1449
0.55,1450
0.55,1451
0.56,1452
0.55,1453
0.55,1454
0.55,1455
0.56,1456
0.55,1457
0.54,1458
0.54,1459
0.54,1460
0.55,1461
0.54,1462
0.53,1463
0.53,1464
0.53,1465
0.53,1466
0.53,1467
0.53,1468
0.52,1469
0.52,1470
0.52,1471
0.52,1472
0.51,1473
0.51,1474
0.51,1475
0.51,1476
0.52,1477
0.52,1478
0.53,1479
0.53,1480
0.52,1481
0.53,1482
0.53,1483
0.52,1484
0.52,1485
0.52,1486
0.52,1487
0.51,1488
0.51,1489
0.51,1490
0.52,1491
0.54,1492
0.52,1493
0.53,1494
0.53,1495
0.53,1496
0.53,1497
0.54,1498
0.55,1499
0.55,1500
0.55,1501
0.54,1502
0.55,1503
0.53,1504
0.55,1505
0.54,1506
0.54,1507
0.54,1508
0.55,1509
0.54,1510
0.54,1511
0.54,1512
0.54,1513
0.55,1514
0.54,1515
0.55,1516
0.54,1517
0.53,1518
0.52,1519
0.53,1520
0.53,1521
0.53,1522
0.52,1523
0.52,1524
0.53,1525
0.54,1526
0.54,1527
0.53,1528
0.53,1529
0.54,1530
0.54,1531
0.54,1532
0.53,1533
0.54,1534
0.54,1535
0.54,1536
0.55,1537
0.54,1538
0.54,1539
0.54,1540
0.55,1541
0.55,1542
0.55,1543
0.54,1544
0.55,1545
0.55,1546
0.55,1547
0.55,1548
0.55,1549
0.54,1550
0.57,1551
0.54,1552
0.54,1553
0.55,1554
0.55,1555
0.55,1556
0.55,1557
0.55,1558
0.55,1559
0.56,1560
0.57,1561
0.58,1562
0.56,1563
0.56,1564
0.56,1565
0.56,1566
0.57,1567
0.57,1568
0.56,1569
0.53,1570
0.53,1571
0.54,1572
0.52,1573
0.51,1574
0.51,1575
0.51,1576
0.5,1577
0.51,1578
0.5,1579
0.47,1580
0.46,1581
0.45,1582
0.45,1583
0.45,1584
0.45,1585
0.45,1586
0.45,1587
0.46,1588
0.47,1589
0.48,1590
0.45,1591
0.45,1592
0.45,1593
0.46,1594
0.45,1595
0.46,1596
0.46,1597
0.45,1598
0.46,1599
0.47,1600
0.48,1601
0.46,1602
0.46,1603
0.45,1604
0.47,1605
0.45,1606
0.46,1607
0.47,1608
0.46,1609
0.46,1610
0.46,1611
0.46,1612
0.47,1613
0.46,1614
0.45,1615
0.45,1616
0.45,1617
0.45,1618
0.45,1619
0.45,1620
0.45,1621
0.45,1622
0.45,1623
0.44,1624
0.45,1625
0.45,1626
0.45,1627
0.45,1628
0.43,1629
0.45,1630
0.45,1631
0.45,1632
0.44,1633
0.44,1634
0.44,1635
0.46,1636
0.45,1637
0.44,1638
0.45,1639
0.45,1640
0.45,1641
0.44,1642
0.44,1643
0.44,1644
0.44,1645
0.45,1646
0.45,1647
0.44,1648
0.41,1649
0.42,1650
0.42,1651
0.42,1652
0.42,1653
0.42,1654
0.43,1655
0.43,1656
0.43,1657
0.43,1658
0.43,1659
0.43,1660
0.43,1661
0.44,1662
0.44,1663
0.43,1664
0.44,1665
0.44,1666
0.45,1667
0.46,1668
0.45,1669
0.45,1670
0.45,1671
0.44,1672
0.43,1673
0.43,1674
0.43,1675
0.43,1676
0.42,1677
0.41,1678
0.42,1679
0.42,1680
0.41,1681
0.43,1682
0.42,1683
0.42,1684
0.45,1685
0.46,1686
0.48,1687
0.47,1688
0.48,1689
0.47,1690
0.47,1691
0.47,1692
0.46,1693
0.47,1694
0.48,1695
0.49,1696
0.49,1697
0.49,1698
0.51,1699
0.51,1700
0.51,1701
0.54,1702
0.54,1703
0.54,1704
0.53,1705
0.54,1706
0.54,1707
0.52,1708
0.54,1709
0.54,1710
0.53,1711
0.53,1712
0.53,1713
0.52,1714
0.52,1715
0.51,1716
0.51,1717
0.51,1718
0.52,1719
0.52,1720
0.52,1721
0.52,1722
0.52,1723
0.52,1724
0.52,1725
0.51,1726
0.52,1727
0.52,1728
0.52,1729
0.51,1730
0.53,1731
0.51,1732
0.51,1733
0.51,1734
0.51,1735
0.51,1736
0.51,1737
0.51,1738
0.5,1739
0.5,1740
0.5,1741
0.5,1742
0.49,1743
0.49,1744
0.49,1745
0.49,1746
0.49,1747
0.49,1748
0.5,1749
0.5,1750
0.51,1751
0.51,1752
0.51,1753
0.5,1754
0.5,1755
0.5,1756
0.5,1757
0.5,1758
0.5,1759
0.5,1760
0.5,1761
0.5,1762
0.49,1763
0.49,1764
0.5,1765
0.5,1766
0.51,1767
0.51,1768
0.5,1769
0.5,1770
0.5,1771
0.51,1772
0.51,1773
0.5,1774
0.5,1775
0.51,1776
0.5,1777
0.51,1778
0.51,1779
0.5,1780
0.5,1781
0.5,1782
0.51,1783
0.51,1784
0.51,1785
0.51,1786
0.51,1787
0.51,1788
0.5,1789
0.51,1790
0.5,1791
0.5,1792
0.51,1793
0.5,1794
0.5,1795
0.51,1796
0.51,1797
0.52,1798
0.53,1799
0.53,1800
0.54,1801
0.53,1802
0.52,1803
0.52,1804
0.52,1805
0.52,1806
0.51,1807
0.51,1808
0.52,1809
0.52,1810
0.52,1811
0.53,1812
0.53,1813
0.53,1814
0.52,1815
0.52,1816
0.53,1817
0.52,1818
0.52,1819
0.53,1820
0.52,1821
0.53,1822
0.52,1823
0.53,1824
0.53,1825
0.52,1826
0.53,1827
0.55,1828
0.55,1829
0.55,1830
0.53,1831
0.53,1832
0.53,1833
0.54,1834
0.54,1835
0.53,1836
0.53,1837
0.53,1838
0.54,1839
0.54,1840
0.55,1841
0.56,1842
0.56,1843
0.55,1844
0.56,1845
0.56,1846
0.56,1847
0.55,1848
0.55,1849
0.56,1850
0.56,1851
0.54,1852
0.54,1853
0.54,1854
0.57,1855
0.57,1856
0.57,1857
0.56,1858
0.56,1859
0.57,1860
0.57,1861
0.57,1862
0.55,1863
0.56,1864
0.55,1865
0.57,1866
0.57,1867
0.57,1868
0.55,1869
0.57,1870
0.58,1871
0.58,1872
0.57,1873
0.56,1874
0.55,1875
0.55,1876
0.56,1877
0.56,1878
0.56,1879
0.56,1880
0.56,1881
0.56,1882
0.56,1883
0.57,1884
0.56,1885
0.56,1886
0.57,1887
0.58,1888
0.58,1889
0.57,1890
0.57,1891
0.58,1892
0.58,1893
0.58,1894
0.58,1895
0.57,1896
0.56,1897
0.57,1898
0.58,1899
0.58,1900
0.57,1901
0.56,1902
0.56,1903
0.57,1904
0.57,1905
0.57,1906
0.56,1907
0.55,1908
0.57,1909
0.57,1910
0.56,1911
0.56,1912
0.55,1913
0.55,1914
0.56,1915
0.54,1916
0.55,1917
0.54,1918
0.53,1919
0.53,1920
0.55,1921
0.54,1922
0.54,1923
0.55,1924
0.55,1925
0.54,1926
0.53,1927
0.54,1928
0.53,1929
0.52,1930
0.54,1931
0.54,1932
0.53,1933
0.53,1934
0.54,1935
0.53,1936
0.53,1937
0.54,1938
0.53,1939
0.54,1940
0.53,1941
0.52,1942
0.52,1943
0.52,1944
0.52,1945
0.52,1946
0.52,1947
0.52,1948
0.52,1949
0.52,1950
0.53,1951
0.52,1952
0.51,1953
0.5,1954
0.5,1955
0.5,1956
0.5,1957
0.5,1958
0.5,1959
0.5,1960
0.5,1961
0.5,1962
0.5,1963
0.5,1964
0.5,1965
0.51,1966
0.51,1967
0.51,1968
0.52,1969
0.52,1970
0.51,1971
0.51,1972
0.52,1973
0.51,1974
0.5,1975
0.51,1976
0.51,1977
0.51,1978
0.51,1979
0.51,1980
0.52,1981
0.51,1982
0.52,1983
0.51,1984
0.5,1985
0.49,1986
0.5,1987
0.5,1988
0.51,1989
0.51,1990
0.51,1991
0.5,1992
0.51,1993
0.51,1994
0.51,1995
0.52,1996
0.51,1997
0.52,1998
0.52,1999
0.52,2000
0.52,2001
0.53,2002
0.54,2003
0.53,2004
0.53,2005
0.53,2006
0.53,2007
0.54,2008
0.54,2009
0.53,2010
0.53,2011
0.53,2012
0.54,2013
0.54,2014
0.54,2015
0.54,2016
0.54,2017
0.55,2018
0.55,2019
0.54,2020
0.54,2021
0.54,2022
0.54,2023
0.54,2024
0.54,2025
0.55,2026
0.54,2027
0.54,2028
0.54,2029
0.55,2030
0.54,2031
0.54,2032
0.53,2033
0.54,2034
0.54,2035
0.54,2036
0.54,2037
0.53,2038
0.52,2039
0.53,2040
0.53,2041
0.54,2042
0.54,2043
0.53,2044
0.53,2045
0.53,2046
0.52,2047
0.51,2048
0.5,2049
0.51,2050
0.52,2051
0.52,2052
0.52,2053
0.52,2054
0.52,2055
0.53,2056
0.52,2057
0.52,2058
0.52,2059
0.51,2060
0.52,2061
0.51,2062
0.52,2063
0.52,2064
0.52,2065
0.52,2066
0.53,2067
0.52,2068
0.51,2069
0.51,2070
0.51,2071
0.51,2072
0.52,2073
0.52,2074
0.53,2075
0.53,2076
0.54,2077
0.55,2078
0.54,2079
0.53,2080
0.53,2081
0.53,2082
0.53,2083
0.53,2084
0.53,2085
0.53,2086
0.52,2087
0.52,2088
0.52,2089
0.51,2090
0.5,2091
0.5,2092
0.51,2093
0.51,2094
0.51,2095
0.5,2096
0.49,2097
0.48,2098
0.49,2099
0.49,2100
0.48,2101
0.48,2102
0.49,2103
0.49,2104
0.49,2105
0.48,2106
0.49,2107
0.49,2108
0.49,2109
0.49,2110
0.49,2111
0.48,2112
0.48,2113
0.48,2114
0.49,2115
0.49,2116
0.48,2117
0.48,2118
0.48,2119
0.49,2120
0.49,2121
0.49,2122
0.49,2123
0.49,2124
0.49,2125
0.49,2126
0.49,2127
0.5,2128
0.49,2129
0.48,2130
0.48,2131
0.49,2132
0.49,2133
0.49,2134
0.49,2135
0.5,2136
0.5,2137
0.51,2138
0.52,2139
0.52,2140
0.51,2141
0.52,2142
0.52,2143
0.52,2144
0.52,2145
0.52,2146
0.53,2147
0.54,2148
0.54,2149
0.54,2150
0.54,2151
0.55,2152
0.56,2153
0.56,2154
0.55,2155
0.55,2156
0.55,2157
0.56,2158
0.56,2159
0.55,2160
0.55,2161
0.56,2162
0.57,2163
0.56,2164
0.55,2165
0.55,2166
0.54,2167
0.55,2168
0.56,2169
0.55,2170
0.54,2171
0.54,2172
0.54,2173
0.55,2174
0.54,2175
0.54,2176
0.56,2177
0.55,2178
0.55,2179
0.55,2180
0.54,2181
0.54,2182
0.55,2183
0.55,2184
0.54,2185
0.54,2186
0.55,2187
0.55,2188
0.55,2189
0.53,2190
0.53,2191
0.53,2192
0.53,2193
0.54,2194
0.54,2195
0.54,2196
0.55,2197
0.56,2198
0.56,2199
0.55,2200
0.52,2201
0.52,2202
0.52,2203
0.52,2204
0.51,2205
0.5,2206
0.5,2207
0.5,2208
0.5,2209
0.5,2210
0.5,2211
0.51,2212
0.51,2213
0.5,2214
0.5,2215
0.5,2216
0.51,2217
0.51,2218
0.5,2219
0.51,2220
0.51,2221
0.5,2222
0.49,2223
0.49,2224
0.49,2225
0.48,2226
0.49,2227
0.49,2228
0.49,2229
0.49,2230
0.5,2231
0.51,2232
0.51,2233
0.51,2234
0.51,2235
0.5,2236
0.5,2237
0.5,2238
0.51,2239
0.51,2240
0.52,2241
0.52,2242
0.53,2243
0.53,2244
0.53,2245
0.53,2246
0.52,2247
0.53,2248
0.53,2249
0.54,2250
0.54,2251
0.54,2252
0.53,2253
0.54,2254
0.54,2255
0.55,2256
0.54,2257
0.53,2258
0.54,2259
0.54,2260
0.54,2261
0.53,2262
0.53,2263
0.53,2264
0.54,2265
0.54,2266
0.53,2267
0.53,2268
0.54,2269
0.54,2270
0.55,2271
0.55,2272
0.54,2273
0.53,2274
0.54,2275
0.55,2276
0.55,2277
0.55,2278
0.55,2279
0.56,2280
0.56,2281
0.56,2282
0.56,2283
0.55,2284
0.55,2285
0.56,2286
0.56,2287
0.56,2288
0.55,2289
0.55,2290
0.56,2291
0.56,2292
0.57,2293
0.57,2294
0.57,2295
0.57,2296
0.58,2297
0.58,2298
0.58,2299
0.57,2300
0.56,2301
0.57,2302
0.58,2303
0.57,2304
0.56,2305
0.55,2306
0.55,2307
0.56,2308
0.56,2309
0.55,2310
0.55,2311
0.55,2312
0.56,2313
0.57,2314
0.57,2315
0.57,2316
0.57,2317
0.58,2318
0.58,2319
0.58,2320
0.57,2321
0.56,2322
0.57,2323
0.58,2324
0.57,2325
0.57,2326
0.57,2327
0.57,2328
0.58,2329
0.59,2330
0.58,2331
0.57,2332
0.57,2333
0.58,2334
0.58,2335
0.59,2336
0.59,2337
0.58,2338
0.58,2339
0.59,2340
0.58,2341
0.58,2342
0.58,2343
0.57,2344
0.58,2345
0.59,2346
0.59,2347
0.58,2348
0.59,2349
0.58,2350
0.59,2351
0.59,2352
0.59,2353
0.59,2354
0.59,2355
0.6,2356
0.59,2357
0.61,2358
0.6,2359
0.59,2360
0.6,2361
0.59,2362
0.6,2363
0.59,2364
0.59,2365
0.6,2366
0.6,2367
0.61,2368
0.6,2369
0.6,2370
0.59,2371
0.59,2372
0.6,2373
0.6,2374
0.59,2375
0.59,2376
0.59,2377
0.6,2378
0.61,2379
0.6,2380
0.61,2381
0.6,2382
0.6,2383
0.61,2384
0.6,2385
0.6,2386
0.59,2387
0.6,2388
0.6,2389
0.6,2390
0.59,2391
0.59,2392
0.59,2393
0.6,2394
0.59,2395
0.58,2396
0.59,2397
0.59,2398
0.59,2399
0.59,2400
0.59,2401
0.59,2402
0.59,2403
0.59,2404
0.6,2405
0.6,2406
0.59,2407
0.59,2408
0.59,2409
0.6,2410
0.59,2411
0.58,2412
0.58,2413
0.59,2414
0.57,2415
0.58,2416
0.57,2417
0.57,2418
0.59,2419
0.58,2420
0.58,2421
0.59,2422
0.58,2423
0.59,2424
0.59,2425
0.59,2426
0.59,2427
0.59,2428
0.6,2429
0.59,2430
0.58,2431
0.58,2432
0.6,2433
0.59,2434
0.59,2435
0.59,2436
0.6,2437
0.59,2438
0.58,2439
0.58,2440
0.58,2441
0.58,2442
0.58,2443
0.57,2444
0.56,2445
0.56,2446
0.57,2447
0.57,2448
0.56,2449
0.56,2450
0.56,2451
0.55,2452
0.56,2453
0.56,2454
0.55,2455
0.54,2456
0.56,2457
0.55,2458
0.56,2459
0.56,2460
0.55,2461
0.55,2462
0.56,2463
0.57,2464
0.56,2465
0.56,2466
0.55,2467
0.54,2468
0.55,2469
0.55,2470
0.55,2471
0.55,2472
0.55,2473
0.56,2474
0.57,2475
0.57,2476
0.56,2477
0.55,2478
0.55,2479
0.56,2480
0.55,2481
0.55,2482
0.55,2483
0.54,2484
0.55,2485
0.56,2486
0.56,2487
0.55,2488
0.54,2489
0.55,2490
0.55,2491
0.54,2492
0.54,2493
0.53,2494
0.54,2495
0.54,2496
0.53,2497
0.53,2498
0.52,2499
0.52,2500
0.53,2501
0.51,2502
0.52,2503
0.52,2504
0.52,2505
0.53,2506
0.51,2507
0.51,2508
0.52,2509
0.52,2510
0.52,2511
0.51,2512
0.52,2513
0.52,2514
0.51,2515
0.53,2516
0.52,2517
0.53,2518
0.52,2519
0.52,2520
0.52,2521
0.51,2522
0.5,2523
0.5,2524
0.5,2525
0.5,2526
0.5,2527
0.5,2528
0.5,2529
0.51,2530
0.51,2531
0.5,2532
0.5,2533
0.51,2534
0.51,2535
0.51,2536
0.5,2537
0.51,2538
0.52,2539
0.53,2540
0.52,2541
0.52,2542
0.52,2543
0.53,2544
0.53,2545
0.54,2546
0.53,2547
0.53,2548
0.53,2549
0.54,2550
0.54,2551
0.54,2552
0.53,2553
0.52,2554
0.53,2555
0.54,2556
0.54,2557
0.53,2558
0.52,2559
0.52,2560
0.53,2561
0.53,2562
0.52,2563
0.51,2564
0.51,2565
0.51,2566
0.52,2567
0.52,2568
0.51,2569
0.52,2570
0.53,2571
0.53,2572
0.52,2573
0.51,2574
0.5,2575
0.5,2576
0.51,2577
0.52,2578
0.51,2579
0.51,2580
0.51,2581
0.51,2582
0.51,2583
0.51,2584
0.51,2585
0.51,2586
0.51,2587
0.52,2588
0.53,2589
0.52,2590
0.51,2591
0.52,2592
0.53,2593
0.54,2594
0.53,2595
0.52,2596
0.52,2597
0.53,2598
0.54,2599
0.53,2600
0.53,2601
0.53,2602
0.53,2603
0.54,2604
0.53,2605
0.52,2606
0.53,2607
0.54,2608
0.54,2609
0.54,2610
0.53,2611
0.53,2612
0.53,2613
0.53,2614
0.54,2615
0.53,2616
0.52,2617
0.52,2618
0.53,2619
0.54,2620
0.54,2621
0.54,2622
0.54,2623
0.54,2624
0.55,2625
0.55,2626
0.54,2627
0.54,2628
0.54,2629
0.53,2630
0.54,2631
0.54,2632
0.54,2633
0.53,2634
0.53,2635
0.54,2636
0.54,2637
0.53,2638
0.53,2639
0.53,2640
0.54,2641
0.55,2642
0.54,2643
0.53,2644
0.52,2645
0.52,2646
0.53,2647
0.53,2648
0.53,2649
0.52,2650
0.52,2651
0.53,2652
0.53,2653
0.53,2654
0.52,2655
0.51,2656
0.51,2657
0.51,2658
0.51,2659
0.52,2660
0.52,2661
0.52,2662
0.53,2663
0.53,2664
0.53,2665
0.53,2666
0.53,2667
0.54,2668
0.54,2669
0.53,2670
0.53,2671
0.53,2672
0.54,2673
0.54,2674
0.55,2675
0.55,2676
0.54,2677
0.53,2678
0.53,2679
0.53,2680
0.53,2681
0.53,2682
0.53,2683
0.53,2684
0.53,2685
0.53,2686
0.53,2687
0.53,2688
0.53,2689
0.53,2690
0.53,2691
0.53,2692
0.52,2693
0.51,2694
0.52,2695
0.52,2696
0.51,2697
0.5,2698
0.5,2699
0.51,2700
0.52,2701
0.51,2702
0.5,2703
0.51,2704
0.52,2705
0.51,2706
0.51,2707
0.51,2708
0.51,2709
0.52,2710
0.51,2711
0.51,2712
0.52,2713
0.52,2714
0.53,2715
0.53,2716
0.53,2717
0.52,2718
0.51,2719
0.52,2720
0.51,2721
0.5,2722
0.5,2723
0.5,2724
0.5,2725
0.51,2726
0.5,2727
0.5,2728
0.51,2729
0.51,2730
0.51,2731
0.5,2732
0.5,2733
0.5,2734
0.49,2735
0.5,2736
0.5,2737
0.51,2738
0.51,2739
0.5,2740
0.51,2741
0.52,2742
0.51,2743
0.52,2744
0.52,2745
0.51,2746
0.51,2747
0.52,2748
0.52,2749
0.52,2750
0.51,2751
0.5,2752
0.51,2753
0.52,2754
0.53,2755
0.53,2756
0.53,2757
0.53,2758
0.54,2759
0.54,2760
0.53,2761
0.52,2762
0.52,2763
0.53,2764
0.53,2765
0.53,2766
0.53,2767
0.53,2768
0.54,2769
0.54,2770
0.54,2771
0.53,2772
0.53,2773
0.53,2774
0.54,2775
0.55,2776
0.55,2777
0.55,2778
0.56,2779
0.57,2780
0.57,2781
0.57,2782
0.57,2783
0.57,2784
0.58,2785
0.58,2786
0.57,2787
0.57,2788
0.57,2789
0.57,2790
0.56,2791
0.55,2792
0.56,2793
0.56,2794
0.56,2795
0.56,2796
0.55,2797
0.56,2798
0.56,2799
0.56,2800
0.57,2801
0.57,2802
0.56,2803
0.56,2804
0.56,2805
0.57,2806
0.58,2807
0.56,2808
0.57,2809
0.57,2810
0.57,2811
0.58,2812
0.58,2813
0.58,2814
0.58,2815
0.58,2816
0.58,2817
0.59,2818
0.6,2819
0.61,2820
0.61,2821
0.61,2822
0.59,2823
0.59,2824
0.59,2825
0.59,2826
0.59,2827
0.59,2828
0.59,2829
0.6,2830
0.61,2831
0.6,2832
0.6,2833
0.61,2834
0.62,2835
0.63,2836
0.62,2837
0.61,2838
0.6,2839
0.61,2840
0.62,2841
0.62,2842
0.61,2843
0.61,2844
0.62,2845
0.63,2846
0.64,2847
0.63,2848
0.62,2849
0.62,2850
0.62,2851
0.62,2852
0.61,2853
0.6,2854
0.59,2855
0.6,2856
0.61,2857
0.61,2858
0.6,2859
0.59,2860
0.59,2861
0.6,2862
0.59,2863
0.6,2864
0.59,2865
0.6,2866
0.59,2867
0.6,2868
0.59,2869
0.59,2870
0.6,2871
0.6,2872
0.6,2873
0.6,2874
0.59,2875
0.59,2876
0.6,2877
0.58,2878
0.59,2879
0.59,2880
0.58,2881
0.57,2882
0.58,2883
0.57,2884
0.56,2885
0.56,2886
0.56,2887
0.55,2888
0.54,2889
0.56,2890
0.56,2891
0.56,2892
0.56,2893
0.55,2894
0.55,2895
0.55,2896
0.57,2897
0.57,2898
0.56,2899
0.57,2900
0.56,2901
0.56,2902
0.57,2903
0.57,2904
0.57,2905
0.57,2906
0.58,2907
0.58,2908
0.57,2909
0.57,2910
0.58,2911
0.57,2912
0.56,2913
0.57,2914
0.57,2915
0.57,2916
0.56,2917
0.56,2918
0.56,2919
0.56,2920
0.55,2921
0.55,2922
0.56,2923
0.56,2924
0.57,2925
0.57,2926
0.56,2927
0.55,2928
0.56,2929
0.56,2930
0.56,2931
0.57,2932
0.57,2933
0.56,2934
0.55,2935
0.54,2936
0.54,2937
0.55,2938
0.55,2939
0.56,2940
0.56,2941
0.56,2942
0.56,2943
0.55,2944
0.55,2945
0.55,2946
0.55,2947
0.56,2948
0.56,2949
0.55,2950
0.55,2951
0.55,2952
0.55,2953
0.55,2954
0.55,2955
0.55,2956
0.55,2957
0.56,2958
0.56,2959
0.57,2960
0.57,2961
0.57,2962
0.56,2963
0.56,2964
0.56,2965
0.55,2966
0.56,2967
0.55,2968
0.55,2969
0.55,2970
0.56,2971
0.56,2972
0.56,2973
0.54,2974
0.54,2975
0.56,2976
0.56,2977
0.56,2978
0.57,2979
0.55,2980
0.56,2981
0.56,2982
0.56,2983
0.54,2984
0.55,2985
0.55,2986
0.54,2987
0.55,2988
0.53,2989
0.54,2990
0.55,2991
0.55,2992
0.55,2993
0.55,2994
0.54,2995
0.53,2996
0.53,2997
0.54,2998
0.53,2999
0.53,3000
0.51,3001
0.52,3002
0.52,3003
0.52,3004
0.52,3005
0.53,3006
0.52,3007
0.52,3008
0.54,3009
0.54,3010
0.54,3011
0.53,3012
0.52,3013
0.54,3014
0.54,3015
0.52,3016
0.53,3017
0.53,3018
0.55,3019
0.54,3020
0.54,3021
0.54,3022
0.52,3023
0.54,3024
0.53,3025
0.53,3026
0.54,3027
0.55,3028
0.55,3029
0.54,3030
0.53,3031
0.53,3032
0.54,3033
0.55,3034
0.54,3035
0.54,3036
0.55,3037
0.55,3038
0.52,3039
0.52,3040
0.54,3041
0.55,3042
0.53,3043
0.54,3044
0.54,3045
0.54,3046
0.53,3047
0.53,3048
0.54,3049
0.54,3050
0.54,3051
0.53,3052
0.53,3053
0.53,3054
0.53,3055
0.52,3056
0.52,3057
0.52,3058
0.51,3059
0.52,3060
0.53,3061
0.52,3062
0.52,3063
0.51,3064
0.52,3065
0.52,3066
0.53,3067
0.53,3068
0.53,3069
0.53,3070
0.52,3071
0.52,3072
0.54,3073
0.54,3074
0.54,3075
0.52,3076
0.52,3077
0.53,3078
0.53,3079
0.53,3080
0.53,3081
0.52,3082
0.52,3083
0.52,3084
0.52,3085
0.53,3086
0.52,3087
0.53,3088
0.53,3089
0.53,3090
0.53,3091
0.52,3092
0.52,3093
0.51,3094
0.52,3095
0.52,3096
0.53,3097
0.53,3098
0.54,3099
0.54,3100
0.55,3101
0.55,3102
0.53,3103
0.54,3104
0.53,3105
0.52,3106
0.53,3107
0.54,3108
0.54,3109
0.53,3110
0.53,3111
0.53,3112
0.54,3113
0.54,3114
0.54,3115
0.53,3116
0.52,3117
0.52,3118
0.53,3119
0.53,3120
0.52,3121
0.51,3122
0.5,3123
0.51,3124
0.52,3125
0.51,3126
0.5,3127
0.5,3128
0.5,3129
0.51,3130
0.51,3131
0.51,3132
0.52,3133
0.52,3134
0.52,3135
0.52,3136
0.52,3137
0.52,3138
0.52,3139
0.52,3140
0.51,3141
0.51,3142
0.52,3143
0.52,3144
0.52,3145
0.53,3146
0.53,3147
0.53,3148
0.53,3149
0.54,3150
0.54,3151
0.55,3152
0.55,3153
0.57,3154
0.58,3155
0.57,3156
0.56,3157
0.56,3158
0.57,3159
0.57,3160
0.57,3161
0.56,3162
0.55,3163
0.57,3164
0.59,3165
0.59,3166
0.59,3167
0.57,3168
0.59,3169
0.58,3170
0.58,3171
0.58,3172
0.59,3173
0.59,3174
0.58,3175
0.58,3176
0.58,3177
0.59,3178
0.59,3179
0.59,3180
0.58,3181
0.57,3182
0.58,3183
0.59,3184
0.6,3185
0.59,3186
0.59,3187
0.59,3188
0.6,3189
0.58,3190
0.59,3191
0.59,3192
0.59,3193
0.58,3194
0.59,3195
0.59,3196
0.58,3197
0.58,3198
0.59,3199
0.59,3200
0.58,3201
0.59,3202
0.59,3203
0.59,3204
0.58,3205
0.59,3206
0.59,3207
0.58,3208
0.59,3209
0.59,3210
0.58,3211
0.58,3212
0.58,3213
0.58,3214
0.58,3215
0.59,3216
0.6,3217
0.59,3218
0.59,3219
0.6,3220
0.59,3221
0.6,3222
0.6,3223
0.6,3224
0.61,3225
0.6,3226
0.61,3227
0.61,3228
0.61,3229
0.61,3230
0.61,3231
0.62,3232
0.63,3233
0.62,3234
0.62,3235
0.63,3236
0.62,3237
0.62,3238
0.62,3239
0.64,3240
0.64,3241
0.63,3242
0.63,3243
0.63,3244
0.64,3245
0.63,3246
0.64,3247
0.64,3248
0.64,3249
0.64,3250
0.63,3251
0.64,3252
0.64,3253
0.64,3254
0.64,3255
0.63,3256
0.62,3257
0.62,3258
0.63,3259
0.62,3260
0.62,3261
0.61,3262
0.62,3263
0.62,3264
0.62,3265
0.61,3266
0.6,3267
0.6,3268
0.6,3269
0.6,3270
0.6,3271
0.59,3272
0.58,3273
0.57,3274
0.58,3275
0.58,3276
0.57,3277
0.57,3278
0.57,3279
0.57,3280
0.58,3281
0.58,3282
0.57,3283
0.57,3284
0.57,3285
0.58,3286
0.58,3287
0.57,3288
0.57,3289
0.57,3290
0.57,3291
0.58,3292
0.58,3293
0.58,3294
0.57,3295
0.58,3296
0.58,3297
0.57,3298
0.57,3299
0.57,3300
0.57,3301
0.57,3302
0.57,3303
0.58,3304
0.59,3305
0.58,3306
0.59,3307
0.59,3308
0.58,3309
0.58,3310
0.57,3311
0.56,3312
0.57,3313
0.56,3314
0.56,3315
0.56,3316
0.56,3317
0.56,3318
0.56,3319
0.56,3320
0.56,3321
0.57,3322
0.56,3323
0.56,3324
0.55,3325
0.56,3326
0.56,3327
0.55,3328
0.56,3329
0.56,3330
0.55,3331
0.55,3332
0.57,3333
0.55,3334
0.55,3335
0.54,3336
0.56,3337
0.56,3338
0.56,3339
0.54,3340
0.55,3341
0.55,3342
0.58,3343
0.55,3344
0.53,3345
0.53,3346
0.53,3347
0.53,3348
0.54,3349
0.54,3350
0.55,3351
0.54,3352
0.53,3353
0.53,3354
0.53,3355
0.54,3356
0.54,3357
0.54,3358
0.54,3359
0.54,3360
0.55,3361
0.55,3362
0.54,3363
0.54,3364
0.54,3365
0.55,3366
0.56,3367
0.55,3368
0.56,3369
0.57,3370
0.56,3371
0.57,3372
0.57,3373
0.57,3374
0.56,3375
0.56,3376
0.56,3377
0.57,3378
0.57,3379
0.57,3380
0.57,3381
0.57,3382
0.57,3383
0.57,3384
0.57,3385
0.57,3386
0.58,3387
0.58,3388
0.58,3389
0.58,3390
0.57,3391
0.56,3392
0.56,3393
0.55,3394
0.55,3395
0.54,3396
0.53,3397
0.53,3398
0.53,3399
0.53,3400
0.53,3401
0.53,3402
0.53,3403
0.53,3404
0.52,3405
0.52,3406
0.52,3407
0.52,3408
0.53,3409
0.54,3410
0.54,3411
0.54,3412
0.54,3413
0.55,3414
0.56,3415
0.55,3416
0.54,3417
0.53,3418
0.53,3419
0.54,3420
0.54,3421
0.53,3422
0.53,3423
0.53,3424
0.54,3425
0.54,3426
0.53,3427
0.53,3428
0.54,3429
0.53,3430
0.54,3431
0.53,3432
0.53,3433
0.53,3434
0.53,3435
0.53,3436
0.54,3437
0.53,3438
0.53,3439
0.54,3440
0.55,3441
0.55,3442
0.54,3443
0.54,3444
0.55,3445
0.55,3446
0.55,3447
0.54,3448
0.53,3449
0.52,3450
0.52,3451
0.53,3452
0.53,3453
0.53,3454
0.53,3455
0.53,3456
0.54,3457
0.54,3458
0.53,3459
0.52,3460
0.52,3461
0.53,3462
0.54,3463
0.54,3464
0.53,3465
0.52,3466
0.52,3467
0.53,3468
0.52,3469
0.52,3470
0.51,3471
0.51,3472
0.52,3473
0.51,3474
0.5,3475
0.5,3476
0.5,3477
0.5,3478
0.51,3479
0.5,3480
0.5,3481
0.5,3482
0.5,3483
0.5,3484
0.5,3485
0.5,3486
0.5,3487
0.5,3488
0.49,3489
0.49,3490
0.51,3491
0.5,3492
0.5,3493
0.51,3494
0.51,3495
0.5,3496
0.51,3497
0.51,3498
0.51,3499
0.51,3500
0.5,3501
0.5,3502
0.51,3503
0.51,3504
0.5,3505
0.51,3506
0.51,3507
0.52,3508
0.55,3509
0.55,3510
0.52,3511
0.52,3512
0.54,3513
0.54,3514
0.54,3515
0.51,3516
0.52,3517
0.53,3518
0.55,3519
0.56,3520
0.53,3521
0.52,3522
0.53,3523
0.53,3524
0.53,3525
0.52,3526
0.52,3527
0.52,3528
0.51,3529
0.51,3530
0.51,3531
0.52,3532
0.51,3533
0.51,3534
0.52,3535
0.52,3536
0.53,3537
0.52,3538
0.53,3539
0.52,3540
0.53,3541
0.51,3542
0.52,3543
0.53,3544
0.53,3545
0.52,3546
0.53,3547
0.54,3548
0.55,3549
0.55,3550
0.55,3551
0.54,3552
0.54,3553
0.54,3554
0.54,3555
0.54,3556
0.53,3557
0.53,3558
0.54,3559
0.54,3560
0.53,3561
0.53,3562
0.53,3563
0.53,3564
0.54,3565
0.54,3566
0.54,3567
0.54,3568
0.54,3569
0.54,3570
0.54,3571
0.54,3572
0.56,3573
0.55,3574
0.56,3575
0.56,3576
0.56,3577
0.56,3578
0.56,3579
0.55,3580
0.54,3581
0.54,3582
0.54,3583
0.55,3584
0.55,3585
0.56,3586
0.54,3587
0.54,3588
0.54,3589
0.53,3590
0.54,3591
0.54,3592
0.53,3593
0.53,3594
0.54,3595
0.52,3596
0.53,3597
0.54,3598
0.53,3599
0.54,3600
0.55,3601
0.53,3602
0.53,3603
0.52,3604
0.52,3605
0.52,3606
0.5,3607
0.51,3608
0.52,3609
0.51,3610
0.5,3611
0.49,3612
0.48,3613
0.49,3614
0.47,3615
0.46,3616
0.46,3617
0.47,3618
0.47,3619
0.47,3620
0.47,3621
0.47,3622
0.46,3623
0.46,3624
0.47,3625
0.47,3626
0.46,3627
0.47,3628
0.46,3629
0.45,3630
0.46,3631
0.45,3632
0.44,3633
0.45,3634
0.45,3635
0.45,3636
0.45,3637
0.45,3638
0.45,3639
0.46,3640
0.46,3641
0.46,3642
0.46,3643
0.46,3644
0.46,3645
0.46,3646
0.46,3647
0.46,3648
0.45,3649
0.45,3650
0.45,3651
0.45,3652
0.45,3653
0.45,3654
0.46,3655
0.47,3656
0.47,3657
0.47,3658
0.47,3659
0.47,3660
0.47,3661
0.46,3662
0.47,3663
0.46,3664
0.47,3665
0.47,3666
0.48,3667
0.48,3668
0.48,3669
0.48,3670
0.49,3671
0.49,3672
0.49,3673
0.5,3674
0.49,3675
0.48,3676
0.49,3677
0.49,3678
0.49,3679
0.49,3680
0.49,3681
0.48,3682
0.48,3683
0.47,3684
0.47,3685
0.47,3686
0.47,3687
0.47,3688
0.47,3689
0.47,3690
0.46,3691
0.47,3692
0.46,3693
0.46,3694
0.46,3695
0.45,3696
0.44,3697
0.44,3698
0.44,3699
0.45,3700
0.46,3701
0.45,3702
0.46,3703
0.47,3704
0.47,3705
0.47,3706
0.47,3707
0.47,3708
0.48,3709
0.49,3710
0.48,3711
0.47,3712
0.47,3713
0.47,3714
0.48,3715
0.47,3716
0.52,3717
0.52,3718
0.53,3719
0.54,3720
0.53,3721
0.53,3722
0.53,3723
0.52,3724
0.51,3725
0.52,3726
0.52,3727
0.53,3728
0.52,3729
0.52,3730
0.51,3731
0.52,3732
0.51,3733
0.52,3734
0.52,3735
0.52,3736
0.52,3737
0.52,3738
0.51,3739
0.51,3740
0.52,3741
0.51,3742
0.52,3743
0.52,3744
0.53,3745
0.53,3746
0.53,3747
0.53,3748
0.53,3749
0.53,3750
0.54,3751
0.53,3752
0.54,3753
0.54,3754
0.53,3755
0.54,3756
0.54,3757
0.55,3758
0.54,3759
0.53,3760
0.53,3761
0.54,3762
0.55,3763
0.55,3764
0.54,3765
0.54,3766
0.54,3767
0.54,3768
0.55,3769
0.55,3770
0.55,3771
0.55,3772
0.56,3773
0.56,3774
0.56,3775
0.56,3776
0.56,3777
0.55,3778
0.56,3779
0.56,3780
0.57,3781
0.57,3782
0.56,3783
0.57,3784
0.57,3785
0.57,3786
0.56,3787
0.55,3788
0.54,3789
0.55,3790
0.56,3791
0.55,3792
0.54,3793
0.54,3794
0.55,3795
0.56,3796
0.55,3797
0.54,3798
0.54,3799
0.54,3800
0.55,3801
0.55,3802
0.54,3803
0.54,3804
0.53,3805
0.54,3806
0.55,3807
0.54,3808
0.53,3809
0.54,3810
0.54,3811
0.54,3812
0.53,3813
0.53,3814
0.52,3815
0.52,3816
0.52,3817
0.53,3818
0.53,3819
0.53,3820
0.54,3821
0.54,3822
0.55,3823
0.55,3824
0.54,3825
0.53,3826
0.53,3827
0.54,3828
0.54,3829
0.53,3830
0.54,3831
0.53,3832
0.53,3833
0.54,3834
0.53,3835
0.52,3836
0.52,3837
0.53,3838
0.52,3839
0.53,3840
0.53,3841
0.53,3842
0.53,3843
0.52,3844
0.51,3845
0.52,3846
0.52,3847
0.52,3848
0.51,3849
0.51,3850
0.51,3851
0.52,3852
0.51,3853
0.52,3854
0.51,3855
0.52,3856
0.51,3857
0.51,3858
0.51,3859
0.52,3860
0.52,3861
0.51,3862
0.51,3863
0.52,3864
0.52,3865
0.52,3866
0.51,3867
0.51,3868
0.51,3869
0.51,3870
0.51,3871
0.51,3872
0.5,3873
0.51,3874
0.51,3875
0.51,3876
0.51,3877
0.52,3878
0.51,3879
0.5,3880
0.51,3881
0.51,3882
0.52,3883
0.51,3884
0.51,3885
0.52,3886
0.52,3887
0.52,3888
0.52,3889
0.52,3890
0.52,3891
0.53,3892
0.53,3893
0.52,3894
0.51,3895
0.52,3896
0.52,3897
0.53,3898
0.52,3899
0.52,3900
0.53,3901
0.54,3902
0.53,3903
0.53,3904
0.53,3905
0.53,3906
0.53,3907
0.52,3908
0.52,3909
0.52,3910
0.52,3911
0.53,3912
0.53,3913
0.53,3914
0.54,3915
0.54,3916
0.55,3917
0.55,3918
0.54,3919
0.53,3920
0.53,3921
0.53,3922
0.53,3923
0.53,3924
0.52,3925
0.54,3926
0.53,3927
0.53,3928
0.52,3929
0.53,3930
0.52,3931
0.52,3932
0.52,3933
0.52,3934
0.53,3935
0.53,3936
0.53,3937
0.53,3938
0.52,3939
0.52,3940
0.53,3941
0.52,3942
0.53,3943
0.52,3944
0.53,3945
0.54,3946
0.53,3947
0.52,3948
0.53,3949
0.53,3950
0.53,3951
0.53,3952
0.53,3953
0.52,3954
0.52,3955
0.53,3956
0.53,3957
0.53,3958
0.52,3959
0.51,3960
0.51,3961
0.51,3962
0.5,3963
0.5,3964
0.52,3965
0.51,3966
0.5,3967
0.5,3968
0.5,3969
0.5,3970
0.5,3971
0.5,3972
0.5,3973
0.5,3974
0.51,3975
0.53,3976
0.53,3977
0.51,3978
0.52,3979
0.53,3980
0.55,3981
0.53,3982
0.51,3983
0.51,3984
0.53,3985
0.55,3986
0.55,3987
0.55,3988
0.52,3989
0.54,3990
0.54,3991
0.55,3992
0.54,3993
0.52,3994
0.55,3995
0.55,3996
0.55,3997
0.54,3998
0.52,3999
0.52,4000
0.54,4001
0.53,4002
0.53,4003
0.54,4004
0.52,4005
0.53,4006
0.52,4007
0.52,4008
0.52,4009
0.52,4010
0.52,4011
0.52,4012
0.52,4013
0.52,4014
0.52,4015
0.52,4016
0.52,4017
0.52,4018
0.52,4019
0.52,4020
0.52,4021
0.53,4022
0.52,4023
0.53,4024
0.53,4025
0.53,4026
0.54,4027
0.54,4028
0.54,4029
0.54,4030
0.53,4031
0.53,4032
0.53,4033
0.54,4034
0.53,4035
0.53,4036
0.52,4037
0.53,4038
0.54,4039
0.53,4040
0.53,4041
0.52,4042
0.53,4043
0.53,4044
0.54,4045
0.54,4046
0.54,4047
0.53,4048
0.54,4049
0.54,4050
0.55,4051
0.55,4052
0.56,4053
0.56,4054
0.56,4055
0.56,4056
0.57,4057
0.57,4058
0.57,4059
0.56,4060
0.56,4061
0.56,4062
0.56,4063
0.56,4064
0.57,4065
0.57,4066
0.57,4067
0.58,4068
0.58,4069
0.57,4070
0.57,4071
0.56,4072
0.57,4073
0.57,4074
0.57,4075
0.56,4076
0.56,4077
0.55,4078
0.55,4079
0.56,4080
0.56,4081
0.55,4082
0.55,4083
0.55,4084
0.56,4085
0.56,4086
0.56,4087
0.55,4088
0.56,4089
0.56,4090
0.55,4091
0.56,4092
0.56,4093
0.55,4094
0.55,4095
0.56,4096
0.56,4097
0.55,4098
0.54,4099
0.55,4100
0.55,4101
0.55,4102
0.55,4103
0.54,4104
0.54,4105
0.54,4106
0.54,4107
0.54,4108
0.55,4109
0.55,4110
0.56,4111
0.56,4112
0.56,4113
0.56,4114
0.55,4115
0.56,4116
0.56,4117
0.55,4118
0.56,4119
0.55,4120
0.55,4121
0.55,4122
0.55,4123
0.55,4124
0.54,4125
0.54,4126
0.55,4127
0.54,4128
0.55,4129
0.55,4130
0.55,4131
0.55,4132
0.56,4133
0.55,4134
0.55,4135
0.54,4136
0.54,4137
0.54,4138
0.55,4139
0.54,4140
0.54,4141
0.55,4142
0.55,4143
0.56,4144
0.55,4145
0.54,4146
0.53,4147
0.53,4148
0.54,4149
0.53,4150
0.52,4151
0.53,4152
0.53,4153
0.53,4154
0.54,4155
0.53,4156
0.53,4157
0.52,4158
0.52,4159
0.52,4160
0.53,4161
0.54,4162
0.53,4163
0.53,4164
0.52,4165
0.52,4166
0.51,4167
0.52,4168
0.54,4169
0.53,4170
0.53,4171
0.54,4172
0.54,4173
0.55,4174
0.55,4175
0.54,4176
0.54,4177
0.55,4178
0.55,4179
0.55,4180
0.52,4181
0.52,4182
0.53,4183
0.53,4184
0.53,4185
0.53,4186
0.54,4187
0.54,4188
0.53,4189
0.53,4190
0.53,4191
0.54,4192
0.53,4193
0.53,4194
0.53,4195
0.53,4196
0.53,4197
0.53,4198
0.54,4199
0.54,4200
0.54,4201
0.54,4202
0.54,4203
0.54,4204
0.55,4205
0.55,4206
0.54,4207
0.52,4208
0.52,4209
0.53,4210
0.52,4211
0.52,4212
0.52,4213
0.5,4214
0.51,4215
0.5,4216
0.51,4217
0.51,4218
0.5,4219
0.51,4220
0.52,4221
0.53,4222
0.53,4223
0.53,4224
0.53,4225
0.53,4226
0.52,4227
0.52,4228
0.53,4229
0.53,4230
0.52,4231
0.52,4232
0.53,4233
0.53,4234
0.53,4235
0.54,4236
0.54,4237
0.54,4238
0.54,4239
0.54,4240
0.54,4241
0.54,4242
0.53,4243
0.53,4244
0.52,4245
0.52,4246
0.52,4247
0.51,4248
0.52,4249
0.52,4250
0.53,4251
0.52,4252
0.51,4253
0.51,4254
0.51,4255
0.52,4256
0.53,4257
0.53,4258
0.52,4259
0.52,4260
0.52,4261
0.52,4262
0.53,4263
0.54,4264
0.53,4265
0.53,4266
0.53,4267
0.53,4268
0.53,4269
0.53,4270
0.53,4271
0.53,4272
0.52,4273
0.52,4274
0.52,4275
0.52,4276
0.52,4277
0.52,4278
0.52,4279
0.53,4280
0.52,4281
0.53,4282
0.52,4283
0.53,4284
0.53,4285
0.53,4286
0.53,4287
0.53,4288
0.53,4289
0.53,4290
0.54,4291
0.54,4292
0.54,4293
0.54,4294
0.54,4295
0.54,4296
0.54,4297
0.54,4298
0.54,4299
0.53,4300
0.53,4301
0.53,4302
0.53,4303
0.54,4304
0.54,4305
0.54,4306
0.54,4307
0.55,4308
0.55,4309
0.55,4310
0.56,4311
0.55,4312
0.54,4313
0.54,4314
0.54,4315
0.55,4316
0.55,4317
0.55,4318
0.54,4319
0.54,4320
0.55,4321
0.54,4322
0.55,4323
0.54,4324
0.54,4325
0.54,4326
0.54,4327
0.53,4328
0.54,4329
0.54,4330
0.54,4331
0.54,4332
0.54,4333
0.54,4334
0.54,4335
0.55,4336
0.56,4337
0.55,4338
0.54,4339
0.53,4340
0.53,4341
0.54,4342
0.54,4343
0.54,4344
0.54,4345
0.55,4346
0.55,4347
0.56,4348
0.56,4349
0.55,4350
0.54,4351
0.55,4352
0.56,4353
0.55,4354
0.54,4355
0.53,4356
0.52,4357
0.53,4358
0.53,4359
0.52,4360
0.52,4361
0.52,4362
0.52,4363
0.52,4364
0.52,4365
0.52,4366
0.51,4367
0.51,4368
0.52,4369
0.52,4370
0.52,4371
0.52,4372
0.52,4373
0.51,4374
0.51,4375
0.51,4376
0.51,4377
0.51,4378
0.52,4379
0.51,4380
0.51,4381
0.52,4382
0.52,4383
0.52,4384
0.52,4385
0.52,4386
0.52,4387
0.52,4388
0.51,4389
0.52,4390
0.53,4391
0.52,4392
0.52,4393
0.52,4394
0.51,4395
0.52,4396
0.53,4397
0.52,4398
0.51,4399
0.52,4400
0.53,4401
0.53,4402
0.52,4403
0.52,4404
0.52,4405
0.53,4406
0.54,4407
0.53,4408
0.52,4409
0.52,4410
0.52,4411
0.53,4412
0.53,4413
0.53,4414
0.54,4415
0.53,4416
0.53,4417
0.54,4418
0.54,4419
0.55,4420
0.55,4421
0.56,4422
0.55,4423
0.55,4424
0.55,4425
0.55,4426
0.55,4427
0.55,4428
0.54,4429
0.54,4430
0.54,4431
0.53,4432
0.54,4433
0.55,4434
0.54,4435
0.54,4436
0.53,4437
0.53,4438
0.54,4439
0.54,4440
0.53,4441
0.54,4442
0.54,4443
0.54,4444
0.55,4445
0.55,4446
0.55,4447
0.55,4448
0.55,4449
0.55,4450
0.56,4451
0.56,4452
0.56,4453
0.57,4454
0.56,4455
0.56,4456
0.56,4457
0.56,4458
0.57,4459
0.54,4460
0.54,4461
0.56,4462
0.55,4463
0.54,4464
0.54,4465
0.55,4466
0.55,4467
0.55,4468
0.55,4469
0.56,4470
0.56,4471
0.56,4472
0.57,4473
0.57,4474
0.57,4475
0.57,4476
0.58,4477
0.58,4478
0.57,4479
0.57,4480
0.57,4481
0.58,4482
0.57,4483
0.57,4484
0.57,4485
0.56,4486
0.57,4487
0.57,4488
0.57,4489
0.58,4490
0.57,4491
0.55,4492
0.56,4493
0.56,4494
0.55,4495
0.57,4496
0.57,4497
0.56,4498
0.56,4499
0.57,4500
0.56,4501
0.56,4502
0.55,4503
0.55,4504
0.56,4505
0.55,4506
0.55,4507
0.56,4508
0.55,4509
0.56,4510
0.55,4511
0.55,4512
0.54,4513
0.55,4514
0.56,4515
0.55,4516
0.55,4517
0.55,4518
0.56,4519
0.56,4520
0.56,4521
0.55,4522
0.55,4523
0.55,4524
0.55,4525
0.55,4526
0.55,4527
0.55,4528
0.56,4529
0.56,4530
0.56,4531
0.56,4532
0.56,4533
0.55,4534
0.56,4535
0.55,4536
0.55,4537
0.56,4538
0.56,4539
0.57,4540
0.56,4541
0.56,4542
0.56,4543
0.55,4544
0.56,4545
0.56,4546
0.55,4547
0.56,4548
0.55,4549
0.55,4550
0.55,4551
0.54,4552
0.55,4553
0.54,4554
0.53,4555
0.53,4556
0.54,4557
0.54,4558
0.53,4559
0.53,4560
0.52,4561
0.52,4562
0.53,4563
0.52,4564
0.51,4565
0.51,4566
0.51,4567
0.52,4568
0.52,4569
0.51,4570
0.51,4571
0.52,4572
0.53,4573
0.53,4574
0.52,4575
0.52,4576
0.51,4577
0.52,4578
0.53,4579
0.53,4580
0.52,4581
0.51,4582
0.52,4583
0.53,4584
0.53,4585
0.53,4586
0.52,4587
0.52,4588
0.53,4589
0.54,4590
0.54,4591
0.54,4592
0.54,4593
0.55,4594
0.56,4595
0.55,4596
0.54,4597
0.54,4598
0.55,4599
0.56,4600
0.56,4601
0.56,4602
0.56,4603
0.55,4604
0.56,4605
0.56,4606
0.56,4607
0.55,4608
0.55,4609
0.55,4610
0.54,4611
0.54,4612
0.55,4613
0.55,4614
0.55,4615
0.53,4616
0.53,4617
0.54,4618
0.54,4619
0.53,4620
0.53,4621
0.54,4622
0.54,4623
0.55,4624
0.54,4625
0.54,4626
0.54,4627
0.52,4628
0.53,4629
0.53,4630
0.53,4631
0.54,4632
0.54,4633
0.55,4634
0.54,4635
0.54,4636
0.55,4637
0.54,4638
0.55,4639
0.54,4640
0.54,4641
0.55,4642
0.56,4643
0.55,4644
0.56,4645
0.56,4646
0.56,4647
0.57,4648
0.56,4649
0.55,4650
0.56,4651
0.56,4652
0.57,4653
0.56,4654
0.56,4655
0.58,4656
0.58,4657
0.58,4658
0.57,4659
0.58,4660
0.58,4661
0.59,4662
0.58,4663
0.56,4664
0.57,4665
0.57,4666
0.58,4667
0.57,4668
0.55,4669
0.56,4670
0.55,4671
0.55,4672
0.56,4673
0.56,4674
0.55,4675
0.56,4676
0.56,4677
0.55,4678
0.55,4679
0.56,4680
0.56,4681
0.56,4682
0.55,4683
0.55,4684
0.55,4685
0.56,4686
0.56,4687
0.55,4688
0.55,4689
0.56,4690
0.55,4691
0.56,4692
0.55,4693
0.55,4694
0.55,4695
0.56,4696
0.57,4697
0.57,4698
0.56,4699
0.56,4700
0.56,4701
0.56,4702
0.55,4703
0.56,4704
0.55,4705
0.55,4706
0.56,4707
0.56,4708
0.56,4709
0.55,4710
0.54,4711
0.54,4712
0.55,4713
0.55,4714
0.54,4715
0.54,4716
0.54,4717
0.55,4718
0.55,4719
0.56,4720
0.56,4721
0.55,4722
0.56,4723
0.56,4724
0.56,4725
0.56,4726
0.56,4727
0.56,4728
0.56,4729
0.56,4730
0.56,4731
0.55,4732
0.54,4733
0.55,4734
0.56,4735
0.55,4736
0.54,4737
0.55,4738
0.55,4739
0.56,4740
0.56,4741
0.55,4742
0.54,4743
0.54,4744
0.55,4745
0.55,4746
0.54,4747
0.53,4748
0.53,4749
0.54,4750
0.55,4751
0.54,4752
0.53,4753
0.53,4754
0.54,4755
0.55,4756
0.54,4757
0.53,4758
0.53,4759
0.53,4760
0.54,4761
0.55,4762
0.55,4763
0.55,4764
0.54,4765
0.55,4766
0.56,4767
0.56,4768
0.55,4769
0.55,4770
0.56,4771
0.57,4772
0.56,4773
0.55,4774
0.54,4775
0.54,4776
0.55,4777
0.54,4778
0.55,4779
0.54,4780
0.54,4781
0.53,4782
0.54,4783
0.53,4784
0.52,4785
0.53,4786
0.53,4787
0.54,4788
0.54,4789
0.54,4790
0.53,4791
0.53,4792
0.54,4793
0.54,4794
0.53,4795
0.52,4796
0.53,4797
0.53,4798
0.54,4799
0.54,4800
0.53,4801
0.54,4802
0.54,4803
0.54,4804
0.55,4805
0.54,4806
0.54,4807
0.53,4808
0.53,4809
0.54,4810
0.54,4811
0.53,4812
0.53,4813
0.53,4814
0.54,4815
0.53,4816
0.53,4817
0.54,4818
0.53,4819
0.53,4820
0.53,4821
0.54,4822
0.54,4823
0.53,4824
0.54,4825
0.53,4826
0.53,4827
0.53,4828
0.53,4829
0.54,4830
0.53,4831
0.54,4832
0.54,4833
0.54,4834
0.53,4835
0.53,4836
0.53,4837
0.53,4838
0.53,4839
0.53,4840
0.53,4841
0.54,4842
0.54,4843
0.53,4844
0.54,4845
0.53,4846
0.54,4847
0.54,4848
0.54,4849
0.54,4850
0.54,4851
0.54,4852
0.54,4853
0.54,4854
0.54,4855
0.54,4856
0.55,4857
0.54,4858
0.53,4859
0.54,4860
0.53,4861
0.54,4862
0.54,4863
0.54,4864
0.54,4865
0.54,4866
0.54,4867
0.55,4868
0.54,4869
0.55,4870
0.54,4871
0.54,4872
0.55,4873
0.54,4874
0.54,4875
0.55,4876
0.54,4877
0.53,4878
0.53,4879
0.53,4880
0.54,4881
0.53,4882
0.53,4883
0.53,4884
0.54,4885
0.53,4886
0.52,4887
0.52,4888
0.53,4889
0.54,4890
0.55,4891
0.54,4892
0.54,4893
0.54,4894
0.55,4895
0.55,4896
0.55,4897
0.55,4898
0.54,4899
0.54,4900
0.55,4901
0.54,4902
0.54,4903
0.54,4904
0.54,4905
0.55,4906
0.54,4907
0.54,4908
0.54,4909
0.53,4910
0.54,4911
0.54,4912
0.55,4913
0.54,4914
0.54,4915
0.55,4916
0.55,4917
0.54,4918
0.55,4919
0.55,4920
0.55,4921
0.55,4922
0.55,4923
0.55,4924
0.55,4925
0.55,4926
0.55,4927
0.56,4928
0.55,4929
0.55,4930
0.54,4931
0.55,4932
0.55,4933
0.56,4934
0.56,4935
0.56,4936
0.57,4937
0.56,4938
0.56,4939
0.56,4940
0.56,4941
0.55,4942
0.54,4943
0.55,4944
0.54,4945
0.55,4946
0.55,4947
0.55,4948
0.54,4949
0.53,4950
0.54,4951
0.54,4952
0.55,4953
0.54,4954
0.54,4955
0.55,4956
0.54,4957
0.53,4958
0.54,4959
0.53,4960
0.55,4961
0.54,4962
0.53,4963
0.53,4964
0.54,4965
0.53,4966
0.52,4967
0.52,4968
0.51,4969
0.52,4970
0.52,4971
0.52,4972
0.52,4973
0.51,4974
0.52,4975
0.53,4976
0.53,4977
0.53,4978
0.53,4979
0.54,4980
0.54,4981
0.55,4982
0.55,4983
0.55,4984
0.54,4985
0.55,4986
0.56,4987
0.55,4988
0.54,4989
0.54,4990
0.54,4991
0.55,4992
0.56,4993
0.55,4994
0.54,4995
0.54,4996
0.55,4997
0.55,4998
0.55,4999
0.54,5000
0.53,5001
0.54,5002
0.55,5003
0.54,5004
0.53,5005
0.52,5006
0.52,5007
0.52,5008
0.52,5009
0.52,5010
0.52,5011
0.52,5012
0.53,5013
0.54,5014
0.53,5015
0.52,5016
0.51,5017
0.52,5018
0.53,5019
0.53,5020
0.52,5021
0.52,5022
0.52,5023
0.53,5024
0.52,5025
0.53,5026
0.52,5027
0.52,5028
0.53,5029
0.52,5030
0.53,5031
0.53,5032
0.54,5033
0.54,5034
0.53,5035
0.54,5036
0.53,5037
0.53,5038
0.53,5039
0.52,5040
0.53,5041
0.53,5042
0.52,5043
0.53,5044
0.53,5045
0.54,5046
0.54,5047
0.53,5048
0.54,5049
0.54,5050
0.54,5051
0.52,5052
0.53,5053
0.52,5054
0.52,5055
0.53,5056
0.52,5057
0.52,5058
0.53,5059
0.53,5060
0.52,5061
0.53,5062
0.54,5063
0.54,5064
0.53,5065
0.54,5066
0.54,5067
0.55,5068
0.55,5069
0.55,5070
0.55,5071
0.55,5072
0.56,5073
0.56,5074
0.56,5075
0.55,5076
0.55,5077
0.56,5078
0.56,5079
0.55,5080
0.56,5081
0.56,5082
0.55,5083
0.56,5084
0.57,5085
0.56,5086
0.56,5087
0.56,5088
0.57,5089
0.56,5090
0.56,5091
0.56,5092
0.55,5093
0.55,5094
0.55,5095
0.54,5096
0.55,5097
0.55,5098
0.56,5099
0.55,5100
0.55,5101
0.56,5102
0.55,5103
0.55,5104
0.56,5105
0.56,5106
0.56,5107
0.57,5108
0.56,5109
0.55,5110
0.56,5111
0.55,5112
0.55,5113
0.54,5114
0.55,5115
0.55,5116
0.55,5117
0.55,5118
0.54,5119
0.54,5120
0.55,5121
0.55,5122
0.54,5123
0.53,5124
0.53,5125
0.54,5126
0.55,5127
0.54,5128
0.53,5129
0.53,5130
0.52,5131
0.53,5132
0.53,5133
0.52,5134
0.51,5135
0.52,5136
0.52,5137
0.53,5138
0.53,5139
0.52,5140
0.52,5141
0.52,5142
0.53,5143
0.52,5144
0.51,5145
0.51,5146
0.51,5147
0.51,5148
0.52,5149
0.52,5150
0.52,5151
0.51,5152
0.52,5153
0.53,5154
0.52,5155
0.52,5156
0.52,5157
0.53,5158
0.53,5159
0.53,5160
0.53,5161
0.53,5162
0.53,5163
0.54,5164
0.55,5165
0.54,5166
0.53,5167
0.53,5168
0.54,5169
0.54,5170
0.54,5171
0.54,5172
0.53,5173
0.52,5174
0.52,5175
0.52,5176
0.52,5177
0.51,5178
0.5,5179
0.5,5180
0.51,5181
0.5,5182
0.51,5183
0.52,5184
0.52,5185
0.5,5186
0.49,5187
0.49,5188
0.49,5189
0.49,5190
0.5,5191
0.51,5192
0.51,5193
0.5,5194
0.5,5195
0.51,5196
0.52,5197
0.51,5198
0.5,5199
0.49,5200
0.5,5201
0.51,5202
0.51,5203
0.51,5204
0.51,5205
0.51,5206
0.52,5207
0.53,5208
0.53,5209
0.52,5210
0.51,5211
0.52,5212
0.52,5213
0.53,5214
0.52,5215
0.52,5216
0.53,5217
0.54,5218
0.54,5219
0.53,5220
0.53,5221
0.53,5222
0.54,5223
0.55,5224
0.54,5225
0.53,5226
0.53,5227
0.53,5228
0.53,5229
0.53,5230
0.53,5231
0.53,5232
0.53,5233
0.53,5234
0.54,5235
0.54,5236
0.54,5237
0.54,5238
0.54,5239
0.55,5240
0.55,5241
0.55,5242
0.54,5243
0.55,5244
0.55,5245
0.55,5246
0.55,5247
0.55,5248
0.55,5249
0.55,5250
0.56,5251
0.56,5252
0.56,5253
0.56,5254
0.57,5255
0.57,5256
0.56,5257
0.56,5258
0.56,5259
0.56,5260
0.56,5261
0.55,5262
0.55,5263
0.54,5264
0.53,5265
0.53,5266
0.54,5267
0.53,5268
0.52,5269
0.53,5270
0.53,5271
0.53,5272
0.53,5273
0.53,5274
0.54,5275
0.54,5276
0.55,5277
0.55,5278
0.56,5279
0.55,5280
0.55,5281
0.56,5282
0.56,5283
0.56,5284
0.55,5285
0.55,5286
0.55,5287
0.55,5288
0.55,5289
0.54,5290
0.55,5291
0.55,5292
0.55,5293
0.56,5294
0.55,5295
0.55,5296
0.55,5297
0.56,5298
0.56,5299
0.57,5300
0.56,5301
0.55,5302
0.56,5303
0.56,5304
0.56,5305
0.55,5306
0.56,5307
0.56,5308
0.55,5309
0.55,5310
0.57,5311
0.57,5312
0.56,5313
0.56,5314
0.57,5315
0.56,5316
0.56,5317
0.58,5318
0.57,5319
0.57,5320
0.57,5321
0.56,5322
0.56,5323
0.56,5324
0.56,5325
0.56,5326
0.56,5327
0.56,5328
0.56,5329
0.57,5330
0.57,5331
0.57,5332
0.56,5333
0.55,5334
0.55,5335
0.55,5336
0.55,5337
0.55,5338
0.54,5339
0.53,5340
0.53,5341
0.54,5342
0.54,5343
0.54,5344
0.54,5345
0.54,5346
0.54,5347
0.53,5348
0.54,5349
0.54,5350
0.54,5351
0.54,5352
0.54,5353
0.53,5354
0.54,5355
0.54,5356
0.55,5357
0.56,5358
0.55,5359
0.54,5360
0.55,5361
0.56,5362
0.54,5363
0.55,5364
0.55,5365
0.55,5366
0.54,5367
0.55,5368
0.55,5369
0.54,5370
0.55,5371
0.57,5372
0.57,5373
0.54,5374
0.55,5375
0.57,5376
0.56,5377
0.56,5378
0.57,5379
0.58,5380
0.57,5381
0.58,5382
0.58,5383
0.58,5384
0.59,5385
0.59,5386
0.59,5387
0.59,5388
0.6,5389
0.6,5390
0.6,5391
0.59,5392
0.59,5393
0.58,5394
0.59,5395
0.59,5396
0.59,5397
0.58,5398
0.59,5399
0.59,5400
0.59,5401
0.58,5402
0.58,5403
0.59,5404
0.57,5405
0.58,5406
0.59,5407
0.58,5408
0.59,5409
0.59,5410
0.58,5411
0.57,5412
0.57,5413
0.57,5414
0.57,5415
0.56,5416
0.56,5417
0.56,5418
0.57,5419
0.57,5420
0.57,5421
0.57,5422
0.58,5423
0.58,5424
0.57,5425
0.57,5426
0.58,5427
0.58,5428
0.57,5429
0.56,5430
0.55,5431
0.56,5432
0.56,5433
0.55,5434
0.54,5435
0.55,5436
0.55,5437
0.56,5438
0.56,5439
0.55,5440
0.55,5441
0.55,5442
0.55,5443
0.56,5444
0.56,5445
0.55,5446
0.55,5447
0.54,5448
0.54,5449
0.55,5450
0.55,5451
0.54,5452
0.54,5453
0.55,5454
0.56,5455
0.55,5456
0.55,5457
0.55,5458
0.54,5459
0.55,5460
0.55,5461
0.54,5462
0.54,5463
0.53,5464
0.54,5465
0.55,5466
0.54,5467
0.53,5468
0.53,5469
0.54,5470
0.55,5471
0.55,5472
0.54,5473
0.54,5474
0.55,5475
0.56,5476
0.56,5477
0.55,5478
0.55,5479
0.55,5480
0.56,5481
0.55,5482
0.55,5483
0.54,5484
0.54,5485
0.55,5486
0.55,5487
0.56,5488
0.55,5489
0.55,5490
0.56,5491
0.56,5492
0.56,5493
0.56,5494
0.56,5495
0.55,5496
0.54,5497
0.54,5498
0.54,5499
0.54,5500
0.55,5501
0.55,5502
0.55,5503
0.55,5504
0.56,5505
0.56,5506
0.55,5507
0.56,5508
0.55,5509
0.56,5510
0.55,5511
0.55,5512
0.55,5513
0.56,5514
0.56,5515
0.56,5516
0.56,5517
0.56,5518
0.56,5519
0.57,5520
0.57,5521
0.56,5522
0.56,5523
0.55,5524
0.56,5525
0.58,5526
0.57,5527
0.57,5528
0.57,5529
0.56,5530
0.57,5531
0.57,5532
0.57,5533
0.58,5534
0.57,5535
0.56,5536
0.56,5537
0.55,5538
0.54,5539
0.55,5540
0.55,5541
0.55,5542
0.54,5543
0.55,5544
0.53,5545
0.54,5546
0.54,5547
0.54,5548
0.53,5549
0.55,5550
0.54,5551
0.55,5552
0.54,5553
0.54,5554
0.54,5555
0.55,5556
0.56,5557
0.55,5558
0.54,5559
0.54,5560
0.54,5561
0.55,5562
0.54,5563
0.54,5564
0.53,5565
0.53,5566
0.54,5567
0.55,5568
0.55,5569
0.54,5570
0.53,5571
0.54,5572
0.54,5573
0.53,5574
0.53,5575
0.52,5576
0.52,5577
0.53,5578
0.53,5579
0.52,5580
0.51,5581
0.51,5582
0.51,5583
0.52,5584
0.51,5585
0.5,5586
0.51,5587
0.5,5588
0.5,5589
0.49,5590
0.5,5591
0.52,5592
0.52,5593
0.51,5594
0.52,5595
0.52,5596
0.52,5597
0.52,5598
0.52,5599
0.53,5600
0.52,5601
0.52,5602
0.52,5603
0.52,5604
0.51,5605
0.51,5606
0.53,5607
0.53,5608
0.53,5609
0.53,5610
0.52,5611
0.52,5612
0.53,5613
0.53,5614
0.52,5615
0.52,5616
0.51,5617
0.52,5618
0.52,5619
0.52,5620
0.51,5621
0.51,5622
0.51,5623
0.51,5624
0.51,5625
0.51,5626
0.51,5627
0.51,5628
0.52,5629
0.53,5630
0.53,5631
0.51,5632
0.51,5633
0.51,5634
0.5,5635
0.5,5636
0.49,5637
0.49,5638
0.5,5639
0.5,5640
0.5,5641
0.5,5642
0.51,5643
0.51,5644
0.51,5645
0.51,5646
0.52,5647
0.52,5648
0.52,5649
0.51,5650
0.5,5651
0.5,5652
0.51,5653
0.5,5654
0.49,5655
0.5,5656
0.5,5657
0.5,5658
0.51,5659
0.51,5660
0.51,5661
0.51,5662
0.52,5663
0.52,5664
0.52,5665
0.52,5666
0.51,5667
0.51,5668
0.51,5669
0.51,5670
0.52,5671
0.52,5672
0.54,5673
0.53,5674
0.54,5675
0.54,5676
0.54,5677
0.53,5678
0.55,5679
0.54,5680
0.54,5681
0.54,5682
0.54,5683
0.54,5684
0.55,5685
0.55,5686
0.56,5687
0.55,5688
0.55,5689
0.56,5690
0.56,5691
0.56,5692
0.55,5693
0.55,5694
0.55,5695
0.55,5696
0.55,5697
0.55,5698
0.55,5699
0.55,5700
0.55,5701
0.56,5702
0.56,5703
0.55,5704
0.54,5705
0.55,5706
0.56,5707
0.55,5708
0.55,5709
0.55,5710
0.56,5711
0.55,5712
0.55,5713
0.56,5714
0.56,5715
0.55,5716
0.56,5717
0.56,5718
0.57,5719
0.56,5720
0.56,5721
0.56,5722
0.56,5723
0.56,5724
0.57,5725
0.57,5726
0.57,5727
0.56,5728
0.57,5729
0.56,5730
0.56,5731
0.56,5732
0.55,5733
0.56,5734
0.56,5735
0.57,5736
0.57,5737
0.58,5738
0.57,5739
0.56,5740
0.57,5741
0.56,5742
0.56,5743
0.56,5744
0.55,5745
0.56,5746
0.56,5747
0.55,5748
0.55,5749
0.55,5750
0.56,5751
0.56,5752
0.57,5753
0.56,5754
0.55,5755
0.54,5756
0.56,5757
0.55,5758
0.54,5759
0.55,5760
0.54,5761
0.54,5762
0.53,5763
0.53,5764
0.54,5765
0.55,5766
0.55,5767
0.54,5768
0.54,5769
0.55,5770
0.54,5771
0.53,5772
0.54,5773
0.54,5774
0.53,5775
0.52,5776
0.53,5777
0.53,5778
0.53,5779
0.53,5780
0.53,5781
0.54,5782
0.53,5783
0.52,5784
0.53,5785
0.53,5786
0.51,5787
0.52,5788
0.52,5789
0.53,5790
0.52,5791
0.51,5792
0.52,5793
0.51,5794
0.5,5795
0.51,5796
0.51,5797
0.52,5798
0.52,5799
0.51,5800
0.51,5801
0.53,5802
0.52,5803
0.52,5804
0.52,5805
0.52,5806
0.52,5807
0.52,5808
0.53,5809
0.52,5810
0.52,5811
0.53,5812
0.52,5813
0.51,5814
0.52,5815
0.52,5816
0.52,5817
0.51,5818
0.51,5819
0.52,5820
0.52,5821
0.51,5822
0.51,5823
0.51,5824
0.51,5825
0.51,5826
0.51,5827
0.51,5828
0.51,5829
0.52,5830
0.52,5831
0.52,5832
0.52,5833
0.53,5834
0.53,5835
0.54,5836
0.54,5837
0.54,5838
0.54,5839
0.55,5840
0.56,5841
0.56,5842
0.55,5843
0.55,5844
0.55,5845
0.56,5846
0.57,5847
0.57,5848
0.56,5849
0.56,5850
0.56,5851
0.57,5852
0.57,5853
0.57,5854
0.57,5855
0.58,5856
0.56,5857
0.57,5858
0.57,5859
0.57,5860
0.57,5861
0.57,5862
0.58,5863
0.57,5864
0.57,5865
0.57,5866
0.58,5867
0.58,5868
0.57,5869
0.57,5870
0.57,5871
0.57,5872
0.57,5873
0.57,5874
0.57,5875
0.57,5876
0.57,5877
0.57,5878
0.57,5879
0.57,5880
0.56,5881
0.56,5882
0.57,5883
0.57,5884
0.58,5885
0.58,5886
0.57,5887
0.57,5888
0.56,5889
0.57,5890
0.56,5891
0.56,5892
0.56,5893
0.57,5894
0.56,5895
0.56,5896
0.56,5897
0.57,5898
0.56,5899
0.55,5900
0.54,5901
0.55,5902
0.55,5903
0.56,5904
0.55,5905
0.54,5906
0.56,5907
0.55,5908
0.56,5909
0.55,5910
0.54,5911
0.55,5912
0.56,5913
0.55,5914
0.56,5915
0.54,5916
0.54,5917
0.55,5918
0.56,5919
0.56,5920
0.55,5921
0.54,5922
0.54,5923
0.54,5924
0.56,5925
0.54,5926
0.53,5927
0.52,5928
0.53,5929
0.52,5930
0.54,5931
0.52,5932
0.52,5933
0.54,5934
0.54,5935
0.54,5936
0.55,5937
0.56,5938
0.55,5939
0.54,5940
0.55,5941
0.55,5942
0.56,5943
0.55,5944
0.54,5945
0.55,5946
0.55,5947
0.55,5948
0.55,5949
0.55,5950
0.56,5951
0.56,5952
0.57,5953
0.56,5954
0.56,5955
0.56,5956
0.55,5957
0.54,5958
0.54,5959
0.56,5960
0.55,5961
0.54,5962
0.54,5963
0.54,5964
0.54,5965
0.53,5966
0.52,5967
0.51,5968
0.51,5969
0.52,5970
0.51,5971
0.5,5972
0.51,5973
0.5,5974
0.5,5975
0.5,5976
0.49,5977
0.49,5978
0.49,5979
0.49,5980
0.5,5981
0.49,5982
0.49,5983
0.49,5984
0.49,5985
0.5,5986
0.5,5987
0.5,5988
0.5,5989
0.5,5990
0.5,5991
0.5,5992
0.5,5993
0.5,5994
0.5,5995
0.5,5996
0.51,5997
0.5,5998
0.5,5999
0.5,6000
0.5,6001
0.51,6002
0.51,6003
0.52,6004
0.52,6005
0.52,6006
0.52,6007
0.52,6008
0.51,6009
0.51,6010
0.5,6011
0.5,6012
0.5,6013
0.5,6014
0.51,6015
0.51,6016
0.51,6017
0.5,6018
0.52,6019
0.52,6020
0.52,6021
0.52,6022
0.52,6023
0.52,6024
0.53,6025
0.53,6026
0.53,6027
0.54,6028
0.54,6029
0.54,6030
0.55,6031
0.55,6032
0.55,6033
0.55,6034
0.56,6035
0.55,6036
0.54,6037
0.54,6038
0.55,6039
0.55,6040
0.54,6041
0.55,6042
0.54,6043
0.55,6044
0.55,6045
0.54,6046
0.53,6047
0.53,6048
0.54,6049
0.55,6050
0.54,6051
0.53,6052
0.52,6053
0.52,6054
0.53,6055
0.53,6056
0.53,6057
0.54,6058
0.55,6059
0.56,6060
0.57,6061
0.57,6062
0.58,6063
0.59,6064
0.6,6065
0.61,6066
0.6,6067
0.59,6068
0.59,6069
0.59,6070
0.6,6071
0.61,6072
0.61,6073
0.61,6074
0.62,6075
0.61,6076
0.6,6077
0.61,6078
0.62,6079
0.61,6080
0.6,6081
0.61,6082
0.61,6083
0.6,6084
0.6,6085
0.6,6086
0.6,6087
0.61,6088
0.6,6089
0.6,6090
0.6,6091
0.6,6092
0.61,6093
0.61,6094
0.6,6095
0.61,6096
0.61,6097
0.61,6098
0.61,6099
0.61,6100
0.6,6101
0.6,6102
0.6,6103
0.6,6104
0.61,6105
0.61,6106
0.61,6107
0.61,6108
0.62,6109
0.62,6110
0.62,6111
0.62,6112
0.61,6113
0.62,6114
0.62,6115
0.62,6116
0.62,6117
0.62,6118
0.62,6119
0.62,6120
0.62,6121
0.62,6122
0.62,6123
0.62,6124
0.63,6125
0.62,6126
0.62,6127
0.61,6128
0.62,6129
0.62,6130
0.62,6131
0.61,6132
0.61,6133
0.61,6134
0.62,6135
0.62,6136
0.62,6137
0.62,6138
0.61,6139
0.62,6140
0.62,6141
0.62,6142
0.62,6143
0.61,6144
0.61,6145
0.62,6146
0.62,6147
0.62,6148
0.62,6149
0.61,6150
0.62,6151
0.63,6152
0.64,6153
0.63,6154
0.62,6155
0.62,6156
0.62,6157
0.62,6158
0.62,6159
0.62,6160
0.62,6161
0.62,6162
0.61,6163
0.61,6164
0.61,6165
0.6,6166
0.6,6167
0.61,6168
0.61,6169
0.6,6170
0.6,6171
0.6,6172
0.6,6173
0.61,6174
0.6,6175
0.6,6176
0.6,6177
0.6,6178
0.6,6179
0.6,6180
0.6,6181
0.6,6182
0.6,6183
0.6,6184
0.61,6185
0.61,6186
0.61,6187
0.61,6188
0.62,6189
0.62,6190
0.62,6191
0.61,6192
0.6,6193
0.6,6194
0.61,6195
0.6,6196
0.6,6197
0.6,6198
0.6,6199
0.6,6200
0.61,6201
0.6,6202
0.6,6203
0.6,6204
0.61,6205
0.61,6206
0.6,6207
0.6,6208
0.59,6209
0.59,6210
0.59,6211
0.59,6212
0.59,6213
0.59,6214
0.58,6215
0.57,6216
0.57,6217
0.57,6218
0.56,6219
0.55,6220
0.56,6221
0.56,6222
0.56,6223
0.55,6224
0.55,6225
0.56,6226
0.56,6227
0.56,6228
0.56,6229
0.56,6230
0.55,6231
0.55,6232
0.55,6233
0.55,6234
0.54,6235
0.53,6236
0.52,6237
0.52,6238
0.52,6239
0.51,6240
0.52,6241
0.51,6242
0.51,6243
0.51,6244
0.52,6245
0.52,6246
0.52,6247
0.52,6248
0.52,6249
0.52,6250
0.52,6251
0.51,6252
0.51,6253
0.51,6254
0.52,6255
0.52,6256
0.52,6257
0.52,6258
0.51,6259
0.52,6260
0.51,6261
0.51,6262
0.51,6263
0.51,6264
0.51,6265
0.52,6266
0.51,6267
0.52,6268
0.52,6269
0.52,6270
0.53,6271
0.52,6272
0.52,6273
0.52,6274
0.53,6275
0.54,6276
0.53,6277
0.52,6278
0.51,6279
0.52,6280
0.53,6281
0.52,6282
0.52,6283
0.51,6284
0.51,6285
0.5,6286
0.5,6287
0.5,6288
0.49,6289
0.49,6290
0.49,6291
0.49,6292
0.48,6293
0.47,6294
0.46,6295
0.46,6296
0.46,6297
0.46,6298
0.45,6299
0.46,6300
0.46,6301
0.46,6302
0.45,6303
0.46,6304
0.45,6305
0.45,6306
0.45,6307
0.46,6308
0.46,6309
0.46,6310
0.45,6311
0.45,6312
0.46,6313
0.45,6314
0.46,6315
0.46,6316
0.46,6317
0.47,6318
0.47,6319
0.47,6320
0.47,6321
0.47,6322
0.48,6323
0.48,6324
0.47,6325
0.46,6326
0.47,6327
0.47,6328
0.47,6329
0.48,6330
0.48,6331
0.49,6332
0.49,6333
0.49,6334
0.49,6335
0.49,6336
0.5,6337
0.51,6338
0.51,6339
0.51,6340
0.51,6341
0.51,6342
0.51,6343
0.51,6344
0.52,6345
0.52,6346
0.51,6347
0.5,6348
0.5,6349
0.51,6350
0.51,6351
0.5,6352
0.49,6353
0.49,6354
0.49,6355
0.5,6356
0.49,6357
0.49,6358
0.5,6359
0.5,6360
0.49,6361
0.49,6362
0.51,6363
0.5,6364
0.5,6365
0.5,6366
0.5,6367
0.5,6368
0.49,6369
0.49,6370
0.49,6371
0.5,6372
0.49,6373
0.49,6374
0.49,6375
0.51,6376
0.5,6377
0.5,6378
0.5,6379
0.5,6380
0.49,6381
0.5,6382
0.51,6383
0.51,6384
0.51,6385
0.52,6386
0.52,6387
0.52,6388
0.53,6389
0.52,6390
0.52,6391
0.52,6392
0.52,6393
0.53,6394
0.53,6395
0.53,6396
0.53,6397
0.53,6398
0.53,6399
0.53,6400
0.53,6401
0.53,6402
0.52,6403
0.52,6404
0.53,6405
0.53,6406
0.52,6407
0.53,6408
0.53,6409
0.53,6410
0.54,6411
0.54,6412
0.54,6413
0.54,6414
0.54,6415
0.55,6416
0.55,6417
0.54,6418
0.54,6419
0.55,6420
0.55,6421
0.54,6422
0.54,6423
0.54,6424
0.55,6425
0.55,6426
0.55,6427
0.55,6428
0.55,6429
0.54,6430
0.55,6431
0.54,6432
0.54,6433
0.54,6434
0.54,6435
0.54,6436
0.54,6437
0.54,6438
0.54,6439
0.54,6440
0.54,6441
0.55,6442
0.55,6443
0.55,6444
0.55,6445
0.55,6446
0.55,6447
0.56,6448
0.55,6449
0.55,6450
0.55,6451
0.55,6452
0.54,6453
0.54,6454
0.55,6455
0.55,6456
0.56,6457
0.55,6458
0.52,6459
0.53,6460
0.56,6461
0.53,6462
0.51,6463
0.51,6464
0.53,6465
0.57,6466
0.56,6467
0.56,6468
0.56,6469
0.55,6470
0.55,6471
0.55,6472
0.54,6473
0.54,6474
0.54,6475
0.53,6476
0.53,6477
0.53,6478
0.53,6479
0.52,6480
0.54,6481
0.53,6482
0.53,6483
0.54,6484
0.5,6485
0.5,6486
0.53,6487
0.52,6488
0.53,6489
0.53,6490
0.5,6491
0.5,6492
0.52,6493
0.52,6494
0.5,6495
0.5,6496
0.5,6497
0.54,6498
0.54,6499
0.55,6500
0.54,6501
0.53,6502
0.55,6503
0.56,6504
0.56,6505
0.56,6506
0.56,6507
0.55,6508
0.56,6509
0.57,6510
0.56,6511
0.56,6512
0.56,6513
0.56,6514
0.55,6515
0.55,6516
0.56,6517
0.56,6518
0.55,6519
0.54,6520
0.54,6521
0.55,6522
0.56,6523
0.55,6524
0.55,6525
0.54,6526
0.54,6527
0.55,6528
0.55,6529
0.55,6530
0.54,6531
0.54,6532
0.55,6533
0.55,6534
0.54,6535
0.55,6536
0.54,6537
0.54,6538
0.54,6539
0.53,6540
0.54,6541
0.54,6542
0.54,6543
0.55,6544
0.54,6545
0.54,6546
0.54,6547
0.54,6548
0.54,6549
0.55,6550
0.54,6551
0.54,6552
0.54,6553
0.54,6554
0.55,6555
0.54,6556
0.53,6557
0.54,6558
0.54,6559
0.54,6560
0.54,6561
0.54,6562
0.54,6563
0.53,6564
0.54,6565
0.55,6566
0.55,6567
0.56,6568
0.56,6569
0.57,6570
0.58,6571
0.58,6572
0.58,6573
0.57,6574
0.56,6575
0.56,6576
0.56,6577
0.56,6578
0.55,6579
0.54,6580
0.54,6581
0.55,6582
0.54,6583
0.54,6584
0.55,6585
0.55,6586
0.56,6587
0.56,6588
0.55,6589
0.54,6590
0.54,6591
0.55,6592
0.55,6593
0.54,6594
0.54,6595
0.54,6596
0.55,6597
0.56,6598
0.55,6599
0.55,6600
0.55,6601
0.55,6602
0.56,6603
0.56,6604
0.57,6605
0.57,6606
0.57,6607
0.58,6608
0.57,6609
0.57,6610
0.58,6611
0.57,6612
0.56,6613
0.57,6614
0.57,6615
0.58,6616
0.58,6617
0.58,6618
0.58,6619
0.58,6620
0.58,6621
0.57,6622
0.58,6623
0.57,6624
0.57,6625
0.57,6626
0.57,6627
0.56,6628
0.56,6629
0.56,6630
0.56,6631
0.56,6632
0.57,6633
0.56,6634
0.57,6635
0.56,6636
0.56,6637
0.56,6638
0.56,6639
0.56,6640
0.56,6641
0.55,6642
0.55,6643
0.56,6644
0.56,6645
0.54,6646
0.56,6647
0.55,6648
0.56,6649
0.55,6650
0.54,6651
0.54,6652
0.54,6653
0.53,6654
0.52,6655
0.52,6656
0.53,6657
0.53,6658
0.53,6659
0.53,6660
0.54,6661
0.55,6662
0.54,6663
0.53,6664
0.53,6665
0.53,6666
0.54,6667
0.54,6668
0.53,6669
0.53,6670
0.53,6671
0.54,6672
0.55,6673
0.55,6674
0.55,6675
0.55,6676
0.55,6677
0.55,6678
0.55,6679
0.55,6680
0.55,6681
0.55,6682
0.52,6683
0.51,6684
0.54,6685
0.54,6686
0.55,6687
0.55,6688
0.55,6689
0.55,6690
0.55,6691
0.55,6692
0.56,6693
0.53,6694
0.56,6695
0.56,6696
0.57,6697
0.56,6698
0.54,6699
0.56,6700
0.55,6701
0.55,6702
0.56,6703
0.56,6704
0.55,6705
0.55,6706
0.55,6707
0.55,6708
0.55,6709
0.56,6710
0.55,6711
0.55,6712
0.54,6713
0.53,6714
0.54,6715
0.54,6716
0.53,6717
0.52,6718
0.52,6719
0.52,6720
0.53,6721
0.53,6722
0.52,6723
0.51,6724
0.52,6725
0.53,6726
0.53,6727
0.53,6728
0.53,6729
0.54,6730
0.55,6731
0.55,6732
0.55,6733
0.54,6734
0.53,6735
0.54,6736
0.55,6737
0.55,6738
0.56,6739
0.56,6740
0.56,6741
0.56,6742
0.57,6743
0.58,6744
0.58,6745
0.57,6746
0.58,6747
0.59,6748
0.6,6749
0.6,6750
0.6,6751
0.59,6752
0.6,6753
0.6,6754
0.6,6755
0.6,6756
0.59,6757
0.59,6758
0.6,6759
0.6,6760
0.59,6761
0.59,6762
0.59,6763
0.59,6764
0.59,6765
0.6,6766
0.59,6767
0.59,6768
0.6,6769
0.6,6770
0.6,6771
0.59,6772
0.58,6773
0.58,6774
0.58,6775
0.57,6776
0.56,6777
0.56,6778
0.57,6779
0.58,6780
0.58,6781
0.57,6782
0.56,6783
0.57,6784
0.57,6785
0.57,6786
0.57,6787
0.56,6788
0.56,6789
0.57,6790
0.57,6791
0.57,6792
0.56,6793
0.55,6794
0.55,6795
0.55,6796
0.55,6797
0.55,6798
0.56,6799
0.55,6800
0.55,6801
0.56,6802
0.56,6803
0.55,6804
0.56,6805
0.57,6806
0.57,6807
0.56,6808
0.56,6809
0.56,6810
0.57,6811
0.56,6812
0.57,6813
0.57,6814
0.58,6815
0.57,6816
0.58,6817
0.59,6818
0.59,6819
0.59,6820
0.59,6821
0.59,6822
0.6,6823
0.6,6824
0.6,6825
0.6,6826
0.6,6827
0.6,6828
0.59,6829
0.59,6830
0.59,6831
0.59,6832
0.59,6833
0.59,6834
0.59,6835
0.59,6836
0.59,6837
0.57,6838
0.59,6839
0.57,6840
0.57,6841
0.57,6842
0.57,6843
0.57,6844
0.56,6845
0.57,6846
0.57,6847
0.56,6848
0.56,6849
0.56,6850
0.56,6851
0.57,6852
0.57,6853
0.57,6854
0.57,6855
0.57,6856
0.58,6857
0.58,6858
0.57,6859
0.57,6860
0.57,6861
0.58,6862
0.58,6863
0.58,6864
0.58,6865
0.57,6866
0.57,6867
0.57,6868
0.57,6869
0.57,6870
0.57,6871
0.56,6872
0.57,6873
0.57,6874
0.57,6875
0.57,6876
0.55,6877
0.55,6878
0.57,6879
0.58,6880
0.58,6881
0.58,6882
0.58,6883
0.58,6884
0.59,6885
0.59,6886
0.59,6887
0.58,6888
0.58,6889
0.57,6890
0.57,6891
0.58,6892
0.58,6893
0.57,6894
0.58,6895
0.58,6896
0.58,6897
0.56,6898
0.58,6899
0.58,6900
0.57,6901
0.57,6902
0.58,6903
0.56,6904
0.57,6905
0.56,6906
0.55,6907
0.56,6908
0.54,6909
0.54,6910
0.54,6911
0.54,6912
0.54,6913
0.54,6914
0.54,6915
0.54,6916
0.54,6917
0.54,6918
0.53,6919
0.52,6920
0.55,6921
0.55,6922
0.55,6923
0.56,6924
0.56,6925
0.56,6926
0.55,6927
0.54,6928
0.55,6929
0.55,6930
0.55,6931
0.55,6932
0.54,6933
0.54,6934
0.54,6935
0.55,6936
0.55,6937
0.54,6938
0.54,6939
0.54,6940
0.54,6941
0.54,6942
0.53,6943
0.52,6944
0.52,6945
0.52,6946
0.51,6947
0.52,6948
0.51,6949
0.52,6950
0.53,6951
0.54,6952
0.53,6953
0.53,6954
0.53,6955
0.54,6956
0.54,6957
0.54,6958
0.54,6959
0.54,6960
0.55,6961
0.55,6962
0.55,6963
0.54,6964
0.54,6965
0.54,6966
0.54,6967
0.54,6968
0.53,6969
0.53,6970
0.53,6971
0.54,6972
0.54,6973
0.53,6974
0.52,6975
0.52,6976
0.52,6977
0.52,6978
0.51,6979
0.51,6980
0.51,6981
0.52,6982
0.52,6983
0.52,6984
0.51,6985
0.51,6986
0.5,6987
0.5,6988
0.5,6989
0.5,6990
0.51,6991
0.5,6992
0.5,6993
0.5,6994
0.49,6995
0.5,6996
0.5,6997
0.5,6998
0.51,6999
0.51,7000
0.51,7001
0.51,7002
0.5,7003
0.5,7004
0.5,7005
0.5,7006
0.51,7007
0.51,7008
0.51,7009
0.51,7010
0.51,7011
0.51,7012
0.52,7013
0.52,7014
0.52,7015
0.53,7016
0.53,7017
0.53,7018
0.53,7019
0.53,7020
0.53,7021
0.53,7022
0.53,7023
0.52,7024
0.52,7025
0.52,7026
0.52,7027
0.51,7028
0.51,7029
0.51,7030
0.51,7031
0.52,7032
0.52,7033
0.52,7034
0.52,7035
0.52,7036
0.52,7037
0.53,7038
0.53,7039
0.53,7040
0.52,7041
0.52,7042
0.52,7043
0.52,7044
0.52,7045
0.53,7046
0.52,7047
0.52,7048
0.52,7049
0.52,7050
0.52,7051
0.52,7052
0.53,7053
0.53,7054
0.53,7055
0.53,7056
0.53,7057
0.53,7058
0.53,7059
0.52,7060
0.52,7061
0.52,7062
0.52,7063
0.52,7064
0.5,7065
0.5,7066
0.48,7067
0.48,7068
0.49,7069
0.47,7070
0.47,7071
0.46,7072
0.47,7073
0.45,7074
0.45,7075
0.44,7076
0.44,7077
0.43,7078
0.44,7079
0.43,7080
0.43,7081
0.42,7082
0.42,7083
0.42,7084
0.42,7085
0.42,7086
0.43,7087
0.44,7088
0.42,7089
0.42,7090
0.43,7091
0.44,7092
0.45,7093
0.46,7094
0.47,7095
0.46,7096
0.47,7097
0.47,7098
0.46,7099
0.46,7100
0.46,7101
0.46,7102
0.47,7103
0.48,7104
0.49,7105
0.49,7106
0.5,7107
0.5,7108
0.51,7109
0.51,7110
0.51,7111
0.51,7112
0.52,7113
0.52,7114
0.53,7115
0.52,7116
0.52,7117
0.53,7118
0.53,7119
0.54,7120
0.54,7121
0.55,7122
0.56,7123
0.56,7124
0.57,7125
0.58,7126
0.57,7127
0.57,7128
0.56,7129
0.57,7130
0.58,7131
0.57,7132
0.56,7133
0.56,7134
0.57,7135
0.57,7136
0.56,7137
0.56,7138
0.57,7139
0.58,7140
0.59,7141
0.6,7142
0.61,7143
0.6,7144
0.59,7145
0.58,7146
0.59,7147
0.58,7148
0.59,7149
0.6,7150
0.6,7151
0.61,7152
0.62,7153
0.63,7154
0.64,7155
0.65,7156
0.66,7157
0.66,7158
0.66,7159
0.65,7160
0.65,7161
0.65,7162
0.66,7163
0.66,7164
0.66,7165
0.66,7166
0.66,7167
0.66,7168
0.67,7169
0.68,7170
0.68,7171
0.67,7172
0.67,7173
0.68,7174
0.68,7175
0.67,7176
0.66,7177
0.65,7178
0.64,7179
0.64,7180
0.64,7181
0.63,7182
0.62,7183
0.61,7184
0.61,7185
0.6,7186
0.6,7187
0.59,7188
0.59,7189
0.58,7190
0.58,7191
0.58,7192
0.57,7193
0.56,7194
0.59,7195
0.59,7196
0.6,7197
0.6,7198
0.6,7199
0.58,7200
0.58,7201
0.59,7202
0.6,7203
0.61,7204
0.61,7205
0.62,7206
0.63,7207
0.64,7208
0.65,7209
0.65,7210
0.66,7211
0.67,7212
0.67,7213
0.68,7214
0.69,7215
0.69,7216
0.69,7217
0.69,7218
0.69,7219
0.69,7220
0.69,7221
0.69,7222
0.69,7223
0.69,7224
0.7,7225
0.7,7226
0.7,7227
0.69,7228
0.69,7229
0.68,7230
0.67,7231
0.66,7232
0.66,7233
0.65,7234
0.65,7235
0.65,7236
0.65,7237
0.64,7238
0.64,7239
0.63,7240
0.62,7241
0.61,7242
0.61,7243
0.62,7244
0.63,7245
0.64,7246
0.64,7247
0.65,7248
0.65,7249
0.65,7250
0.65,7251
0.65,7252
0.65,7253
0.65,7254
0.64,7255
0.63,7256
0.62,7257
0.62,7258
0.62,7259
0.62,7260
0.62,7261
0.62,7262
0.62,7263
0.62,7264
0.62,7265
0.62,7266
0.62,7267
0.62,7268
0.62,7269
0.62,7270
0.62,7271
0.61,7272
0.64,7273
0.64,7274
0.64,7275
0.61,7276
0.59,7277
0.59,7278
0.59,7279
0.59,7280
0.59,7281
0.61,7282
0.61,7283
0.62,7284
0.61,7285
0.62,7286
0.61,7287
0.6,7288
0.61,7289
0.62,7290
0.61,7291
0.62,7292
0.63,7293
0.63,7294
0.61,7295
0.61,7296
0.62,7297
0.61,7298
0.6,7299
0.59,7300
0.6,7301
0.61,7302
0.61,7303
0.61,7304
0.61,7305
0.61,7306
0.61,7307
0.61,7308
0.61,7309
0.6,7310
0.59,7311
0.59,7312
0.62,7313
0.62,7314
0.61,7315
0.61,7316
0.61,7317
0.61,7318
0.61,7319
0.61,7320
0.61,7321
0.61,7322
0.61,7323
0.61,7324
0.61,7325
0.61,7326
0.61,7327
0.62,7328
0.62,7329
0.61,7330
0.62,7331
0.63,7332
0.62,7333
0.64,7334
0.64,7335
0.63,7336
0.63,7337
0.64,7338
0.64,7339
0.64,7340
0.65,7341
0.65,7342
0.65,7343
0.65,7344
0.65,7345
0.64,7346
0.63,7347
0.62,7348
0.61,7349
0.61,7350
0.6,7351
0.59,7352
0.59,7353
0.59,7354
0.59,7355
0.61,7356
0.6,7357
0.59,7358
0.58,7359
0.57,7360
0.56,7361
0.56,7362
0.58,7363
0.58,7364
0.58,7365
0.58,7366
0.58,7367
0.58,7368
0.57,7369
0.56,7370
0.57,7371
0.56,7372
0.56,7373
0.57,7374
0.58,7375
0.57,7376
0.57,7377
0.58,7378
0.59,7379
0.59,7380
0.59,7381
0.6,7382
0.61,7383
0.6,7384
0.6,7385
0.59,7386
0.59,7387
0.59,7388
0.58,7389
0.58,7390
0.56,7391
0.56,7392
0.56,7393
0.57,7394
0.57,7395
0.57,7396
0.57,7397
0.57,7398
0.58,7399
0.59,7400
0.58,7401
0.58,7402
0.58,7403
0.6,7404
0.6,7405
0.59,7406
0.59,7407
0.6,7408
0.6,7409
0.59,7410
0.59,7411
0.58,7412
0.58,7413
0.58,7414
0.58,7415
0.58,7416
0.58,7417
0.58,7418
0.58,7419
0.59,7420
0.58,7421
0.58,7422
0.58,7423
0.58,7424
0.58,7425
0.59,7426
0.58,7427
0.59,7428
0.59,7429
0.59,7430
0.59,7431
0.59,7432
0.6,7433
0.59,7434
0.59,7435
0.59,7436
0.59,7437
0.59,7438
0.6,7439
0.6,7440
0.62,7441
0.61,7442
0.6,7443
0.6,7444
0.6,7445
0.6,7446
0.6,7447
0.6,7448
0.59,7449
0.59,7450
0.59,7451
0.59,7452
0.58,7453
0.57,7454
0.57,7455
0.58,7456
0.58,7457
0.58,7458
0.58,7459
0.59,7460
0.6,7461
0.59,7462
0.59,7463
0.59,7464
0.59,7465
0.59,7466
0.58,7467
0.58,7468
0.57,7469
0.56,7470
0.55,7471
0.54,7472
0.53,7473
0.55,7474
0.56,7475
0.57,7476
0.58,7477
0.58,7478
0.58,7479
0.58,7480
0.58,7481
0.58,7482
0.57,7483
0.56,7484
0.55,7485
0.55,7486
0.57,7487
0.56,7488
0.55,7489
0.54,7490
0.54,7491
0.54,7492
0.54,7493
0.53,7494
0.53,7495
0.52,7496
0.51,7497
0.52,7498
0.52,7499
0.52,7500
0.52,7501
0.52,7502
0.52,7503
0.51,7504
0.51,7505
0.5,7506
0.5,7507
0.5,7508
0.5,7509
0.5,7510
0.49,7511
0.49,7512
0.49,7513
0.49,7514
0.49,7515
0.48,7516
0.49,7517
0.5,7518
0.5,7519
0.51,7520
0.5,7521
0.5,7522
0.52,7523
0.53,7524
0.53,7525
0.52,7526
0.52,7527
0.52,7528
0.52,7529
0.52,7530
0.52,7531
0.52,7532
0.52,7533
0.54,7534
0.54,7535
0.53,7536
0.53,7537
0.54,7538
0.53,7539
0.54,7540
0.54,7541
0.54,7542
0.54,7543
0.54,7544
0.54,7545
0.54,7546
0.54,7547
0.54,7548
0.53,7549
0.53,7550
0.52,7551
0.53,7552
0.54,7553
0.53,7554
0.52,7555
0.52,7556
0.52,7557
0.53,7558
0.52,7559
0.52,7560
0.52,7561
0.52,7562
0.52,7563
0.52,7564
0.53,7565
0.53,7566
0.53,7567
0.54,7568
0.55,7569
0.55,7570
0.55,7571
0.55,7572
0.55,7573
0.56,7574
0.56,7575
0.55,7576
0.55,7577
0.56,7578
0.55,7579
0.57,7580
0.56,7581
0.55,7582
0.55,7583
0.55,7584
0.55,7585
0.55,7586
0.55,7587
0.56,7588
0.57,7589
0.56,7590
0.55,7591
0.56,7592
0.56,7593
0.55,7594
0.56,7595
0.56,7596
0.56,7597
0.56,7598
0.55,7599
0.56,7600
0.56,7601
0.56,7602
0.57,7603
0.57,7604
0.57,7605
0.57,7606
0.57,7607
0.56,7608
0.57,7609
0.57,7610
0.56,7611
0.56,7612
0.57,7613
0.56,7614
0.55,7615
0.56,7616
0.55,7617
0.56,7618
0.55,7619
0.54,7620
0.55,7621
0.54,7622
0.54,7623
0.55,7624
0.55,7625
0.54,7626
0.54,7627
0.55,7628
0.55,7629
0.54,7630
0.54,7631
0.54,7632
0.55,7633
0.54,7634
0.53,7635
0.53,7636
0.53,7637
0.54,7638
0.55,7639
0.54,7640
0.53,7641
0.53,7642
0.54,7643
0.53,7644
0.54,7645
0.53,7646
0.53,7647
0.53,7648
0.53,7649
0.53,7650
0.53,7651
0.52,7652
0.52,7653
0.53,7654
0.53,7655
0.54,7656
0.54,7657
0.53,7658
0.52,7659
0.52,7660
0.52,7661
0.51,7662
0.51,7663
0.52,7664
0.52,7665
0.51,7666
0.51,7667
0.5,7668
0.49,7669
0.5,7670
0.5,7671
0.51,7672
0.5,7673
0.49,7674
0.49,7675
0.5,7676
0.5,7677
0.49,7678
0.48,7679
0.48,7680
0.49,7681
0.5,7682
0.5,7683
0.5,7684
0.5,7685
0.49,7686
0.5,7687
0.5,7688
0.51,7689
0.5,7690
0.51,7691
0.5,7692
0.5,7693
0.52,7694
0.51,7695
0.5,7696
0.49,7697
0.49,7698
0.5,7699
0.49,7700
0.49,7701
0.5,7702
0.5,7703
0.49,7704
0.49,7705
0.49,7706
0.49,7707
0.49,7708
0.48,7709
0.48,7710
0.49,7711
0.49,7712
0.49,7713
0.49,7714
0.5,7715
0.5,7716
0.5,7717
0.5,7718
0.5,7719
0.5,7720
0.5,7721
0.51,7722
0.52,7723
0.51,7724
0.52,7725
0.53,7726
0.53,7727
0.53,7728
0.52,7729
0.53,7730
0.53,7731
0.53,7732
0.54,7733
0.54,7734
0.53,7735
0.54,7736
0.53,7737
0.53,7738
0.54,7739
0.54,7740
0.54,7741
0.54,7742
0.54,7743
0.54,7744
0.53,7745
0.53,7746
0.52,7747
0.52,7748
0.52,7749
0.53,7750
0.53,7751
0.53,7752
0.53,7753
0.53,7754
0.52,7755
0.52,7756
0.52,7757
0.53,7758
0.53,7759
0.53,7760
0.54,7761
0.55,7762
0.55,7763
0.54,7764
0.53,7765
0.54,7766
0.55,7767
0.56,7768
0.57,7769
0.56,7770
0.55,7771
0.56,7772
0.57,7773
0.58,7774
0.58,7775
0.57,7776
0.56,7777
0.57,7778
0.58,7779
0.57,7780
0.56,7781
0.55,7782
0.55,7783
0.56,7784
0.55,7785
0.54,7786
0.53,7787
0.52,7788
0.53,7789
0.54,7790
0.53,7791
0.52,7792
0.52,7793
0.53,7794
0.54,7795
0.54,7796
0.53,7797
0.53,7798
0.52,7799
0.52,7800
0.52,7801
0.52,7802
0.52,7803
0.52,7804
0.52,7805
0.53,7806
0.53,7807
0.53,7808
0.52,7809
0.52,7810
0.52,7811
0.51,7812
0.52,7813
0.51,7814
0.51,7815
0.51,7816
0.5,7817
0.49,7818
0.49,7819
0.49,7820
0.5,7821
0.5,7822
0.5,7823
0.5,7824
0.5,7825
0.5,7826
0.5,7827
0.51,7828
0.51,7829
0.51,7830
0.51,7831
0.51,7832
0.52,7833
0.52,7834
0.51,7835
0.52,7836
0.52,7837
0.52,7838
0.52,7839
0.51,7840
0.52,7841
0.52,7842
0.52,7843
0.53,7844
0.53,7845
0.53,7846
0.53,7847
0.54,7848
0.54,7849
0.54,7850
0.53,7851
0.53,7852
0.54,7853
0.54,7854
0.55,7855
0.55,7856
0.55,7857
0.54,7858
0.54,7859
0.53,7860
0.52,7861
0.52,7862
0.52,7863
0.52,7864
0.53,7865
0.52,7866
0.54,7867
0.56,7868
0.56,7869
0.55,7870
0.55,7871
0.55,7872
0.57,7873
0.56,7874
0.56,7875
0.56,7876
0.55,7877
0.54,7878
0.54,7879
0.54,7880
0.53,7881
0.52,7882
0.52,7883
0.52,7884
0.52,7885
0.52,7886
0.53,7887
0.52,7888
0.52,7889
0.53,7890
0.52,7891
0.52,7892
0.52,7893
0.52,7894
0.54,7895
0.53,7896
0.53,7897
0.53,7898
0.54,7899
0.53,7900
0.53,7901
0.53,7902
0.53,7903
0.53,7904
0.53,7905
0.53,7906
0.53,7907
0.54,7908
0.54,7909
0.54,7910
0.54,7911
0.54,7912
0.54,7913
0.54,7914
0.54,7915
0.53,7916
0.52,7917
0.52,7918
0.52,7919
0.51,7920
0.51,7921
0.51,7922
0.51,7923
0.51,7924
0.51,7925
0.51,7926
0.51,7927
0.51,7928
0.52,7929
0.51,7930
0.51,7931
0.51,7932
0.51,7933
0.52,7934
0.51,7935
0.51,7936
0.51,7937
0.51,7938
0.51,7939
0.52,7940
0.52,7941
0.52,7942
0.51,7943
0.51,7944
0.5,7945
0.5,7946
0.51,7947
0.51,7948
0.5,7949
0.5,7950
0.51,7951
0.5,7952
0.5,7953
0.5,7954
0.5,7955
0.51,7956
0.5,7957
0.5,7958
0.5,7959
0.51,7960
0.52,7961
0.52,7962
0.52,7963
0.52,7964
0.52,7965
0.52,7966
0.52,7967
0.51,7968
0.51,7969
0.5,7970
0.5,7971
0.5,7972
0.5,7973
0.5,7974
0.51,7975
0.5,7976
0.5,7977
0.49,7978
0.51,7979
0.52,7980
0.52,7981
0.5,7982
0.51,7983
0.5,7984
0.51,7985
0.51,7986
0.5,7987
0.51,7988
0.5,7989
0.49,7990
0.49,7991
0.49,7992
0.5,7993
0.5,7994
0.49,7995
0.5,7996
0.51,7997
0.5,7998
0.49,7999
0.49,8000
0.49,8001
0.5,8002
0.51,8003
0.51,8004
0.51,8005
0.5,8006
0.5,8007
0.5,8008
0.51,8009
0.51,8010
0.51,8011
0.5,8012
0.5,8013
0.5,8014
0.51,8015
0.51,8016
0.52,8017
0.52,8018
0.52,8019
0.52,8020
0.52,8021
0.52,8022
0.51,8023
0.51,8024
0.51,8025
0.51,8026
0.51,8027
0.5,8028
0.5,8029
0.49,8030
0.5,8031
0.5,8032
0.49,8033
0.5,8034
0.5,8035
0.49,8036
0.5,8037
0.5,8038
0.51,8039
0.5,8040
0.51,8041
0.5,8042
0.51,8043
0.5,8044
0.51,8045
0.51,8046
0.52,8047
0.52,8048
0.52,8049
0.53,8050
0.53,8051
0.52,8052
0.51,8053
0.53,8054
0.52,8055
0.52,8056
0.52,8057
0.53,8058
0.52,8059
0.52,8060
0.51,8061
0.51,8062
0.52,8063
0.52,8064
0.51,8065
0.51,8066
0.51,8067
0.52,8068
0.52,8069
0.53,8070
0.53,8071
0.53,8072
0.53,8073
0.53,8074
0.51,8075
0.54,8076
0.54,8077
0.53,8078
0.54,8079
0.54,8080
0.54,8081
0.54,8082
0.53,8083
0.54,8084
0.55,8085
0.54,8086
0.54,8087
0.54,8088
0.54,8089
0.55,8090
0.54,8091
0.53,8092
0.52,8093
0.52,8094
0.52,8095
0.52,8096
0.52,8097
0.51,8098
0.54,8099
0.52,8100
0.53,8101
0.53,8102
0.56,8103
0.56,8104
0.55,8105
0.54,8106
0.54,8107
0.53,8108
0.53,8109
0.54,8110
0.53,8111
0.54,8112
0.54,8113
0.53,8114
0.52,8115
0.53,8116
0.54,8117
0.54,8118
0.53,8119
0.52,8120
0.52,8121
0.52,8122
0.53,8123
0.54,8124
0.53,8125
0.53,8126
0.54,8127
0.55,8128
0.55,8129
0.54,8130
0.55,8131
0.55,8132
0.55,8133
0.56,8134
0.55,8135
0.54,8136
0.54,8137
0.55,8138
0.55,8139
0.55,8140
0.54,8141
0.55,8142
0.56,8143
0.57,8144
0.57,8145
0.56,8146
0.55,8147
0.56,8148
0.57,8149
0.57,8150
0.56,8151
0.55,8152
0.56,8153
0.57,8154
0.58,8155
0.59,8156
0.58,8157
0.57,8158
0.57,8159
0.58,8160
0.58,8161
0.57,8162
0.56,8163
0.55,8164
0.55,8165
0.56,8166
0.57,8167
0.56,8168
0.56,8169
0.56,8170
0.56,8171
0.56,8172
0.55,8173
0.55,8174
0.55,8175
0.55,8176
0.55,8177
0.54,8178
0.54,8179
0.53,8180
0.54,8181
0.54,8182
0.55,8183
0.54,8184
0.54,8185
0.54,8186
0.55,8187
0.55,8188
0.55,8189
0.54,8190
0.55,8191
0.55,8192
0.56,8193
0.56,8194
0.56,8195
0.56,8196
0.56,8197
0.56,8198
0.56,8199
0.55,8200
0.54,8201
0.54,8202
0.55,8203
0.54,8204
0.53,8205
0.52,8206
0.52,8207
0.53,8208
0.54,8209
0.55,8210
0.54,8211
0.53,8212
0.53,8213
0.54,8214
0.55,8215
0.54,8216
0.53,8217
0.53,8218
0.54,8219
0.55,8220
0.56,8221
0.55,8222
0.54,8223
0.54,8224
0.55,8225
0.54,8226
0.53,8227
0.52,8228
0.51,8229
0.52,8230
0.52,8231
0.51,8232
0.5,8233
0.49,8234
0.49,8235
0.49,8236
0.48,8237
0.49,8238
0.5,8239
0.5,8240
0.48,8241
0.48,8242
0.49,8243
0.48,8244
0.48,8245
0.47,8246
0.47,8247
0.47,8248
0.48,8249
0.48,8250
0.49,8251
0.48,8252
0.48,8253
0.49,8254
0.49,8255
0.49,8256
0.5,8257
0.51,8258
0.51,8259
0.51,8260
0.52,8261
0.49,8262
0.49,8263
0.49,8264
0.49,8265
0.49,8266
0.5,8267
0.51,8268
0.5,8269
0.5,8270
0.5,8271
0.5,8272
0.51,8273
0.52,8274
0.51,8275
0.51,8276
0.51,8277
0.52,8278
0.53,8279
0.53,8280
0.52,8281
0.51,8282
0.52,8283
0.53,8284
0.52,8285
0.52,8286
0.52,8287
0.52,8288
0.52,8289
0.52,8290
0.52,8291
0.51,8292
0.5,8293
0.5,8294
0.5,8295
0.51,8296
0.51,8297
0.51,8298
0.5,8299
0.5,8300
0.5,8301
0.5,8302
0.5,8303
0.5,8304
0.5,8305
0.51,8306
0.5,8307
0.5,8308
0.5,8309
0.5,8310
0.5,8311
0.51,8312
0.5,8313
0.49,8314
0.49,8315
0.5,8316
0.51,8317
0.5,8318
0.49,8319
0.5,8320
0.5,8321
0.49,8322
0.51,8323
0.5,8324
0.52,8325
0.53,8326
0.52,8327
0.52,8328
0.52,8329
0.53,8330
0.53,8331
0.53,8332
0.54,8333
0.54,8334
0.54,8335
0.55,8336
0.53,8337
0.52,8338
0.53,8339
0.53,8340
0.54,8341
0.53,8342
0.53,8343
0.53,8344
0.53,8345
0.54,8346
0.54,8347
0.54,8348
0.54,8349
0.53,8350
0.53,8351
0.53,8352
0.52,8353
0.53,8354
0.53,8355
0.52,8356
0.52,8357
0.52,8358
0.53,8359
0.52,8360
0.51,8361
0.52,8362
0.54,8363
0.54,8364
0.53,8365
0.53,8366
0.54,8367
0.54,8368
0.54,8369
0.53,8370
0.54,8371
0.53,8372
0.54,8373
0.54,8374
0.55,8375
0.54,8376
0.53,8377
0.53,8378
0.52,8379
0.53,8380
0.53,8381
0.52,8382
0.51,8383
0.51,8384
0.52,8385
0.53,8386
0.52,8387
0.52,8388
0.53,8389
0.53,8390
0.53,8391
0.53,8392
0.53,8393
0.54,8394
0.54,8395
0.54,8396
0.53,8397
0.53,8398
0.53,8399
0.53,8400
0.54,8401
0.54,8402
0.54,8403
0.53,8404
0.53,8405
0.53,8406
0.52,8407
0.53,8408
0.54,8409
0.53,8410
0.53,8411
0.54,8412
0.55,8413
0.54,8414
0.53,8415
0.53,8416
0.53,8417
0.54,8418
0.55,8419
0.55,8420
0.55,8421
0.55,8422
0.56,8423
0.55,8424
0.56,8425
0.55,8426
0.55,8427
0.55,8428
0.56,8429
0.55,8430
0.55,8431
0.56,8432
0.55,8433
0.55,8434
0.55,8435
0.54,8436
0.55,8437
0.55,8438
0.55,8439
0.55,8440
0.54,8441
0.54,8442
0.56,8443
0.55,8444
0.56,8445
0.55,8446
0.55,8447
0.56,8448
0.56,8449
0.56,8450
0.56,8451
0.56,8452
0.57,8453
0.58,8454
0.58,8455
0.57,8456
0.56,8457
0.57,8458
0.58,8459
0.58,8460
0.57,8461
0.56,8462
0.56,8463
0.56,8464
0.57,8465
0.58,8466
0.58,8467
0.58,8468
0.58,8469
0.58,8470
0.58,8471
0.57,8472
0.58,8473
0.57,8474
0.56,8475
0.57,8476
0.56,8477
0.57,8478
0.58,8479
0.57,8480
0.57,8481
0.58,8482
0.59,8483
0.58,8484
0.57,8485
0.56,8486
0.57,8487
0.58,8488
0.58,8489
0.58,8490
0.58,8491
0.59,8492
0.59,8493
0.59,8494
0.59,8495
0.59,8496
0.6,8497
0.6,8498
0.6,8499
0.59,8500
0.59,8501
0.59,8502
0.59,8503
0.6,8504
0.6,8505
0.6,8506
0.59,8507
0.58,8508
0.59,8509
0.6,8510
0.59,8511
0.59,8512
0.59,8513
0.59,8514
0.6,8515
0.6,8516
0.59,8517
0.58,8518
0.57,8519
0.58,8520
0.59,8521
0.59,8522
0.59,8523
0.59,8524
0.6,8525
0.61,8526
0.62,8527
0.62,8528
0.62,8529
0.63,8530
0.63,8531
0.61,8532
0.61,8533
0.59,8534
0.59,8535
0.59,8536
0.57,8537
0.57,8538
0.56,8539
0.56,8540
0.54,8541
0.54,8542
0.54,8543
0.54,8544
0.52,8545
0.47,8546
0.46,8547
0.46,8548
0.46,8549
0.46,8550
0.47,8551
0.44,8552
0.44,8553
0.43,8554
0.42,8555
0.41,8556
0.42,8557
0.42,8558
0.43,8559
0.43,8560
0.42,8561
0.42,8562
0.42,8563
0.42,8564
0.42,8565
0.41,8566
0.4,8567
0.4,8568
0.4,8569
0.4,8570
0.4,8571
0.4,8572
0.39,8573
0.39,8574
0.39,8575
0.39,8576
0.39,8577
0.39,8578
0.39,8579
0.38,8580
0.39,8581
0.39,8582
0.39,8583
0.39,8584
0.38,8585
0.39,8586
0.39,8587
0.38,8588
0.37,8589
0.38,8590
0.38,8591
0.38,8592
0.38,8593
0.38,8594
0.38,8595
0.38,8596
0.38,8597
0.38,8598
0.38,8599
0.37,8600
0.37,8601
0.38,8602
0.39,8603
0.38,8604
0.39,8605
0.4,8606
0.4,8607
0.4,8608
0.4,8609
0.41,8610
0.4,8611
0.41,8612
0.41,8613
0.41,8614
0.4,8615
0.4,8616
0.4,8617
0.41,8618
0.4,8619
0.41,8620
0.42,8621
0.43,8622
0.43,8623
0.43,8624
0.43,8625
0.43,8626
0.42,8627
0.42,8628
0.41,8629
0.42,8630
0.42,8631
0.42,8632
0.42,8633
0.41,8634
0.41,8635
0.4,8636
0.41,8637
0.41,8638
0.43,8639
0.42,8640
0.41,8641
0.41,8642
0.41,8643
0.4,8644
0.39,8645
0.4,8646
0.4,8647
0.41,8648
0.4,8649
0.39,8650
0.41,8651
0.41,8652
0.43,8653
0.44,8654
0.48,8655
0.5,8656
0.51,8657
0.53,8658
0.52,8659
0.52,8660
0.52,8661
0.52,8662
0.53,8663
0.54,8664
0.54,8665
0.54,8666
0.55,8667
0.55,8668
0.55,8669
0.54,8670
0.56,8671
0.55,8672
0.55,8673
0.55,8674
0.56,8675
0.56,8676
0.56,8677
0.56,8678
0.56,8679
0.55,8680
0.55,8681
0.56,8682
0.56,8683
0.55,8684
0.55,8685
0.55,8686
0.56,8687
0.56,8688
0.56,8689
0.56,8690
0.53,8691
0.51,8692
0.55,8693
0.52,8694
0.53,8695
0.54,8696
0.54,8697
0.53,8698
0.53,8699
0.53,8700
0.54,8701
0.54,8702
0.54,8703
0.54,8704
0.53,8705
0.53,8706
0.54,8707
0.54,8708
0.54,8709
0.54,8710
0.54,8711
0.54,8712
0.54,8713
0.54,8714
0.54,8715
0.55,8716
0.55,8717
0.55,8718
0.55,8719
0.54,8720
0.54,8721
0.54,8722
0.54,8723
0.54,8724
0.55,8725
0.54,8726
0.58,8727
0.55,8728
0.56,8729
0.58,8730
0.58,8731
0.59,8732
0.59,8733
0.56,8734
0.56,8735
0.6,8736
0.6,8737
0.61,8738
0.6,8739
0.6,8740
0.62,8741
0.62,8742
0.62,8743
0.61,8744
0.58,8745
0.62,8746
0.62,8747
0.62,8748
0.61,8749
0.58,8750
0.57,8751
0.6,8752
0.6,8753
0.6,8754
0.57,8755
0.58,8756
0.58,8757
0.57,8758
0.57,8759
0.57,8760
0.58,8761
0.58,8762
0.58,8763
0.58,8764
0.58,8765
0.59,8766
0.59,8767
0.58,8768
0.58,8769
0.58,8770
0.58,8771
0.58,8772
0.58,8773
0.57,8774
0.56,8775
0.56,8776
0.57,8777
0.57,8778
0.56,8779
0.56,8780
0.56,8781
0.56,8782
0.56,8783
0.55,8784
0.55,8785
0.54,8786
0.54,8787
0.54,8788
0.54,8789
0.53,8790
0.53,8791
0.54,8792
0.54,8793
0.53,8794
0.53,8795
0.54,8796
0.53,8797
0.53,8798
0.54,8799
0.53,8800
0.52,8801
0.53,8802
0.51,8803
0.52,8804
0.52,8805
0.53,8806
0.52,8807
0.53,8808
0.52,8809
0.53,8810
0.54,8811
0.54,8812
0.54,8813
0.54,8814
0.54,8815
0.54,8816
0.55,8817
0.55,8818
0.55,8819
0.55,8820
0.55,8821
0.55,8822
0.55,8823
0.55,8824
0.54,8825
0.54,8826
0.54,8827
0.54,8828
0.54,8829
0.52,8830
0.52,8831
0.52,8832
0.53,8833
0.53,8834
0.52,8835
0.53,8836
0.53,8837
0.52,8838
0.52,8839
0.53,8840
0.52,8841
0.52,8842
0.53,8843
0.54,8844
0.54,8845
0.55,8846
0.54,8847
0.55,8848
0.54,8849
0.53,8850
0.53,8851
0.54,8852
0.54,8853
0.54,8854
0.54,8855
0.53,8856
0.54,8857
0.55,8858
0.55,8859
0.54,8860
0.53,8861
0.54,8862
0.55,8863
0.54,8864
0.54,8865
0.54,8866
0.54,8867
0.54,8868
0.55,8869
0.54,8870
0.55,8871
0.55,8872
0.55,8873
0.54,8874
0.54,8875
0.55,8876
0.55,8877
0.54,8878
0.54,8879
0.54,8880
0.53,8881
0.53,8882
0.53,8883
0.53,8884
0.52,8885
0.52,8886
0.53,8887
0.53,8888
0.52,8889
0.53,8890
0.53,8891
0.53,8892
0.54,8893
0.55,8894
0.53,8895
0.53,8896
0.54,8897
0.55,8898
0.54,8899
0.54,8900
0.55,8901
0.55,8902
0.55,8903
0.54,8904
0.54,8905
0.53,8906
0.53,8907
0.52,8908
0.54,8909
0.54,8910
0.52,8911
0.53,8912
0.53,8913
0.54,8914
0.54,8915
0.53,8916
0.52,8917
0.51,8918
0.52,8919
0.52,8920
0.52,8921
0.52,8922
0.52,8923
0.52,8924
0.52,8925
0.51,8926
0.52,8927
0.52,8928
0.51,8929
0.51,8930
0.5,8931
0.51,8932
0.51,8933
0.52,8934
0.52,8935
0.52,8936
0.52,8937
0.52,8938
0.52,8939
0.51,8940
0.5,8941
0.5,8942
0.5,8943
0.5,8944
0.49,8945
0.48,8946
0.49,8947
0.49,8948
0.5,8949
0.51,8950
0.5,8951
0.5,8952
0.5,8953
0.51,8954
0.5,8955
0.5,8956
0.49,8957
0.49,8958
0.5,8959
0.51,8960
0.51,8961
0.5,8962
0.49,8963
0.49,8964
0.5,8965
0.5,8966
0.49,8967
0.49,8968
0.49,8969
0.5,8970
0.5,8971
0.49,8972
0.48,8973
0.48,8974
0.49,8975
0.5,8976
0.49,8977
0.49,8978
0.49,8979
0.5,8980
0.51,8981
0.51,8982
0.5,8983
0.5,8984
0.5,8985
0.5,8986
0.51,8987
0.5,8988
0.5,8989
0.5,8990
0.5,8991
0.51,8992
0.52,8993
0.51,8994
0.5,8995
0.5,8996
0.51,8997
0.51,8998
0.51,8999
0.51,9000
0.5,9001
0.51,9002
0.52,9003
0.52,9004
0.51,9005
0.5,9006
0.5,9007
0.51,9008
0.52,9009
0.51,9010
0.51,9011
0.51,9012
0.52,9013
0.53,9014
0.53,9015
0.53,9016
0.52,9017
0.53,9018
0.51,9019
0.54,9020
0.53,9021
0.53,9022
0.51,9023
0.52,9024
0.52,9025
0.52,9026
0.52,9027
0.52,9028
0.53,9029
0.52,9030
0.53,9031
0.52,9032
0.51,9033
0.52,9034
0.53,9035
0.52,9036
0.52,9037
0.52,9038
0.52,9039
0.53,9040
0.53,9041
0.53,9042
0.54,9043
0.53,9044
0.53,9045
0.53,9046
0.53,9047
0.53,9048
0.52,9049
0.52,9050
0.53,9051
0.52,9052
0.51,9053
0.53,9054
0.53,9055
0.52,9056
0.53,9057
0.52,9058
0.54,9059
0.54,9060
0.55,9061
0.53,9062
0.56,9063
0.55,9064
0.55,9065
0.55,9066
0.55,9067
0.55,9068
0.55,9069
0.55,9070
0.56,9071
0.56,9072
0.57,9073
0.57,9074
0.57,9075
0.57,9076
0.58,9077
0.59,9078
0.58,9079
0.57,9080
0.57,9081
0.57,9082
0.58,9083
0.57,9084
0.56,9085
0.56,9086
0.56,9087
0.57,9088
0.56,9089
0.57,9090
0.56,9091
0.55,9092
0.55,9093
0.56,9094
0.56,9095
0.55,9096
0.56,9097
0.55,9098
0.56,9099
0.56,9100
0.57,9101
0.56,9102
0.56,9103
0.57,9104
0.56,9105
0.56,9106
0.57,9107
0.57,9108
0.57,9109
0.56,9110
0.57,9111
0.56,9112
0.56,9113
0.56,9114
0.54,9115
0.55,9116
0.55,9117
0.56,9118
0.56,9119
0.55,9120
0.56,9121
0.55,9122
0.55,9123
0.54,9124
0.55,9125
0.56,9126
0.55,9127
0.54,9128
0.54,9129
0.56,9130
0.55,9131
0.55,9132
0.55,9133
0.54,9134
0.55,9135
0.55,9136
0.54,9137
0.55,9138
0.54,9139
0.55,9140
0.54,9141
0.53,9142
0.54,9143
0.54,9144
0.54,9145
0.54,9146
0.55,9147
0.54,9148
0.54,9149
0.53,9150
0.53,9151
0.54,9152
0.55,9153
0.54,9154
0.53,9155
0.52,9156
0.51,9157
0.52,9158
0.51,9159
0.51,9160
0.51,9161
0.51,9162
0.52,9163
0.53,9164
0.53,9165
0.52,9166
0.52,9167
0.52,9168
0.52,9169
0.51,9170
0.5,9171
0.49,9172
0.5,9173
0.5,9174
0.49,9175
0.49,9176
0.49,9177
0.48,9178
0.49,9179
0.48,9180
0.48,9181
0.48,9182
0.48,9183
0.49,9184
0.49,9185
0.49,9186
0.48,9187
0.48,9188
0.48,9189
0.49,9190
0.49,9191
0.49,9192
0.49,9193
0.49,9194
0.5,9195
0.51,9196
0.51,9197
0.5,9198
0.49,9199
0.5,9200
0.5,9201
0.5,9202
0.5,9203
0.5,9204
0.49,9205
0.48,9206
0.49,9207
0.49,9208
0.48,9209
0.47,9210
0.48,9211
0.48,9212
0.47,9213
0.47,9214
0.48,9215
0.47,9216
0.48,9217
0.48,9218
0.48,9219
0.48,9220
0.48,9221
0.48,9222
0.48,9223
0.48,9224
0.48,9225
0.48,9226
0.49,9227
0.49,9228
0.48,9229
0.48,9230
0.49,9231
0.49,9232
0.5,9233
0.5,9234
0.5,9235
0.5,9236
0.5,9237
0.49,9238
0.49,9239
0.49,9240
0.49,9241
0.5,9242
0.49,9243
0.5,9244
0.5,9245
0.5,9246
0.5,9247
0.51,9248
0.51,9249
0.51,9250
0.5,9251
0.51,9252
0.51,9253
0.51,9254
0.51,9255
0.51,9256
0.51,9257
0.5,9258
0.51,9259
0.5,9260
0.5,9261
0.5,9262
0.5,9263
0.5,9264
0.49,9265
0.5,9266
0.49,9267
0.5,9268
0.5,9269
0.51,9270
0.51,9271
0.51,9272
0.52,9273
0.53,9274
0.53,9275
0.52,9276
0.53,9277
0.53,9278
0.53,9279
0.53,9280
0.53,9281
0.52,9282
0.53,9283
0.52,9284
0.52,9285
0.53,9286
0.54,9287
0.53,9288
0.53,9289
0.53,9290
0.54,9291
0.54,9292
0.54,9293
0.53,9294
0.53,9295
0.53,9296
0.53,9297
0.53,9298
0.53,9299
0.53,9300
0.53,9301
0.54,9302
0.55,9303
0.55,9304
0.55,9305
0.55,9306
0.55,9307
0.56,9308
0.55,9309
0.55,9310
0.55,9311
0.56,9312
0.56,9313
0.55,9314
0.56,9315
0.56,9316
0.56,9317
0.56,9318
0.56,9319
0.55,9320
0.54,9321
0.53,9322
0.54,9323
0.55,9324
0.55,9325
0.54,9326
0.54,9327
0.54,9328
0.55,9329
0.55,9330
0.55,9331
0.55,9332
0.54,9333
0.54,9334
0.55,9335
0.55,9336
0.54,9337
0.54,9338
0.54,9339
0.54,9340
0.54,9341
0.55,9342
0.55,9343
0.55,9344
0.55,9345
0.56,9346
0.55,9347
0.55,9348
0.54,9349
0.55,9350
0.55,9351
0.56,9352
0.55,9353
0.54,9354
0.54,9355
0.54,9356
0.54,9357
0.54,9358
0.53,9359
0.53,9360
0.54,9361
0.54,9362
0.53,9363
0.52,9364
0.52,9365
0.53,9366
0.54,9367
0.54,9368
0.53,9369
0.52,9370
0.52,9371
0.52,9372
0.52,9373
0.51,9374
0.51,9375
0.51,9376
0.52,9377
0.53,9378
0.53,9379
0.52,9380
0.52,9381
0.53,9382
0.53,9383
0.53,9384
0.53,9385
0.52,9386
0.52,9387
0.53,9388
0.53,9389
0.52,9390
0.51,9391
0.51,9392
0.52,9393
0.53,9394
0.52,9395
0.51,9396
0.51,9397
0.52,9398
0.52,9399
0.53,9400
0.52,9401
0.52,9402
0.51,9403
0.51,9404
0.52,9405
0.51,9406
0.51,9407
0.51,9408
0.52,9409
0.52,9410
0.51,9411
0.51,9412
0.51,9413
0.51,9414
0.51,9415
0.51,9416
0.5,9417
0.49,9418
0.49,9419
0.5,9420
0.51,9421
0.51,9422
0.5,9423
0.49,9424
0.49,9425
0.5,9426
0.49,9427
0.48,9428
0.47,9429
0.47,9430
0.48,9431
0.49,9432
0.49,9433
0.48,9434
0.47,9435
0.47,9436
0.47,9437
0.47,9438
0.47,9439
0.46,9440
0.47,9441
0.48,9442
0.48,9443
0.47,9444
0.46,9445
0.46,9446
0.46,9447
0.46,9448
0.46,9449
0.48,9450
0.48,9451
0.47,9452
0.47,9453
0.47,9454
0.47,9455
0.48,9456
0.49,9457
0.5,9458
0.51,9459
0.51,9460
0.51,9461
0.51,9462
0.52,9463
0.51,9464
0.51,9465
0.51,9466
0.51,9467
0.51,9468
0.5,9469
0.49,9470
0.5,9471
0.51,9472
0.51,9473
0.51,9474
0.52,9475
0.51,9476
0.51,9477
0.52,9478
0.51,9479
0.52,9480
0.51,9481
0.51,9482
0.51,9483
0.51,9484
0.5,9485
0.5,9486
0.51,9487
0.5,9488
0.5,9489
0.51,9490
0.51,9491
0.5,9492
0.49,9493
0.49,9494
0.5,9495
0.51,9496
0.5,9497
0.49,9498
0.48,9499
0.49,9500
0.49,9501
0.49,9502
0.49,9503
0.5,9504
0.53,9505
0.51,9506
0.51,9507
0.51,9508
0.53,9509
0.53,9510
0.54,9511
0.51,9512
0.52,9513
0.53,9514
0.53,9515
0.53,9516
0.51,9517
0.52,9518
0.55,9519
0.55,9520
0.54,9521
0.53,9522
0.52,9523
0.52,9524
0.55,9525
0.54,9526
0.52,9527
0.52,9528
0.53,9529
0.52,9530
0.52,9531
0.52,9532
0.53,9533
0.53,9534
0.53,9535
0.53,9536
0.54,9537
0.55,9538
0.55,9539
0.55,9540
0.55,9541
0.55,9542
0.54,9543
0.55,9544
0.56,9545
0.56,9546
0.57,9547
0.57,9548
0.56,9549
0.55,9550
0.54,9551
0.56,9552
0.56,9553
0.55,9554
0.54,9555
0.55,9556
0.56,9557
0.55,9558
0.54,9559
0.55,9560
0.54,9561
0.54,9562
0.54,9563
0.53,9564
0.53,9565
0.54,9566
0.54,9567
0.54,9568
0.54,9569
0.55,9570
0.56,9571
0.56,9572
0.55,9573
0.55,9574
0.55,9575
0.56,9576
0.56,9577
0.56,9578
0.57,9579
0.57,9580
0.57,9581
0.57,9582
0.57,9583
0.57,9584
0.57,9585
0.58,9586
0.58,9587
0.59,9588
0.59,9589
0.58,9590
0.58,9591
0.58,9592
0.58,9593
0.57,9594
0.56,9595
0.55,9596
0.56,9597
0.57,9598
0.57,9599
0.56,9600
0.56,9601
0.56,9602
0.56,9603
0.55,9604
0.54,9605
0.53,9606
0.52,9607
0.52,9608
0.52,9609
0.52,9610
0.52,9611
0.52,9612
0.52,9613
0.52,9614
0.53,9615
0.53,9616
0.53,9617
0.53,9618
0.54,9619
0.53,9620
0.54,9621
0.54,9622
0.54,9623
0.55,9624
0.56,9625
0.55,9626
0.55,9627
0.53,9628
0.54,9629
0.52,9630
0.52,9631
0.51,9632
0.51,9633
0.51,9634
0.49,9635
0.46,9636
0.46,9637
0.47,9638
0.46,9639
0.43,9640
0.4,9641
0.38,9642
0.37,9643
0.36,9644
0.35,9645
0.35,9646
0.36,9647
0.35,9648
0.36,9649
0.37,9650
0.38,9651
0.37,9652
0.38,9653
0.38,9654
0.38,9655
0.38,9656
0.39,9657
0.4,9658
0.41,9659
0.42,9660
0.43,9661
0.43,9662
0.44,9663
0.44,9664
0.44,9665
0.45,9666
0.46,9667
0.47,9668
0.48,9669
0.49,9670
0.5,9671
0.51,9672
0.52,9673
0.53,9674
0.54,9675
0.55,9676
0.56,9677
0.57,9678
0.58,9679
0.59,9680
0.6,9681
0.61,9682
0.62,9683
0.62,9684
0.63,9685
0.64,9686
0.65,9687
0.66,9688
0.66,9689
0.67,9690
0.67,9691
0.68,9692
0.69,9693
0.69,9694
0.7,9695
0.71,9696
0.72,9697
0.73,9698
0.74,9699
0.75,9700
0.75,9701
0.75,9702
0.76,9703
0.74,9704
0.74,9705
0.74,9706
0.74,9707
0.75,9708
0.76,9709
0.76,9710
0.76,9711
0.76,9712
0.76,9713
0.75,9714
0.74,9715
0.75,9716
0.74,9717
0.74,9718
0.74,9719
0.7,9720
0.71,9721
0.72,9722
0.7,9723
0.68,9724
0.68,9725
0.68,9726
0.69,9727
0.68,9728
0.66,9729
0.65,9730
0.66,9731
0.66,9732
0.66,9733
0.66,9734
0.66,9735
0.66,9736
0.67,9737
0.68,9738
0.68,9739
0.68,9740
0.69,9741
0.7,9742
0.7,9743
0.69,9744
0.69,9745
0.7,9746
0.67,9747
0.66,9748
0.65,9749
0.66,9750
0.67,9751
0.68,9752
0.67,9753
0.68,9754
0.69,9755
0.69,9756
0.7,9757
0.7,9758
0.71,9759
0.72,9760
0.72,9761
0.71,9762
0.71,9763
0.72,9764
0.73,9765
0.72,9766
0.71,9767
0.72,9768
0.71,9769
0.71,9770
