@RELATION 'Music feature'
%rows=1
%columns=9770
%sample_rate=22050
%window_size=512
%step_size=512

@ATTRIBUTE 'Root mean square' NUMERIC
@ATTRIBUTE WindowNumber NUMERIC

@DATA
0.0,1
0.0,2
0.0,3
0.0,4
7.509239077E-6,5
1.440016639E-5,6
1.355425873E-5,7
1.495779719E-5,8
1.236103191E-5,9
1.293626782E-5,10
3.109826516E-4,11
0.1024597752,12
0.2867166799,13
0.6501655309,14
0.5378719012,15
0.4276236486,16
0.3441140916,17
0.3073686215,18
0.2942543343,19
0.3066237769,20
0.3772819005,21
0.2778017817,22
0.2083599524,23
0.1906738866,24
0.2880748687,25
0.3573506649,26
0.4342933551,27
0.3162574582,28
0.169505062,29
0.1552527387,30
0.1764825117,31
0.1752964711,32
0.1608465805,33
0.1670550098,34
0.1828406068,35
0.2514619262,36
0.2951174215,37
0.2967509739,38
0.2449900621,39
0.2018723876,40
0.172600793,41
0.2291296134,42
0.2787362558,43
0.2310797848,44
0.1724626313,45
0.1844912257,46
0.1992483154,47
0.167382904,48
0.1595433886,49
0.1778340535,50
0.1792094582,51
0.1337137982,52
0.226774404,53
0.2567985065,54
0.2151988629,55
0.1817794509,56
0.279542387,57
0.3969483823,58
0.4340335044,59
0.2711568584,60
0.1552282344,61
0.1378222614,62
0.1537276492,63
0.151148095,64
0.1713012289,65
0.16404674,66
0.1562176001,67
0.1992889508,68
0.3124922173,69
0.2710441246,70
0.2303420522,71
0.2315379678,72
0.3162540834,73
0.4077072933,74
0.500414801,75
0.4656104222,76
0.3276553184,77
0.2221067817,78
0.22271106,79
0.1979724639,80
0.2232991657,81
0.2307020309,82
0.2084379323,83
0.1637537223,84
0.2945952914,85
0.3257427914,86
0.2630992307,87
0.1986071168,88
0.2483447077,89
0.7272549809,90
0.5087948194,91
0.5367211115,92
0.4059108174,93
0.286152068,94
0.2488537013,95
0.3070088887,96
0.4083447113,97
0.3036129137,98
0.21937917,99
0.5169159733,100
0.6808447455,101
0.5073075007,102
0.5263117974,103
0.2907004963,104
0.3398225268,105
0.3045528615,106
0.3051711943,107
0.3591502144,108
0.2691710547,109
0.2417331973,110
0.1969567535,111
0.1996706728,112
0.212410634,113
0.2767539661,114
0.1917127901,115
0.139753984,116
0.1576585801,117
0.1389123768,118
0.1722065563,119
0.1724449647,120
0.1724427976,121
0.1627308236,122
0.2243883229,123
0.2386121083,124
0.2372978848,125
0.1819439561,126
0.153474808,127
0.140440317,128
0.09847042004,129
0.1962341392,130
0.1796388816,131
0.1731926628,132
0.1523080899,133
0.1504030902,134
0.1510352289,135
0.1548590379,136
0.1630268287,137
0.2127448992,138
0.2760032246,139
0.4176202682,140
0.4411063435,141
0.2711277169,142
0.203668304,143
0.3078965692,144
0.3952234104,145
0.429185347,146
0.4133870377,147
0.190093211,148
0.137476478,149
0.1672672713,150
0.1643906767,151
0.1572156687,152
0.1684512271,153
0.171310003,154
0.1730172835,155
0.1187035229,156
0.1524735261,157
0.1831002294,158
0.162133599,159
0.145931916,160
0.2764264205,161
0.3172546081,162
0.2692592234,163
0.2277797861,164
0.1670793047,165
0.1761003505,166
0.185165063,167
0.1827729083,168
0.1638050666,169
0.1710342987,170
0.1511449351,171
0.2480763577,172
0.2521057515,173
0.216414894,174
0.1812628116,175
0.1761803496,176
0.1629473911,177
0.1615513261,178
0.2036855577,179
0.1574232787,180
0.2433464546,181
0.3025267555,182
0.3013108296,183
0.2139173742,184
0.4315075183,185
0.7454424816,186
0.5220802944,187
0.4431992715,188
0.4304595527,189
0.4144733918,190
0.3593169244,191
0.3662984315,192
0.355802687,193
0.3190951629,194
0.1817955469,195
0.2351423297,196
0.1841556516,197
0.3055825878,198
0.4022349957,199
0.4441272399,200
0.398123144,201
0.1707243709,202
0.1567771398,203
0.1692793741,204
0.1508899881,205
0.1651947774,206
0.1823219035,207
0.1814474169,208
0.3398801055,209
0.4400221101,210
0.3855323819,211
0.1830367126,212
0.2418094193,213
0.3540463806,214
0.4211574336,215
0.4414669644,216
0.3701408462,217
0.1460879619,218
0.1460555129,219
0.1581812465,220
0.1670587441,221
0.1823831457,222
0.1812803144,223
0.2062241699,224
0.1941902202,225
0.3593698868,226
0.3421844154,227
0.2085186317,228
0.3200663364,229
0.5729932481,230
0.673964617,231
0.4263291797,232
0.3464348224,233
0.3190788217,234
0.2361286886,235
0.3849941755,236
0.4420914686,237
0.3152320047,238
0.1870852243,239
0.2516390587,240
0.2380156685,241
0.3028458074,242
0.3040232257,243
0.2502499935,244
0.1671684956,245
0.1643835967,246
0.1650527178,247
0.1790049261,248
0.1661088436,249
0.2052397622,250
0.1889525772,251
0.1671540965,252
0.1072018346,253
0.196076743,254
0.2754922485,255
0.6437710475,256
0.4311508147,257
0.343834919,258
0.3151359948,259
0.3443400323,260
0.6832059277,261
0.514573789,262
0.4183825392,263
0.3408613988,264
0.3770015278,265
0.5489221874,266
0.4070734696,267
0.3956569557,268
0.5212292333,269
0.4100453561,270
0.7032137613,271
0.6394121146,272
0.5698360347,273
0.4823307302,274
0.4090167741,275
0.6801255472,276
0.7350143885,277
0.6032225813,278
0.4971953835,279
0.5883047222,280
0.6788604641,281
0.7111439151,282
0.5251657799,283
0.5000567722,284
0.2912427343,285
0.5092894323,286
0.7663036349,287
0.4539616508,288
0.4550535569,289
0.3918036004,290
0.6889863,291
0.7068262377,292
0.5133857332,293
0.5171001088,294
0.553891446,295
0.6853992954,296
0.7753446787,297
0.4837472333,298
0.4097653589,299
0.4679894503,300
0.5310587579,301
0.8301248279,302
0.5666115935,303
0.4950078427,304
0.3903143756,305
0.391500951,306
0.7139114857,307
0.4573452273,308
0.5583996091,309
0.3547558938,310
0.4523422198,311
0.5694552981,312
0.7047751113,313
0.4539931239,314
0.5828630923,315
0.3971921167,316
0.6202019775,317
0.7721963089,318
0.4864803843,319
0.5161244721,320
0.3598718057,321
0.3201860107,322
0.6590051008,323
0.7085692327,324
0.4931809955,325
0.4480583864,326
0.2899211467,327
0.5994812223,328
0.7237024507,329
0.5043006211,330
0.5143472239,331
0.4495548542,332
0.4797968165,333
0.7790301949,334
0.5469706414,335
0.4972706762,336
0.2860678481,337
0.3418825673,338
0.7088252636,339
0.5749510176,340
0.5440108794,341
0.5601600413,342
0.5531900465,343
0.4237264324,344
0.7817478346,345
0.5289343362,346
0.5471709377,347
0.390064288,348
0.4789449191,349
0.7550428494,350
0.6051053348,351
0.6311407276,352
0.5663071468,353
0.3165111663,354
0.5137606417,355
0.7008894435,356
0.5246691063,357
0.5158451842,358
0.4422461256,359
0.4880718809,360
0.7776356845,361
0.5267966521,362
0.3908604651,363
0.3615468139,364
0.3611710984,365
0.7553691035,366
0.7722424776,367
0.5330217164,368
0.4375403688,369
0.3098436862,370
0.5554296532,371
0.7486429869,372
0.4485099727,373
0.4116023648,374
0.3228572615,375
0.4517696269,376
0.7467801821,377
0.5592585439,378
0.4669182159,379
0.2499982741,380
0.3104296743,381
0.7683043023,382
0.6237393863,383
0.4088355811,384
0.3207484268,385
0.254608445,386
0.5053027957,387
0.6943901384,388
0.5171051356,389
0.5509800137,390
0.366240814,391
0.3891125944,392
0.8007584492,393
0.5126086672,394
0.5293949946,395
0.1999042034,396
0.3308606737,397
0.3829745676,398
0.7615114305,399
0.4468774292,400
0.5968428589,401
0.415027011,402
0.3881280638,403
0.6699976189,404
0.680901299,405
0.3827622717,406
0.3612000322,407
0.3584337759,408
0.4880255131,409
0.7612470604,410
0.7403730318,411
0.4507338572,412
0.4586579214,413
0.4153991546,414
0.7795712718,415
0.6646999691,416
0.6451145241,417
0.6158163143,418
0.5041764711,419
0.5010037632,420
0.767396182,421
0.5172079993,422
0.6265159143,423
0.4195768329,424
0.4118724913,425
0.5343371572,426
0.6327514898,427
0.4336635005,428
0.4228451917,429
0.3987574567,430
0.542345758,431
0.7599715678,432
0.5482830836,433
0.5144788749,434
0.3776821708,435
0.4283683063,436
0.8108368489,437
0.603821752,438
0.3990419359,439
0.4487684526,440
0.2818020512,441
0.6450838131,442
0.6191298138,443
0.5110132542,444
0.4167503988,445
0.320886227,446
0.5317654107,447
0.7433816517,448
0.3732310424,449
0.3070980563,450
0.257186694,451
0.4570195169,452
0.8122189522,453
0.5732899339,454
0.5365867638,455
0.4088399622,456
0.4464616997,457
0.6949784281,458
0.6997893736,459
0.5213466576,460
0.4204403399,461
0.3232080082,462
0.479351918,463
0.7898921459,464
0.5144869186,465
0.4327025154,466
0.3750214653,467
0.411354416,468
0.6710279512,469
0.6791297728,470
0.3773024457,471
0.2988040456,472
0.2310595312,473
0.4832284509,474
0.7549475872,475
0.5150007615,476
0.5681450883,477
0.4068743568,478
0.4111987585,479
0.7785263265,480
0.5806359946,481
0.6171547687,482
0.3852239775,483
0.3173941809,484
0.4875796422,485
0.7982703181,486
0.5409035238,487
0.5076332794,488
0.3861887792,489
0.3882557086,490
0.7436135119,491
0.5005246305,492
0.547419747,493
0.4230136629,494
0.3019965055,495
0.7078931795,496
0.7439964353,497
0.6131900356,498
0.4762852276,499
0.344680997,500
0.6919293603,501
0.7524285021,502
0.5006682883,503
0.4157189612,504
0.289228404,505
0.3586414858,506
0.7543468309,507
0.637107624,508
0.4823315917,509
0.4516974197,510
0.4409700869,511
0.7589721081,512
0.719487023,513
0.4620626315,514
0.3918023929,515
0.3370261437,516
0.5649440338,517
0.7783569487,518
0.5248548926,519
0.4978745145,520
0.4059661827,521
0.4203017142,522
0.7468669372,523
0.5914196593,524
0.5868368557,525
0.3206601606,526
0.408489623,527
0.5677373774,528
0.738234807,529
0.409510584,530
0.3230070645,531
0.360045217,532
0.4170181311,533
0.7722492991,534
0.5062072527,535
0.6601862286,536
0.5012135437,537
0.4608859248,538
0.7193795234,539
0.5813603416,540
0.5430984765,541
0.4366845885,542
0.4279188763,543
0.7021082705,544
0.6169367343,545
0.4376626323,546
0.363745674,547
0.345837129,548
0.6253086221,549
0.7632044984,550
0.4230826572,551
0.447070841,552
0.4175819163,553
0.4727721056,554
0.7798125328,555
0.4726635619,556
0.545311985,557
0.2721541481,558
0.318923787,559
0.6901110983,560
0.6634874617,561
0.561517291,562
0.4686229836,563
0.4324352642,564
0.501062586,565
0.7127342892,566
0.5080014574,567
0.5474325708,568
0.4849607399,569
0.4998094803,570
0.6532482723,571
0.6097730637,572
0.5223781041,573
0.5199018241,574
0.4653415873,575
0.5739600723,576
0.7788286491,577
0.4665042211,578
0.4169415374,579
0.3583851799,580
0.2946158246,581
0.7548801489,582
0.6343853379,583
0.5890768681,584
0.4489240707,585
0.4379701156,586
0.6691075234,587
0.7246669164,588
0.4503484714,589
0.5464383113,590
0.5618157387,591
0.513696025,592
0.7728181464,593
0.4936771279,594
0.3343170737,595
0.3374578132,596
0.3377516653,597
0.7478058655,598
0.6442140779,599
0.654414855,600
0.6040531624,601
0.4371077704,602
0.4708914541,603
0.8079525477,604
0.570987519,605
0.4343401427,606
0.4318884567,607
0.3957707982,608
0.7013943125,609
0.5752346897,610
0.5396094489,611
0.4140222215,612
0.3561215224,613
0.5177171867,614
0.8071937152,615
0.4448338124,616
0.4344206898,617
0.3512826944,618
0.3466654957,619
0.7574979753,620
0.5195259877,621
0.540743855,622
0.5116432863,623
0.4193104065,624
0.6762684231,625
0.7552064847,626
0.501305726,627
0.4793802646,628
0.5008059914,629
0.5315751792,630
0.7869703903,631
0.468470325,632
0.4940181137,633
0.3257705253,634
0.3410006183,635
0.6201811155,636
0.6325325039,637
0.5606139627,638
0.3627222931,639
0.287406598,640
0.6102086929,641
0.7592107754,642
0.4891364561,643
0.3202794319,644
0.412381299,645
0.4604308675,646
0.7631901074,647
0.594250061,648
0.557071147,649
0.3789998443,650
0.4207492276,651
0.5631035565,652
0.5892746589,653
0.4454371381,654
0.4488583043,655
0.3440245596,656
0.5664497067,657
0.703285588,658
0.5496541674,659
0.5372045752,660
0.3028484873,661
0.4006106184,662
0.7745798854,663
0.5703703798,664
0.3975168922,665
0.3859266424,666
0.3094298311,667
0.6447903847,668
0.7351265764,669
0.4675135787,670
0.4611802557,671
0.3162376071,672
0.5717756941,673
0.7496278197,674
0.6613172812,675
0.5642777635,676
0.5287796439,677
0.5279410433,678
0.6839565863,679
0.7544920991,680
0.5008344534,681
0.3800419709,682
0.2976853753,683
0.5175504417,684
0.735109997,685
0.416353916,686
0.3952189857,687
0.3539729712,688
0.4316630009,689
0.7755622339,690
0.6737184344,691
0.5476339061,692
0.4272389687,693
0.3843181875,694
0.6867477252,695
0.6806478224,696
0.4886515156,697
0.3898718121,698
0.3532369596,699
0.3467559475,700
0.7720743979,701
0.6663205024,702
0.4846113658,703
0.4622846151,704
0.4501547468,705
0.656847572,706
0.6316828147,707
0.6312918905,708
0.5022391636,709
0.3337268387,710
0.5832765605,711
0.8024804399,712
0.6291188239,713
0.6576741043,714
0.5429833512,715
0.4829888965,716
0.6159550566,717
0.544383601,718
0.6086972544,719
0.4286199577,720
0.3422012172,721
0.6042227496,722
0.7059849452,723
0.4600950268,724
0.4279949698,725
0.2983530629,726
0.3983249727,727
0.7894829024,728
0.3967184575,729
0.4031630339,730
0.2399859899,731
0.3106727207,732
0.7607411183,733
0.6772970665,734
0.4889499947,735
0.4568982006,736
0.4158837054,737
0.7197994691,738
0.7710135384,739
0.5981503342,740
0.5103224269,741
0.2786208115,742
0.377346744,743
0.7099665937,744
0.5016199489,745
0.4371920151,746
0.3645456155,747
0.395405245,748
0.6902267358,749
0.6577844031,750
0.5358364615,751
0.2414965366,752
0.323456113,753
0.7582581976,754
0.7054185457,755
0.568938643,756
0.4693367841,757
0.4368976734,758
0.5933002169,759
0.707057157,760
0.4795515036,761
0.4296267523,762
0.3993136558,763
0.369178589,764
0.7079715479,765
0.4864433852,766
0.4943424542,767
0.2776911402,768
0.3852145468,769
0.5536733664,770
0.8073637218,771
0.4704279776,772
0.4537563578,773
0.7123978524,774
0.5180914849,775
0.3852235445,776
0.3923306055,777
0.3591383688,778
0.6705974013,779
0.5211475622,780
0.4184518138,781
0.4573361203,782
0.5189222059,783
0.5109598044,784
0.6405366764,785
0.7220450037,786
0.5193974461,787
0.4840957565,788
0.5350149609,789
0.4474891584,790
0.4767568469,791
0.4499324954,792
0.4408912608,793
0.4031523401,794
0.3822468947,795
0.3856805265,796
0.4079606515,797
0.3279507425,798
0.4254342675,799
0.3638928754,800
0.3683712954,801
0.385464432,802
0.3988396779,803
0.3931498302,804
0.3327812229,805
0.3903287832,806
0.3789666317,807
0.3444767961,808
0.3612821037,809
0.4054921956,810
0.4134417616,811
0.3162808043,812
0.5868943665,813
0.5513113182,814
0.4816488022,815
0.4077485693,816
0.4197811134,817
0.5600580066,818
0.5906649274,819
0.5224175474,820
0.455865295,821
0.4729329274,822
0.419650347,823
0.6756389037,824
0.6125657089,825
0.4365870434,826
0.4785062746,827
0.4584928028,828
0.5102427749,829
0.6982379417,830
0.47430892,831
0.5251131672,832
0.4406099953,833
0.4851823183,834
0.7858894273,835
0.5375393642,836
0.5499212509,837
0.4281276819,838
0.4173736218,839
0.5978975145,840
0.7354044665,841
0.5473985793,842
0.5389419814,843
0.5352768151,844
0.7911568283,845
0.6718273105,846
0.513131093,847
0.5513682289,848
0.5564802472,849
0.6156073183,850
0.8060773374,851
0.4908833343,852
0.3553342136,853
0.5157411449,854
0.4888046646,855
0.7739235661,856
0.5033790562,857
0.519364023,858
0.4980043274,859
0.4170111893,860
0.7126171464,861
0.7087891237,862
0.5551245883,863
0.4429791633,864
0.4296352653,865
0.5988818592,866
0.7262882169,867
0.4366737376,868
0.3683009429,869
0.4458023121,870
0.4559317695,871
0.7734021393,872
0.5864131478,873
0.4679201612,874
0.3365448922,875
0.3549410935,876
0.7057949578,877
0.6811689023,878
0.6149230479,879
0.6183841266,880
0.5833495151,881
0.6168314295,882
0.7625027807,883
0.5983418274,884
0.4394397908,885
0.3933988073,886
0.4699047138,887
0.7288694107,888
0.5110137213,889
0.4854836618,890
0.4797436932,891
0.6065849014,892
0.6374813131,893
0.6251189257,894
0.416720266,895
0.3367539094,896
0.3664352492,897
0.4734290887,898
0.7845372836,899
0.6065162607,900
0.5000821287,901
0.4543811914,902
0.5655498524,903
0.7109069262,904
0.5963443029,905
0.6005771264,906
0.4878596532,907
0.5451136135,908
0.7075439746,909
0.6625042833,910
0.5562631652,911
0.4200910414,912
0.2974144421,913
0.5414439236,914
0.7629153658,915
0.5365227081,916
0.4536028076,917
0.4853277351,918
0.3569155451,919
0.709369819,920
0.730701045,921
0.5479738652,922
0.5098736237,923
0.4809120056,924
0.7166200764,925
0.8293048667,926
0.5427239936,927
0.536734848,928
0.4443772726,929
0.6047856528,930
0.7803475407,931
0.5357243227,932
0.6478227675,933
0.6007694534,934
0.6633141192,935
0.7239032247,936
0.6405074579,937
0.5456877739,938
0.5487303549,939
0.463099302,940
0.6146209554,941
0.7521685106,942
0.5424380493,943
0.6450660027,944
0.6410617197,945
0.6453509316,946
0.7463591833,947
0.5674719761,948
0.5010739876,949
0.4086816431,950
0.5907281926,951
0.7712222197,952
0.6692572242,953
0.539256762,954
0.4499362255,955
0.3377102531,956
0.5869153214,957
0.7662509287,958
0.4946643357,959
0.521996372,960
0.2706343974,961
0.3307845251,962
0.6302384391,963
0.749268079,964
0.4841106737,965
0.3435998619,966
0.4674124282,967
0.5860583554,968
0.7999623919,969
0.6733862284,970
0.4804661584,971
0.4046177054,972
0.3948004352,973
0.6291115334,974
0.7669452607,975
0.4626456712,976
0.3973004235,977
0.3656700326,978
0.5021754693,979
0.6578145659,980
0.4520994398,981
0.5429497152,982
0.3292099379,983
0.3536760933,984
0.6789764417,985
0.7127961394,986
0.5411187674,987
0.5392678893,988
0.4939423141,989
0.6846536683,990
0.7266543261,991
0.5067534002,992
0.3532348509,993
0.3364293574,994
0.466448119,995
0.762135325,996
0.5903504907,997
0.5028852007,998
0.3995778387,999
0.3949580653,1000
0.7020452961,1001
0.5917658349,1002
0.5632844845,1003
0.386773425,1004
0.4209319532,1005
0.633733085,1006
0.7470110546,1007
0.5531273345,1008
0.4153196305,1009
0.3603215116,1010
0.51574566,1011
0.7624524327,1012
0.6485147512,1013
0.5039916169,1014
0.4914392305,1015
0.5056069648,1016
0.7089876382,1017
0.6091664242,1018
0.5461859264,1019
0.4692172727,1020
0.4909696453,1021
0.5202631012,1022
0.7786673445,1023
0.5883073235,1024
0.5152006281,1025
0.4891080372,1026
0.4848726846,1027
0.7473655508,1028
0.6344413735,1029
0.5449830738,1030
0.5668086391,1031
0.495659893,1032
0.6718984383,1033
0.7135955239,1034
0.4958829876,1035
0.4951389248,1036
0.47837972,1037
0.4770265292,1038
0.7370050345,1039
0.5853332779,1040
0.445956153,1041
0.4053527812,1042
0.35822297,1043
0.6964309695,1044
0.7089600127,1045
0.3851051994,1046
0.49589892,1047
0.3432895345,1048
0.4038951507,1049
0.6960570319,1050
0.6158131339,1051
0.5062732445,1052
0.5949512535,1053
0.5562169773,1054
0.6802498004,1055
0.597831367,1056
0.5817436645,1057
0.4403567497,1058
0.475572079,1059
0.5977777811,1060
0.7266345847,1061
0.5604065379,1062
0.4792790116,1063
0.5818453479,1064
0.6926414652,1065
0.8236342843,1066
0.5862698194,1067
0.5099586263,1068
0.4642418866,1069
0.5381251702,1070
0.7276109244,1071
0.6773419848,1072
0.5370898516,1073
0.5142858135,1074
0.4584869678,1075
0.67282308,1076
0.7712209582,1077
0.6427615753,1078
0.553061773,1079
0.4035224861,1080
0.5870638311,1081
0.7276417089,1082
0.5829485287,1083
0.4995167782,1084
0.5140781984,1085
0.715252362,1086
0.7406343304,1087
0.5348340385,1088
0.5112842498,1089
0.4696468352,1090
0.5229373328,1091
0.802128596,1092
0.5966087763,1093
0.6030556055,1094
0.4795647376,1095
0.4892751944,1096
0.6812579031,1097
0.7046401278,1098
0.5933250423,1099
0.4577857652,1100
0.4688304184,1101
0.5348662339,1102
0.7325610686,1103
0.5243448954,1104
0.4874580844,1105
0.4868933892,1106
0.4858826159,1107
0.6643029707,1108
0.6890466655,1109
0.5234972652,1110
0.4077109076,1111
0.3852464241,1112
0.5610098826,1113
0.7660669469,1114
0.4963049306,1115
0.5307230609,1116
0.4784010268,1117
0.4809255811,1118
0.7927008775,1119
0.7106577195,1120
0.6251125884,1121
0.474520798,1122
0.4707465602,1123
0.6846198681,1124
0.5641917534,1125
0.553580422,1126
0.5079769707,1127
0.5761117677,1128
0.7880885549,1129
0.6054350426,1130
0.5694840816,1131
0.4847039163,1132
0.4875143196,1133
0.7014743942,1134
0.6819535615,1135
0.543655369,1136
0.5065109354,1137
0.4561230506,1138
0.5649639531,1139
0.742393719,1140
0.6413113916,1141
0.4720427799,1142
0.392301825,1143
0.4154946908,1144
0.7123629208,1145
0.6376705665,1146
0.5783475043,1147
0.4845313148,1148
0.4826016874,1149
0.6214800557,1150
0.7598658593,1151
0.5455304374,1152
0.4575079211,1153
0.3389913079,1154
0.4495159902,1155
0.7480377326,1156
0.6366062712,1157
0.4780247496,1158
0.378800187,1159
0.3832332572,1160
0.6552912807,1161
0.7099503819,1162
0.575020171,1163
0.4468381861,1164
0.3941076192,1165
0.4604096701,1166
0.7092495141,1167
0.6069972365,1168
0.4349559896,1169
0.3701143309,1170
0.4538041561,1171
0.5600208305,1172
0.7015184714,1173
0.4998634151,1174
0.5264806265,1175
0.4747754699,1176
0.5038349251,1177
0.741208608,1178
0.5896030678,1179
0.4844120282,1180
0.4134669318,1181
0.4095833112,1182
0.6690730534,1183
0.6856145894,1184
0.5522072463,1185
0.4586926786,1186
0.3964721493,1187
0.525795927,1188
0.7594037091,1189
0.5318037884,1190
0.470728759,1191
0.3003352743,1192
0.4711125545,1193
0.794829923,1194
0.5202146896,1195
0.5379635184,1196
0.3250429597,1197
0.387788825,1198
0.7204995834,1199
0.7290643992,1200
0.5060372468,1201
0.4984150553,1202
0.5451054784,1203
0.7036889124,1204
0.6759775128,1205
0.5509987482,1206
0.5456331039,1207
0.4488093537,1208
0.5076047725,1209
0.736219684,1210
0.5977990409,1211
0.5084450677,1212
0.4438243484,1213
0.3702120329,1214
0.6412523278,1215
0.7455889728,1216
0.4979453639,1217
0.4101192489,1218
0.3742134669,1219
0.4352293767,1220
0.7989267026,1221
0.5296376281,1222
0.4775298578,1223
0.3507545794,1224
0.3858699499,1225
0.686106153,1226
0.8153455936,1227
0.4701514591,1228
0.4522829871,1229
0.4891260004,1230
0.6594700053,1231
0.6930394396,1232
0.5076165206,1233
0.5434458942,1234
0.3052561385,1235
0.3862108235,1236
0.7592970291,1237
0.5509364641,1238
0.5068425878,1239
0.4913821725,1240
0.4655813396,1241
0.7190801123,1242
0.8040156809,1243
0.489041059,1244
0.4078733833,1245
0.3854479902,1246
0.5592044635,1247
0.7752962265,1248
0.5202179972,1249
0.5991969251,1250
0.5164673104,1251
0.5119535249,1252
0.738324736,1253
0.5400370995,1254
0.6048186847,1255
0.3840013923,1256
0.5153430753,1257
0.620245337,1258
0.7491108126,1259
0.4510650956,1260
0.435842925,1261
0.3824170812,1262
0.3260937118,1263
0.7268728596,1264
0.5292037597,1265
0.6137341961,1266
0.424927597,1267
0.348506567,1268
0.7734182327,1269
0.6911909,1270
0.4988998182,1271
0.4449493244,1272
0.4187615992,1273
0.5130475272,1274
0.8286750337,1275
0.4189572286,1276
0.3753653813,1277
0.4567659882,1278
0.4591377483,1279
0.7772211878,1280
0.4934543825,1281
0.5892551551,1282
0.3714410507,1283
0.3518551618,1284
0.5737183114,1285
0.7458875989,1286
0.5006432197,1287
0.4248768896,1288
0.3516954293,1289
0.5996597483,1290
0.76928618,1291
0.5694679057,1292
0.6112643604,1293
0.5240362313,1294
0.4067159746,1295
0.6383919145,1296
0.6816057988,1297
0.5747355867,1298
0.4799881388,1299
0.3614263724,1300
0.5289752793,1301
0.7532013389,1302
0.494448768,1303
0.4509360875,1304
0.4256341169,1305
0.3947261588,1306
0.595827072,1307
0.6612032036,1308
0.3932772816,1309
0.3586142975,1310
0.3036482748,1311
0.6825348774,1312
0.6493308478,1313
0.5319844157,1314
0.5551104239,1315
0.4150101283,1316
0.4206497347,1317
0.7852700542,1318
0.5527089912,1319
0.4695314718,1320
0.2810981719,1321
0.2927847899,1322
0.5720400015,1323
0.7035641623,1324
0.4767072873,1325
0.3546505583,1326
0.2542829195,1327
0.4391650115,1328
0.7342474642,1329
0.5266323694,1330
0.4884758035,1331
0.5549190011,1332
0.6305436185,1333
0.6798482124,1334
0.7172465367,1335
0.4945751649,1336
0.5200995503,1337
0.4358661794,1338
0.6427290146,1339
0.6435622234,1340
0.5443064655,1341
0.540105537,1342
0.4413452064,1343
0.4871851956,1344
0.7255751368,1345
0.5681802212,1346
0.5886316054,1347
0.4758197091,1348
0.4599142631,1349
0.6919569832,1350
0.6713302348,1351
0.4513196214,1352
0.3767299088,1353
0.4021958468,1354
0.6610762803,1355
0.7133440021,1356
0.5383343344,1357
0.5549126624,1358
0.4899652913,1359
0.5279819543,1360
0.7476007017,1361
0.5060995079,1362
0.490672565,1363
0.4781337357,1364
0.4697034948,1365
0.681668539,1366
0.6868286306,1367
0.561324581,1368
0.529230034,1369
0.5543583417,1370
0.4765151821,1371
0.7714831749,1372
0.5150930605,1373
0.4179807725,1374
0.3655776368,1375
0.4121568378,1376
0.7744050196,1377
0.6502203616,1378
0.6257676001,1379
0.5316829518,1380
0.5507370134,1381
0.6586815186,1382
0.6907789453,1383
0.4537295696,1384
0.3753700883,1385
0.358041128,1386
0.5211473171,1387
0.7874359866,1388
0.5289152257,1389
0.5443175942,1390
0.3177330075,1391
0.3899739829,1392
0.7303189016,1393
0.5389454109,1394
0.5380618407,1395
0.3069044629,1396
0.3400791708,1397
0.6652256811,1398
0.768773165,1399
0.6045239308,1400
0.5151792126,1401
0.425226838,1402
0.6205551032,1403
0.7881513892,1404
0.4593311227,1405
0.4484920835,1406
0.4902678702,1407
0.3706537663,1408
0.744824802,1409
0.728754865,1410
0.5335242124,1411
0.4218942475,1412
0.3955606496,1413
0.5987349806,1414
0.6987438597,1415
0.5322986637,1416
0.4771379346,1417
0.3800431047,1418
0.5626141476,1419
0.777202627,1420
0.6210547593,1421
0.5845880245,1422
0.3995358372,1423
0.5213227088,1424
0.7384965943,1425
0.5874458964,1426
0.5944262623,1427
0.4862061068,1428
0.6817317784,1429
0.7113536608,1430
0.5661154395,1431
0.4762942789,1432
0.5295624884,1433
0.5210921989,1434
0.6554530444,1435
0.6110270265,1436
0.5936667361,1437
0.4880683265,1438
0.4693493176,1439
0.6407242766,1440
0.7317206164,1441
0.5992602024,1442
0.5169267975,1443
0.4366746546,1444
0.4320758638,1445
0.7321554106,1446
0.5878250861,1447
0.6027448036,1448
0.4813339816,1449
0.4843933512,1450
0.6480549026,1451
0.8115061745,1452
0.6212481617,1453
0.6114546556,1454
0.5325237668,1455
0.5066796483,1456
0.8053076454,1457
0.5869756594,1458
0.48775657,1459
0.4226363756,1460
0.4547294208,1461
0.6291967078,1462
0.749211889,1463
0.5836572404,1464
0.4900597222,1465
0.4455313567,1466
0.6179192085,1467
0.6713489647,1468
0.5656479475,1469
0.5242108786,1470
0.5034858104,1471
0.6053429873,1472
0.7536702315,1473
0.5667366302,1474
0.5504803244,1475
0.5082564897,1476
0.5405637926,1477
0.7277790208,1478
0.4896292497,1479
0.5336844506,1480
0.474976229,1481
0.4641003327,1482
0.5747562185,1483
0.7202599954,1484
0.6029412828,1485
0.5035645531,1486
0.4554270078,1487
0.5936622249,1488
0.6926548595,1489
0.5624202107,1490
0.4650203206,1491
0.4898704146,1492
0.5334928175,1493
0.6918687445,1494
0.7587032211,1495
0.5190638878,1496
0.4913406247,1497
0.4051313645,1498
0.5472322331,1499
0.7907603585,1500
0.5648125405,1501
0.5889518474,1502
0.412684467,1503
0.3967474707,1504
0.6566527288,1505
0.70480867,1506
0.5540897425,1507
0.445903672,1508
0.3944890509,1509
0.6004751006,1510
0.7192102762,1511
0.5560311924,1512
0.4756484654,1513
0.3848515537,1514
0.4448019814,1515
0.6454641363,1516
0.6435393801,1517
0.6366309572,1518
0.594178972,1519
0.5241706898,1520
0.5777658851,1521
0.6739902374,1522
0.7101575449,1523
0.5618971149,1524
0.555161832,1525
0.4893944531,1526
0.6082980199,1527
0.8478747803,1528
0.5738722022,1529
0.5334745094,1530
0.5269018999,1531
0.5338717093,1532
0.7755082959,1533
0.5711557738,1534
0.5142454691,1535
0.4170081946,1536
0.4421380257,1537
0.6506672524,1538
0.6413534288,1539
0.4652992368,1540
0.4283630933,1541
0.4244959326,1542
0.7114367731,1543
0.6271930286,1544
0.543680134,1545
0.4868900071,1546
0.5746262277,1547
0.7728728477,1548
0.6773171774,1549
0.6227668603,1550
0.7715787975,1551
0.578830848,1552
0.4684339333,1553
0.5507980646,1554
0.7285743107,1555
0.4911136892,1556
0.7047835643,1557
0.6720861829,1558
0.5358364177,1559
0.5625472864,1560
0.7089733577,1561
0.5298540098,1562
0.4443691693,1563
0.401583293,1564
0.4413465589,1565
0.4766813626,1566
0.438688108,1567
0.3719283026,1568
0.3320732787,1569
0.3780048515,1570
0.314657986,1571
0.4217284791,1572
0.2072461237,1573
0.2553564713,1574
0.2882052586,1575
0.3640306947,1576
0.3090410774,1577
0.2058922425,1578
0.1916010115,1579
0.1659149375,1580
0.1690941204,1581
0.1817011735,1582
0.1526788989,1583
0.1498821892,1584
0.1542345384,1585
0.1370626624,1586
0.1636279593,1587
0.2213362564,1588
0.175994532,1589
0.2152155098,1590
0.2050197087,1591
0.2403578239,1592
0.2162961055,1593
0.188348449,1594
0.1827334155,1595
0.1222371209,1596
0.1278125884,1597
0.1388711144,1598
0.08832188657,1599
0.08113965282,1600
0.1258339926,1601
0.2716100129,1602
0.3610574195,1603
0.5115863642,1604
0.776556117,1605
0.6010477227,1606
0.5622751148,1607
0.4889428447,1608
0.6583774568,1609
0.6584795318,1610
0.5325732009,1611
0.5670174899,1612
0.4213368618,1613
0.5470195693,1614
0.7269285091,1615
0.4957224073,1616
0.4760472211,1617
0.4940687147,1618
0.7121721072,1619
0.6407857834,1620
0.5884321825,1621
0.5467159951,1622
0.484078585,1623
0.5307793627,1624
0.7354903738,1625
0.5246595155,1626
0.6196975499,1627
0.4376518003,1628
0.4652529713,1629
0.6764723659,1630
0.6883780355,1631
0.5282743758,1632
0.5397633349,1633
0.4390567584,1634
0.5781504606,1635
0.7475543539,1636
0.5284009114,1637
0.4896302586,1638
0.4386766804,1639
0.6562951993,1640
0.697353408,1641
0.4751438039,1642
0.5210636165,1643
0.371469334,1644
0.4273153222,1645
0.7275613117,1646
0.4686097068,1647
0.6449940981,1648
0.3023227109,1649
0.3040395185,1650
0.629475459,1651
0.6998985192,1652
0.5523047622,1653
0.4664639916,1654
0.3753563375,1655
0.6282134814,1656
0.7367615788,1657
0.4522979528,1658
0.5039758165,1659
0.4313995854,1660
0.3936344455,1661
0.8047580567,1662
0.4923953859,1663
0.6856031682,1664
0.576767829,1665
0.6321688903,1666
0.8141783752,1667
0.5883453003,1668
0.4878002715,1669
0.4051698569,1670
0.4034514297,1671
0.5820941393,1672
0.8110239954,1673
0.5016903043,1674
0.4546026981,1675
0.4063086202,1676
0.6515578479,1677
0.717176022,1678
0.5631491491,1679
0.5484022951,1680
0.4961419651,1681
0.4055631573,1682
0.7144633262,1683
0.5899729918,1684
0.4898948949,1685
0.5823026939,1686
0.4535563608,1687
0.6455969156,1688
0.7326893038,1689
0.5627005704,1690
0.5415915605,1691
0.5059317888,1692
0.5699301909,1693
0.7510840632,1694
0.5958631371,1695
0.6500918891,1696
0.5847276357,1697
0.6215814704,1698
0.7697563146,1699
0.6107591543,1700
0.5602746463,1701
0.5059590193,1702
0.5303469524,1703
0.7086697881,1704
0.6130236281,1705
0.5324247671,1706
0.4313336438,1707
0.4027588114,1708
0.7421529708,1709
0.693414498,1710
0.6210982842,1711
0.6721281848,1712
0.5571017344,1713
0.5888671738,1714
0.7805103241,1715
0.5905148944,1716
0.5366228166,1717
0.441425305,1718
0.4618919979,1719
0.7183345027,1720
0.5731911903,1721
0.5273453559,1722
0.4694448101,1723
0.4102065935,1724
0.7039663317,1725
0.759055153,1726
0.3970680656,1727
0.3742498747,1728
0.3744918865,1729
0.5358088233,1730
0.7506260652,1731
0.4415135056,1732
0.4954880165,1733
0.3539690415,1734
0.4519632573,1735
0.7885422461,1736
0.4861318819,1737
0.6194217015,1738
0.303024129,1739
0.393950888,1740
0.6749188258,1741
0.5729528922,1742
0.4100879822,1743
0.3498734735,1744
0.3765936064,1745
0.5889126862,1746
0.720822774,1747
0.4707961394,1748
0.4871747794,1749
0.4559166755,1750
0.4873168488,1751
0.7693560807,1752
0.5171264172,1753
0.5958467036,1754
0.3858324387,1755
0.3593808703,1756
0.6714969619,1757
0.7624015451,1758
0.5496189476,1759
0.496514029,1760
0.3981057338,1761
0.5753837976,1762
0.7173485795,1763
0.6167381891,1764
0.4959937892,1765
0.4607896722,1766
0.4106098208,1767
0.6436588476,1768
0.7276146783,1769
0.4566705727,1770
0.4592260751,1771
0.5184298555,1772
0.5580537807,1773
0.7573854068,1774
0.5273482265,1775
0.6041873939,1776
0.4444364657,1777
0.4444534609,1778
0.6558831109,1779
0.6292074502,1780
0.5505547778,1781
0.4716133979,1782
0.4457237218,1783
0.5717999281,1784
0.816255184,1785
0.5796710093,1786
0.6540742782,1787
0.5706118552,1788
0.6112359176,1789
0.7659977845,1790
0.6187381735,1791
0.5013821236,1792
0.5054376136,1793
0.4381033105,1794
0.6174552306,1795
0.7614097304,1796
0.4346821986,1797
0.4990658585,1798
0.3537793116,1799
0.5457466118,1800
0.7411175378,1801
0.5592688401,1802
0.6259915359,1803
0.5613912925,1804
0.4418848486,1805
0.781360047,1806
0.6553952333,1807
0.5455742338,1808
0.4503219561,1809
0.3887320985,1810
0.599591505,1811
0.7678748845,1812
0.4685702273,1813
0.4517048888,1814
0.3671827564,1815
0.5555475797,1816
0.7809694417,1817
0.5485618067,1818
0.5098759572,1819
0.4486307038,1820
0.4408096973,1821
0.6646866424,1822
0.6686314994,1823
0.4871371416,1824
0.5116947877,1825
0.4478284485,1826
0.7365821985,1827
0.7672974339,1828
0.4885385496,1829
0.4237019881,1830
0.3309535381,1831
0.4396418159,1832
0.7884225089,1833
0.6311658222,1834
0.5440556686,1835
0.3888373408,1836
0.4482540249,1837
0.62919365,1838
0.6886643788,1839
0.5405447524,1840
0.4935332564,1841
0.4288932783,1842
0.4023051667,1843
0.7361961758,1844
0.5203755376,1845
0.5872817886,1846
0.3993432513,1847
0.5582646422,1848
0.7258873547,1849
0.6847396188,1850
0.5696689921,1851
0.4899616428,1852
0.47678947,1853
0.5002722653,1854
0.7949314278,1855
0.4781392897,1856
0.5203834182,1857
0.5060555446,1858
0.4822372545,1859
0.7729359024,1860
0.5891859134,1861
0.6348442348,1862
0.4124840459,1863
0.4268300847,1864
0.5821694775,1865
0.7509468255,1866
0.5324466048,1867
0.4491472802,1868
0.3634491309,1869
0.7510262054,1870
0.7718826276,1871
0.5095945931,1872
0.4422310482,1873
0.3904033018,1874
0.5630038994,1875
0.6059521996,1876
0.7349998245,1877
0.5929966763,1878
0.5239453489,1879
0.4782801227,1880
0.6799275296,1881
0.678045971,1882
0.5230776047,1883
0.5327772414,1884
0.4979326598,1885
0.5713350658,1886
0.7669409451,1887
0.7025102734,1888
0.6033330254,1889
0.4703761354,1890
0.4880316746,1891
0.7508358825,1892
0.6767861529,1893
0.456629783,1894
0.4378188438,1895
0.3759451095,1896
0.6644578635,1897
0.7582937508,1898
0.6304761799,1899
0.5121977382,1900
0.4270635364,1901
0.5949353845,1902
0.7059002013,1903
0.5582919563,1904
0.6402843632,1905
0.3159190222,1906
0.4166826736,1907
0.6826896193,1908
0.5527186687,1909
0.4521808836,1910
0.3600692834,1911
0.3632700267,1912
0.7040002928,1913
0.6892108205,1914
0.5879701925,1915
0.3825694814,1916
0.401493251,1917
0.5876864995,1918
0.7361361969,1919
0.5232142839,1920
0.5425189463,1921
0.4994917924,1922
0.6242714201,1923
0.7747822308,1924
0.4792216543,1925
0.5702586526,1926
0.4685301942,1927
0.3876772704,1928
0.6345467388,1929
0.6615939687,1930
0.5280437224,1931
0.4012684995,1932
0.3505274434,1933
0.7216694112,1934
0.8053719502,1935
0.5784671953,1936
0.4690745058,1937
0.4603868549,1938
0.5299234122,1939
0.7365079272,1940
0.6426218416,1941
0.6372193451,1942
0.5867632584,1943
0.4940855871,1944
0.6610006981,1945
0.6229655565,1946
0.4885849818,1947
0.5105631645,1948
0.4961003802,1949
0.6922764707,1950
0.6990078673,1951
0.6212106733,1952
0.6125051005,1953
0.5681599825,1954
0.682326558,1955
0.7365996387,1956
0.5330069987,1957
0.5510990387,1958
0.4453832833,1959
0.4707287793,1960
0.7005573268,1961
0.6671349136,1962
0.5887522165,1963
0.656763596,1964
0.5119882456,1965
0.5611543306,1966
0.7646578253,1967
0.4932305085,1968
0.543241916,1969
0.4929507913,1970
0.5255911318,1971
0.6876520169,1972
0.671807704,1973
0.6467209672,1974
0.612890083,1975
0.4414660037,1976
0.7429619908,1977
0.6627170444,1978
0.5424839859,1979
0.4437783842,1980
0.4398175978,1981
0.5286718809,1982
0.7551557891,1983
0.6448007914,1984
0.6046343312,1985
0.6565899799,1986
0.5377902711,1987
0.6859843467,1988
0.5409677042,1989
0.5127400421,1990
0.4303638907,1991
0.2666257504,1992
0.557292312,1993
0.7264616281,1994
0.4447982311,1995
0.551739384,1996
0.3264663277,1997
0.5172750859,1998
0.8163515062,1999
0.5029340939,2000
0.4467033821,2001
0.3774908364,2002
0.3882396481,2003
0.6568522942,2004
0.7135512831,2005
0.4907168683,2006
0.4640678303,2007
0.3197001593,2008
0.5077233127,2009
0.7404544876,2010
0.4435399059,2011
0.4791142711,2012
0.2907379706,2013
0.3553518814,2014
0.7593323445,2015
0.5970076641,2016
0.4843705294,2017
0.4599166135,2018
0.442136174,2019
0.6656268695,2020
0.6727816006,2021
0.5189091515,2022
0.4592649145,2023
0.4399332859,2024
0.4872873819,2025
0.7677922588,2026
0.5932109097,2027
0.6130032889,2028
0.4515302348,2029
0.4294647792,2030
0.741049209,2031
0.6364850412,2032
0.6178327824,2033
0.4851535447,2034
0.4786005795,2035
0.6002527121,2036
0.7609444951,2037
0.5699758077,2038
0.5927083763,2039
0.4655166123,2040
0.5171248678,2041
0.6659755584,2042
0.6324430893,2043
0.6982637632,2044
0.6177533703,2045
0.5784097766,2046
0.6064167601,2047
0.6210297996,2048
0.5953220441,2049
0.4876930742,2050
0.4692755739,2051
0.6299966929,2052
0.6632259476,2053
0.5661058406,2054
0.5217638392,2055
0.4254215919,2056
0.4641794638,2057
0.8095143827,2058
0.6069672945,2059
0.4356670442,2060
0.3627621968,2061
0.5701384565,2062
0.7280233177,2063
0.6873396838,2064
0.4441666907,2065
0.4320998665,2066
0.4333745424,2067
0.6252980877,2068
0.788022371,2069
0.40381285,2070
0.4494120186,2071
0.3581199348,2072
0.5239681564,2073
0.7630335497,2074
0.4617269517,2075
0.4192404594,2076
0.3878624865,2077
0.4155248204,2078
0.6745030087,2079
0.6417506282,2080
0.5051178354,2081
0.3989543866,2082
0.6037516109,2083
0.6703754997,2084
0.7567553988,2085
0.6377836417,2086
0.6299698152,2087
0.5960660063,2088
0.5304161671,2089
0.8021950181,2090
0.6313282944,2091
0.5833349244,2092
0.4957738174,2093
0.4310741306,2094
0.6927300926,2095
0.6551918018,2096
0.5914484432,2097
0.5585303277,2098
0.4186266324,2099
0.4296578463,2100
0.7577725911,2101
0.5207910599,2102
0.5243198074,2103
0.3830503383,2104
0.6710458754,2105
0.7911690923,2106
0.497807825,2107
0.4732845756,2108
0.4623963794,2109
0.420580028,2110
0.7142432764,2111
0.6133294127,2112
0.5199151533,2113
0.3970693787,2114
0.3354608599,2115
0.7084465313,2116
0.6066854746,2117
0.5414695153,2118
0.4518943439,2119
0.3580647873,2120
0.4818275769,2121
0.7318138919,2122
0.4944908972,2123
0.5005132497,2124
0.3536420698,2125
0.4910925027,2126
0.7356922469,2127
0.7113227506,2128
0.7207323345,2129
0.7086262385,2130
0.5642873664,2131
0.5277239022,2132
0.8000015973,2133
0.534085635,2134
0.4698045772,2135
0.347996258,2136
0.403253922,2137
0.7617138783,2138
0.5271669568,2139
0.5233955182,2140
0.3363506549,2141
0.3226084986,2142
0.5554098234,2143
0.7177602702,2144
0.571409138,2145
0.5628794736,2146
0.4690535588,2147
0.5270447599,2148
0.800966682,2149
0.5037461672,2150
0.5421062919,2151
0.3715604886,2152
0.3841633607,2153
0.7061642384,2154
0.5807770722,2155
0.532428728,2156
0.4368615772,2157
0.3815262178,2158
0.5913465832,2159
0.7423308883,2160
0.3359830149,2161
0.2670449273,2162
0.3212088994,2163
0.2812934752,2164
0.6695436642,2165
0.5783399909,2166
0.3674229309,2167
0.404678321,2168
0.3212688522,2169
0.7736526955,2170
0.60464935,2171
0.5355049749,2172
0.4685279754,2173
0.4491418169,2174
0.539146126,2175
0.6813866485,2176
0.5189007223,2177
0.6005013285,2178
0.6122161805,2179
0.6502770635,2180
0.7620898311,2181
0.4620040431,2182
0.3725199416,2183
0.3630676335,2184
0.435632156,2185
0.7133272883,2186
0.6659496989,2187
0.4913729573,2188
0.3427820192,2189
0.2772054634,2190
0.5571244416,2191
0.7225334459,2192
0.5222252556,2193
0.4801519813,2194
0.3427467669,2195
0.5007640423,2196
0.7136433511,2197
0.4913313747,2198
0.5098818136,2199
0.2524432138,2200
0.2537611154,2201
0.6478100481,2202
0.6817402533,2203
0.3971140272,2204
0.284802258,2205
0.266259877,2206
0.4751612299,2207
0.8290129231,2208
0.4619671987,2209
0.4017529518,2210
0.242716398,2211
0.48818499,2212
0.8049014842,2213
0.5401768551,2214
0.6731254738,2215
0.6242350519,2216
0.4879423807,2217
0.5394247045,2218
0.7635753667,2219
0.4489969127,2220
0.4469434403,2221
0.2695333818,2222
0.5373827497,2223
0.6999354776,2224
0.4944814635,2225
0.5260184467,2226
0.4453934164,2227
0.3069028645,2228
0.6650821074,2229
0.6168745282,2230
0.4955658395,2231
0.391099152,2232
0.3422958303,2233
0.6405620778,2234
0.7589999896,2235
0.5319115317,2236
0.3476509094,2237
0.3485358612,2238
0.4396398001,2239
0.766680369,2240
0.4551010217,2241
0.4684128474,2242
0.2992425763,2243
0.3801921699,2244
0.7047211271,2245
0.5317737521,2246
0.5393307196,2247
0.3230059011,2248
0.3448823422,2249
0.4241241615,2250
0.7572269995,2251
0.3428713639,2252
0.5228774272,2253
0.4768771313,2254
0.3568177792,2255
0.7650278406,2256
0.555275735,2257
0.5390894394,2258
0.4391203471,2259
0.3396888685,2260
0.7030100342,2261
0.692397266,2262
0.3967902239,2263
0.3199868234,2264
0.3377651186,2265
0.5510593973,2266
0.8099219812,2267
0.4303736237,2268
0.4645487179,2269
0.248621772,2270
0.3510257714,2271
0.7197694123,2272
0.6730115007,2273
0.5637763469,2274
0.4933116296,2275
0.3193876484,2276
0.6266641707,2277
0.7552871649,2278
0.5332195861,2279
0.4401955982,2280
0.3326018254,2281
0.4741584259,2282
0.7771723638,2283
0.6524389821,2284
0.4939988242,2285
0.3232809504,2286
0.2820545808,2287
0.649589457,2288
0.7146885386,2289
0.3819206909,2290
0.3778797706,2291
0.319543091,2292
0.4222909037,2293
0.768598576,2294
0.3791813616,2295
0.3810575757,2296
0.3613263313,2297
0.3390613617,2298
0.7168872434,2299
0.6184883228,2300
0.555672374,2301
0.4387275672,2302
0.4167396818,2303
0.7264906225,2304
0.6823451659,2305
0.5492330549,2306
0.3982882378,2307
0.3458050671,2308
0.4807106632,2309
0.7138067262,2310
0.4995122883,2311
0.4926016655,2312
0.3946870215,2313
0.395841572,2314
0.7988547565,2315
0.5570478887,2316
0.3871010626,2317
0.368306566,2318
0.2744894431,2319
0.6775844538,2320
0.7169564314,2321
0.5662885149,2322
0.4159217439,2323
0.3595195798,2324
0.6106877978,2325
0.7351128298,2326
0.4648486035,2327
0.3797368348,2328
0.4211778193,2329
0.3763415025,2330
0.7287065898,2331
0.6954825987,2332
0.3799876752,2333
0.3370936303,2334
0.388802778,2335
0.4560070116,2336
0.7532680211,2337
0.5162624173,2338
0.4228486609,2339
0.345795711,2340
0.4039113029,2341
0.7492279183,2342
0.4880738391,2343
0.5059010216,2344
0.4047083349,2345
0.3219667294,2346
0.6586336685,2347
0.6844254114,2348
0.4640074242,2349
0.3295229986,2350
0.3108949687,2351
0.4994732024,2352
0.8105121711,2353
0.4186733732,2354
0.4286544932,2355
0.3196286019,2356
0.3574407986,2357
0.6750368279,2358
0.7293953416,2359
0.5457876979,2360
0.4067379709,2361
0.2977213222,2362
0.6232716975,2363
0.6544269603,2364
0.4991359741,2365
0.4164661257,2366
0.3360294122,2367
0.4388859274,2368
0.7569408106,2369
0.6218173458,2370
0.5642216048,2371
0.3844845237,2372
0.3767863641,2373
0.7850015787,2374
0.561420458,2375
0.6483887754,2376
0.3918443283,2377
0.3159969019,2378
0.4609730898,2379
0.8014477335,2380
0.4927849085,2381
0.5389857677,2382
0.4976593618,2383
0.4438266041,2384
0.7490466365,2385
0.557088364,2386
0.5348154788,2387
0.4564448642,2388
0.4821128132,2389
0.6048302741,2390
0.7785580907,2391
0.484686465,2392
0.4327557593,2393
0.386267541,2394
0.6522757161,2395
0.765089933,2396
0.5083269678,2397
0.4817474812,2398
0.4816528327,2399
0.5183661429,2400
0.5895376947,2401
0.6170452036,2402
0.4919413847,2403
0.4651188325,2404
0.3351162815,2405
0.5944190568,2406
0.6411105016,2407
0.424088781,2408
0.4283024267,2409
0.4358114765,2410
0.5183443584,2411
0.8250008479,2412
0.6113587393,2413
0.5515432921,2414
0.3992444736,2415
0.3084098214,2416
0.6143521596,2417
0.6334747343,2418
0.4327564561,2419
0.3917203453,2420
0.3523003286,2421
0.452028044,2422
0.8188171159,2423
0.4459894572,2424
0.6484949722,2425
0.4205283946,2426
0.4442387295,2427
0.704423537,2428
0.6049678157,2429
0.5589678125,2430
0.4337882,2431
0.4703197244,2432
0.6990186345,2433
0.7425778184,2434
0.5148667291,2435
0.5209935358,2436
0.3852555564,2437
0.5421518091,2438
0.7661207325,2439
0.5257856735,2440
0.4923668998,2441
0.3370740303,2442
0.2700836904,2443
0.534285638,2444
0.7446435769,2445
0.6031513457,2446
0.4862048289,2447
0.4368520997,2448
0.5923397159,2449
0.7802779826,2450
0.4890441956,2451
0.5576819364,2452
0.4404641452,2453
0.448860022,2454
0.7251212529,2455
0.6256151744,2456
0.5198618798,2457
0.3987940209,2458
0.3575797541,2459
0.684585969,2460
0.5733912737,2461
0.3836392201,2462
0.3600178432,2463
0.3112927216,2464
0.3551611236,2465
0.7162849897,2466
0.6458007211,2467
0.6124548935,2468
0.5129543085,2469
0.5972966306,2470
0.7133142872,2471
0.4601871593,2472
0.3942388634,2473
0.3467782892,2474
0.2805300403,2475
0.6661648738,2476
0.7264093679,2477
0.5534442192,2478
0.4399083354,2479
0.2947230043,2480
0.5675701514,2481
0.7771568928,2482
0.5130468706,2483
0.5495898006,2484
0.4551255336,2485
0.3252662352,2486
0.5410883394,2487
0.6459326324,2488
0.5358575928,2489
0.4893502426,2490
0.29279438,2491
0.6218402153,2492
0.6902274798,2493
0.5670298047,2494
0.4337792474,2495
0.3227021579,2496
0.4127211448,2497
0.7428484549,2498
0.5838218109,2499
0.4986273545,2500
0.3188669527,2501
0.3119153977,2502
0.6979119707,2503
0.5701997646,2504
0.500210302,2505
0.4144047432,2506
0.2825441259,2507
0.5494383744,2508
0.7889566081,2509
0.4873126593,2510
0.49286457,2511
0.285305543,2512
0.4181708385,2513
0.7692717839,2514
0.5645651465,2515
0.5075173932,2516
0.4166724613,2517
0.3190646657,2518
0.5604210496,2519
0.7434586358,2520
0.5280472563,2521
0.5399876989,2522
0.4020546778,2523
0.4155408266,2524
0.7108742721,2525
0.5365082068,2526
0.3994805295,2527
0.3716885531,2528
0.3311804303,2529
0.482235582,2530
0.6676244142,2531
0.6522279315,2532
0.6880206894,2533
0.5031796674,2534
0.4459895734,2535
0.7972160877,2536
0.6173451261,2537
0.5023085395,2538
0.4381128012,2539
0.3693589082,2540
0.5981446217,2541
0.7984002953,2542
0.4506282272,2543
0.4443809419,2544
0.3778362839,2545
0.4395054254,2546
0.769937565,2547
0.5883568052,2548
0.4176264645,2549
0.3904923599,2550
0.3819474672,2551
0.7260844975,2552
0.726697006,2553
0.6172918843,2554
0.4975784281,2555
0.3019973831,2556
0.6286540869,2557
0.7747190296,2558
0.6163182303,2559
0.6487864019,2560
0.4586820216,2561
0.3987992012,2562
0.7968739632,2563
0.5730295825,2564
0.5372463361,2565
0.3379589426,2566
0.3261770396,2567
0.5880003171,2568
0.6289794007,2569
0.4978024942,2570
0.3911019291,2571
0.4140889744,2572
0.6232007459,2573
0.6738010788,2574
0.5827508977,2575
0.5416925073,2576
0.444952703,2577
0.438132067,2578
0.7722110357,2579
0.6909196349,2580
0.5641153199,2581
0.4431708217,2582
0.3656916838,2583
0.7265719083,2584
0.7069115382,2585
0.3926618832,2586
0.2904536861,2587
0.2535440702,2588
0.4988644555,2589
0.7737330532,2590
0.5300356276,2591
0.4498707155,2592
0.4304555606,2593
0.4001745394,2594
0.6128488474,2595
0.681544966,2596
0.4826493671,2597
0.4659263246,2598
0.413716344,2599
0.6874136644,2600
0.7127505317,2601
0.4137522649,2602
0.3297403327,2603
0.2753908012,2604
0.6126357121,2605
0.7227394829,2606
0.4484309423,2607
0.4612528207,2608
0.3374492769,2609
0.3367801076,2610
0.7950261933,2611
0.4866086743,2612
0.5923982183,2613
0.3235822003,2614
0.3052294923,2615
0.6822548951,2616
0.5383309759,2617
0.4894272881,2618
0.4997923602,2619
0.3544158427,2620
0.5986083564,2621
0.7719932379,2622
0.4814237192,2623
0.4737725552,2624
0.4010282891,2625
0.552660959,2626
0.7779652358,2627
0.3891797693,2628
0.6292484034,2629
0.4262246868,2630
0.5066767077,2631
0.7452144379,2632
0.6753962627,2633
0.532987511,2634
0.3822715042,2635
0.3037507999,2636
0.5936202291,2637
0.7654204877,2638
0.4251031223,2639
0.2630356042,2640
0.3946792308,2641
0.395052555,2642
0.7431446644,2643
0.5361258638,2644
0.5596743619,2645
0.475278952,2646
0.4423902731,2647
0.7727193798,2648
0.5154523767,2649
0.5424853574,2650
0.3528826968,2651
0.3429489753,2652
0.6355166061,2653
0.6683868057,2654
0.5346216497,2655
0.6068343103,2656
0.5531568991,2657
0.5434223044,2658
0.7604079719,2659
0.4948030938,2660
0.4517719034,2661
0.5015427728,2662
0.4325261067,2663
0.7352466339,2664
0.7087897806,2665
0.3999521781,2666
0.4075590258,2667
0.4085149065,2668
0.5461603443,2669
0.7698846387,2670
0.5208224485,2671
0.3690357243,2672
0.3377662067,2673
0.4642820771,2674
0.7264834332,2675
0.6235643323,2676
0.5703892994,2677
0.6164060017,2678
0.5412754499,2679
0.6668033296,2680
0.6719210032,2681
0.4363600215,2682
0.4176954198,2683
0.3870830677,2684
0.5919021073,2685
0.6911657292,2686
0.494264467,2687
0.5055926473,2688
0.4920208408,2689
0.5449749785,2690
0.7906536648,2691
0.4769090328,2692
0.6016587432,2693
0.5525377459,2694
0.4687599618,2695
0.7259148913,2696
0.6941186361,2697
0.5472314791,2698
0.3827521483,2699
0.3291283817,2700
0.3669233564,2701
0.7255747254,2702
0.6750344323,2703
0.6680872226,2704
0.666127456,2705
0.5839777115,2706
0.6635197799,2707
0.6825143928,2708
0.5113551749,2709
0.4161255436,2710
0.4015854016,2711
0.4988549383,2712
0.6946044806,2713
0.4372779179,2714
0.4208788744,2715
0.3753541977,2716
0.3403743822,2717
0.7115153541,2718
0.6129897944,2719
0.5412237376,2720
0.3761006285,2721
0.2913957069,2722
0.5627786263,2723
0.775162134,2724
0.4728509589,2725
0.4623787906,2726
0.3323903632,2727
0.4366121173,2728
0.7990041128,2729
0.549786199,2730
0.515581853,2731
0.3532046963,2732
0.3469800688,2733
0.6610867238,2734
0.6783537894,2735
0.4821838955,2736
0.3550039257,2737
0.2577355929,2738
0.4361101336,2739
0.7804345989,2740
0.5168714369,2741
0.5076431555,2742
0.277318856,2743
0.319156374,2744
0.6878154205,2745
0.6396279064,2746
0.5130240491,2747
0.4125145931,2748
0.3068090296,2749
0.6103215262,2750
0.7473507519,2751
0.5577924328,2752
0.4380149391,2753
0.3740191458,2754
0.3706712043,2755
0.8150492905,2756
0.6562987212,2757
0.543144392,2758
0.3155832755,2759
0.266554128,2760
0.6533102593,2761
0.6671483911,2762
0.43004018,2763
0.3485321569,2764
0.2625907479,2765
0.4822724336,2766
0.7793750596,2767
0.5110144724,2768
0.4076662305,2769
0.3337159506,2770
0.6271860518,2771
0.8030583529,2772
0.4829646393,2773
0.4996914983,2774
0.4269003725,2775
0.4282120283,2776
0.7258045301,2777
0.6424743328,2778
0.428680938,2779
0.4075305712,2780
0.3215178572,2781
0.4567960767,2782
0.8197994718,2783
0.4077035319,2784
0.4547895803,2785
0.3951343549,2786
0.3627753549,2787
0.6705623029,2788
0.6887163698,2789
0.5208327694,2790
0.3682410019,2791
0.3142345952,2792
0.7197339371,2793
0.75480438,2794
0.468816245,2795
0.4219013802,2796
0.4006088067,2797
0.3913561146,2798
0.4811182533,2799
0.5039551905,2800
0.4135092127,2801
0.3913420128,2802
0.2860163764,2803
0.5157200639,2804
0.7374420794,2805
0.4950041071,2806
0.5000113992,2807
0.4511233928,2808
0.4034388508,2809
0.4433469542,2810
0.4217244588,2811
0.384481532,2812
0.3814876862,2813
0.3350506134,2814
0.3559773145,2815
0.345598526,2816
0.3561147185,2817
0.3407396051,2818
0.3614001412,2819
0.3617323608,2820
0.3355014169,2821
0.3408965565,2822
0.3179267139,2823
0.322501082,2824
0.3218782882,2825
0.3147233725,2826
0.3168945954,2827
0.3455775008,2828
0.3136067153,2829
0.3032975363,2830
0.3195507191,2831
0.5840593378,2832
0.3916157431,2833
0.3916922696,2834
0.3573934308,2835
0.3331635494,2836
0.597706068,2837
0.5755944023,2838
0.494541133,2839
0.4263274539,2840
0.3571918829,2841
0.6165207598,2842
0.5330857824,2843
0.4163033665,2844
0.3431223127,2845
0.3721098207,2846
0.3937811693,2847
0.6715416443,2848
0.6679134666,2849
0.4780562058,2850
0.4694800818,2851
0.5456738337,2852
0.7656209416,2853
0.594164003,2854
0.5000734489,2855
0.455505852,2856
0.3972584319,2857
0.6573458003,2858
0.723975143,2859
0.5686375437,2860
0.5161120621,2861
0.4615197813,2862
0.6204491137,2863
0.7045316292,2864
0.4795735684,2865
0.4688855695,2866
0.4851189043,2867
0.6152104937,2868
0.7399955278,2869
0.4612770161,2870
0.443677205,2871
0.4918397573,2872
0.5053400854,2873
0.7985698688,2874
0.5450110753,2875
0.4510655566,2876
0.2564375979,2877
0.3700923413,2878
0.6883909883,2879
0.6541504429,2880
0.5306511337,2881
0.4844280065,2882
0.4404001605,2883
0.7114326021,2884
0.7037145687,2885
0.6175897557,2886
0.5001652717,2887
0.5281202169,2888
0.6469670397,2889
0.7335095859,2890
0.5594164753,2891
0.6034629271,2892
0.4428222841,2893
0.6375713242,2894
0.7953416112,2895
0.4559935209,2896
0.4847089825,2897
0.4827421962,2898
0.4881436297,2899
0.7743408626,2900
0.6343211857,2901
0.4608527957,2902
0.3803264051,2903
0.5196396205,2904
0.6673341492,2905
0.6777885598,2906
0.4847250392,2907
0.316585374,2908
0.3062043911,2909
0.3972224515,2910
0.7839264752,2911
0.6435663516,2912
0.5485020768,2913
0.541032845,2914
0.4681470628,2915
0.7718937118,2916
0.6475456196,2917
0.3935719201,2918
0.3344934297,2919
0.3267389788,2920
0.514179735,2921
0.8101050931,2922
0.5123012644,2923
0.4328215952,2924
0.4335849974,2925
0.4762652585,2926
0.6992343034,2927
0.5574063571,2928
0.424035756,2929
0.4087324089,2930
0.4196711881,2931
0.6381423644,2932
0.7572559595,2933
0.5616181216,2934
0.5437309297,2935
0.5987167003,2936
0.6009242828,2937
0.8150465889,2938
0.6422613874,2939
0.6340917205,2940
0.5630402814,2941
0.427078187,2942
0.7127394329,2943
0.7497403409,2944
0.5517271852,2945
0.4358199698,2946
0.3971361446,2947
0.4923498298,2948
0.7357241062,2949
0.5679727711,2950
0.5429736919,2951
0.5379387487,2952
0.5615475796,2953
0.6600705943,2954
0.5403960943,2955
0.5341666367,2956
0.395180851,2957
0.3253403298,2958
0.5440051056,2959
0.7508702741,2960
0.5517833305,2961
0.5129772461,2962
0.3114741891,2963
0.4070758265,2964
0.7385349318,2965
0.6586625865,2966
0.5608569056,2967
0.5276251855,2968
0.4588708108,2969
0.6269577299,2970
0.6974417486,2971
0.4824130682,2972
0.5523030631,2973
0.4882609962,2974
0.5225061145,2975
0.7892708363,2976
0.5139933546,2977
0.5386221088,2978
0.4057122183,2979
0.3762062535,2980
0.592486497,2981
0.7355321332,2982
0.4478935926,2983
0.4046209095,2984
0.3980507818,2985
0.6153102744,2986
0.7275784533,2987
0.6405949636,2988
0.5720522198,2989
0.4942358086,2990
0.5361391777,2991
0.7535322946,2992
0.4454202117,2993
0.4403062487,2994
0.3146500533,2995
0.3004751205,2996
0.6151923511,2997
0.669136962,2998
0.5903783406,2999
0.5959046693,3000
0.5768958904,3001
0.7005176099,3002
0.7864584183,3003
0.4916594448,3004
0.5120434402,3005
0.4508137732,3006
0.5672073086,3007
0.7092038835,3008
0.6472149245,3009
0.5380990233,3010
0.4408374044,3011
0.4533995023,3012
0.6229446709,3013
0.7548646158,3014
0.4608604695,3015
0.4138175137,3016
0.4252026555,3017
0.5203243281,3018
0.8251858558,3019
0.6020297546,3020
0.4891794091,3021
0.4344826661,3022
0.3676885213,3023
0.6518260046,3024
0.7394791223,3025
0.484844014,3026
0.4605435558,3027
0.4349637943,3028
0.5534486387,3029
0.7597774522,3030
0.5902280229,3031
0.6204571809,3032
0.5541248196,3033
0.4882267606,3034
0.7223243156,3035
0.6632458763,3036
0.4794017086,3037
0.4538998529,3038
0.3630098785,3039
0.5755091222,3040
0.7632461314,3041
0.4767408047,3042
0.4136387569,3043
0.3741550562,3044
0.3511668381,3045
0.7537521534,3046
0.5647721327,3047
0.383720025,3048
0.4269090771,3049
0.413945209,3050
0.6334081375,3051
0.6733686944,3052
0.5587083342,3053
0.3323388763,3054
0.4006911946,3055
0.5720230137,3056
0.7714840462,3057
0.5430789812,3058
0.5780806774,3059
0.472311858,3060
0.5160153095,3061
0.7037398666,3062
0.4987084119,3063
0.6040796714,3064
0.3133214997,3065
0.3265963206,3066
0.5335501017,3067
0.703823057,3068
0.4348084295,3069
0.345462596,3070
0.3813602553,3071
0.4985533788,3072
0.7472465523,3073
0.531019347,3074
0.4905111574,3075
0.3386033521,3076
0.4236472931,3077
0.7244540054,3078
0.6088844907,3079
0.4898985898,3080
0.2791760077,3081
0.447164219,3082
0.700361286,3083
0.6152178945,3084
0.5891345666,3085
0.4557261564,3086
0.3943081101,3087
0.5300742612,3088
0.7516753698,3089
0.7032298426,3090
0.5950956894,3091
0.5411818101,3092
0.6265221579,3093
0.6595568727,3094
0.6738822605,3095
0.5394397069,3096
0.4481849467,3097
0.5117670643,3098
0.7337792438,3099
0.6857341411,3100
0.5018578676,3101
0.5633307635,3102
0.5547260741,3103
0.8055406102,3104
0.6353228832,3105
0.5976791988,3106
0.4950001756,3107
0.4768305916,3108
0.6321777818,3109
0.7286392649,3110
0.5343088365,3111
0.4233930188,3112
0.4794680443,3113
0.4950322607,3114
0.8047659137,3115
0.6546380691,3116
0.5857455219,3117
0.5093281262,3118
0.4361137973,3119
0.6629741672,3120
0.7442715844,3121
0.5610975702,3122
0.5629806546,3123
0.4837298768,3124
0.4689230882,3125
0.7772096591,3126
0.6139276925,3127
0.6318575878,3128
0.4831472986,3129
0.5007388556,3130
0.658408328,3131
0.729119422,3132
0.5512028942,3133
0.5134972986,3134
0.425837707,3135
0.5531105852,3136
0.7757597133,3137
0.6482889484,3138
0.5617457137,3139
0.4022845098,3140
0.450259636,3141
0.7064361561,3142
0.6055692884,3143
0.5269162913,3144
0.5431351935,3145
0.4785687506,3146
0.6773593494,3147
0.6635563608,3148
0.5357186144,3149
0.5148932086,3150
0.5309698615,3151
0.5451520261,3152
0.7749547477,3153
0.4917798427,3154
0.508397696,3155
0.4568087007,3156
0.4579430302,3157
0.6861476938,3158
0.6696961497,3159
0.4988645817,3160
0.4844591687,3161
0.4482047083,3162
0.6037272434,3163
0.7374104472,3164
0.4856363837,3165
0.4617373948,3166
0.4204178897,3167
0.4709953988,3168
0.7036484267,3169
0.6461618059,3170
0.5221137835,3171
0.4302892711,3172
0.3949604796,3173
0.5160033634,3174
0.773158696,3175
0.4532830423,3176
0.4907792863,3177
0.4197354826,3178
0.3395101539,3179
0.7077926,3180
0.6340995457,3181
0.5882661841,3182
0.5354262666,3183
0.4589449349,3184
0.5054209566,3185
0.7316089364,3186
0.4388528046,3187
0.4900632778,3188
0.2892539637,3189
0.3780445463,3190
0.7130911957,3191
0.6116332137,3192
0.5178028396,3193
0.4493388038,3194
0.4270331879,3195
0.5571181777,3196
0.7713149791,3197
0.5013399153,3198
0.4849826231,3199
0.3877158619,3200
0.4052711006,3201
0.7413964068,3202
0.5284791758,3203
0.5835357583,3204
0.5570383245,3205
0.5117275993,3206
0.6998294725,3207
0.7754616863,3208
0.4283268797,3209
0.3677642704,3210
0.3452058948,3211
0.5024076641,3212
0.7257976335,3213
0.4991147998,3214
0.4951088126,3215
0.3796411909,3216
0.4373041936,3217
0.6678101875,3218
0.5127749752,3219
0.4602615637,3220
0.4613178538,3221
0.3957197988,3222
0.7035192504,3223
0.7091534404,3224
0.5142099898,3225
0.4969418442,3226
0.5334999977,3227
0.6315102005,3228
0.7990075048,3229
0.4614270732,3230
0.4847013242,3231
0.3176449251,3232
0.3846034595,3233
0.6991645878,3234
0.5172295674,3235
0.5250616255,3236
0.3175861573,3237
0.3824977216,3238
0.5995825953,3239
0.7352256823,3240
0.5049555817,3241
0.531630809,3242
0.3674853131,3243
0.528172243,3244
0.746570289,3245
0.5640395002,3246
0.5258497851,3247
0.647124091,3248
0.5602175283,3249
0.71882346,3250
0.7547978241,3251
0.4872587705,3252
0.4654320647,3253
0.468779345,3254
0.6426139128,3255
0.7282755627,3256
0.5580615422,3257
0.5586810803,3258
0.4702181908,3259
0.4336310843,3260
0.668323891,3261
0.7112250842,3262
0.4646717304,3263
0.562594932,3264
0.535766261,3265
0.7130582089,3266
0.7207172722,3267
0.5371407153,3268
0.5479503482,3269
0.5759792163,3270
0.538004874,3271
0.8052705954,3272
0.5711232769,3273
0.5574183497,3274
0.4228384325,3275
0.4570802169,3276
0.7261538584,3277
0.5392206737,3278
0.5747014077,3279
0.4865685426,3280
0.3682285645,3281
0.554674929,3282
0.6768043532,3283
0.5133988932,3284
0.5108190326,3285
0.4208375047,3286
0.532642548,3287
0.7577165416,3288
0.5922953917,3289
0.4990035364,3290
0.3592280178,3291
0.4516513385,3292
0.7358077006,3293
0.5184407547,3294
0.6634938714,3295
0.3714212633,3296
0.3756954108,3297
0.6387613869,3298
0.7137844852,3299
0.4803003678,3300
0.5255701817,3301
0.3364820702,3302
0.5090830062,3303
0.8274381861,3304
0.525007206,3305
0.6469182315,3306
0.4886792738,3307
0.4417276608,3308
0.6690436155,3309
0.6595311489,3310
0.6094648466,3311
0.5584981627,3312
0.4937505761,3313
0.6239780824,3314
0.7158402743,3315
0.4746654942,3316
0.4852365498,3317
0.4639437436,3318
0.4449282729,3319
0.7450968556,3320
0.6162600822,3321
0.4576472041,3322
0.405939364,3323
0.3793310138,3324
0.5547922162,3325
0.8078396243,3326
0.4984720848,3327
0.3066326018,3328
0.3958755134,3329
0.5170012246,3330
0.7274816798,3331
0.5256340411,3332
0.5522421605,3333
0.3490620588,3334
0.4091886269,3335
0.7055744226,3336
0.6007716191,3337
0.5015818243,3338
0.5777919722,3339
0.5653391607,3340
0.7384734365,3341
0.652237327,3342
0.5308681594,3343
0.3806778974,3344
0.2520220419,3345
0.3787487511,3346
0.7014391235,3347
0.510348394,3348
0.4130643707,3349
0.3717333612,3350
0.4809126261,3351
0.7291292863,3352
0.5599611302,3353
0.6106767049,3354
0.5014923947,3355
0.4293852111,3356
0.7030638626,3357
0.7223556921,3358
0.4386479823,3359
0.4171166322,3360
0.3640817211,3361
0.6889494705,3362
0.6779057359,3363
0.5838428797,3364
0.5107669824,3365
0.4316043086,3366
0.4594806465,3367
0.6874088064,3368
0.481655985,3369
0.409018519,3370
0.3827586662,3371
0.4347188407,3372
0.7042239226,3373
0.5492930389,3374
0.5422203609,3375
0.3876883956,3376
0.4030859098,3377
0.5634254583,3378
0.6255721146,3379
0.4901938166,3380
0.3564768166,3381
0.3312944446,3382
0.4799318718,3383
0.7299931155,3384
0.503025636,3385
0.5278498956,3386
0.4061492748,3387
0.4965677982,3388
0.7336843844,3389
0.6569799902,3390
0.6033312876,3391
0.6558687771,3392
0.5910954375,3393
0.6621912841,3394
0.7845581174,3395
0.5459898484,3396
0.579332418,3397
0.6142679991,3398
0.6422821487,3399
0.7677866934,3400
0.4890233033,3401
0.5311642609,3402
0.4287189569,3403
0.3836952115,3404
0.717353243,3405
0.6638899101,3406
0.4505622804,3407
0.3415844049,3408
0.3857105766,3409
0.4804906449,3410
0.795542837,3411
0.5480988463,3412
0.4392138593,3413
0.4847197123,3414
0.4473793249,3415
0.7459457074,3416
0.5779075025,3417
0.581691633,3418
0.4349062102,3419
0.483497738,3420
0.7256562131,3421
0.770606588,3422
0.5185730641,3423
0.4475527033,3424
0.4688954991,3425
0.5983021101,3426
0.7621840302,3427
0.4773847982,3428
0.5365460263,3429
0.3714790403,3430
0.473797773,3431
0.7393542677,3432
0.6201151464,3433
0.5843964995,3434
0.443493028,3435
0.4518571533,3436
0.6901859151,3437
0.7298177811,3438
0.6027554827,3439
0.5219005918,3440
0.514631761,3441
0.6624376905,3442
0.7497690881,3443
0.5908731508,3444
0.603043652,3445
0.5483704008,3446
0.6349852823,3447
0.6587773055,3448
0.6255320299,3449
0.5723965678,3450
0.4856437166,3451
0.520868087,3452
0.794056637,3453
0.6063087303,3454
0.4783381378,3455
0.4560931502,3456
0.4600502728,3457
0.6721087687,3458
0.7226288846,3459
0.6075775961,3460
0.5153422919,3461
0.5116724338,3462
0.5254605548,3463
0.733083387,3464
0.6031412674,3465
0.5852436579,3466
0.5147205132,3467
0.5589070382,3468
0.6886816497,3469
0.6799757615,3470
0.5708951181,3471
0.4702579266,3472
0.4120005961,3473
0.628743443,3474
0.696328302,3475
0.4767827912,3476
0.4609640603,3477
0.4106078677,3478
0.464876802,3479
0.7417102977,3480
0.7264382433,3481
0.6019635067,3482
0.4237590805,3483
0.4159014015,3484
0.6982009586,3485
0.5723712517,3486
0.5125524592,3487
0.4494489076,3488
0.5055761851,3489
0.7003734502,3490
0.6728855118,3491
0.5228144409,3492
0.4821415981,3493
0.4479400036,3494
0.5804814894,3495
0.7562649263,3496
0.5508815787,3497
0.6130355208,3498
0.569533877,3499
0.572759115,3500
0.7284334393,3501
0.7321676748,3502
0.5645980111,3503
0.4675013835,3504
0.4532893673,3505
0.5410111499,3506
0.7172825131,3507
0.4965192946,3508
0.5553503109,3509
0.462179753,3510
0.461978369,3511
0.6699696233,3512
0.6135856007,3513
0.5688365507,3514
0.3745690037,3515
0.4291565636,3516
0.5387525645,3517
0.7739632632,3518
0.4992002155,3519
0.5268328997,3520
0.4333989994,3521
0.5001884046,3522
0.7653995562,3523
0.6028031206,3524
0.4611478748,3525
0.3688371135,3526
0.3853770121,3527
0.5644161638,3528
0.7059184518,3529
0.4225534935,3530
0.51498304,3531
0.4116982674,3532
0.4098076114,3533
0.603856837,3534
0.735182967,3535
0.5480394515,3536
0.4867949256,3537
0.5149016011,3538
0.5082049609,3539
0.6558426885,3540
0.622603573,3541
0.5910660899,3542
0.467262204,3543
0.4847304785,3544
0.6983142475,3545
0.7585874731,3546
0.5358597025,3547
0.5154881462,3548
0.442778268,3549
0.4296853235,3550
0.6959768312,3551
0.6802090951,3552
0.6147515067,3553
0.4812694027,3554
0.4823780462,3555
0.6546591092,3556
0.7400541046,3557
0.5619650246,3558
0.5097158474,3559
0.4505372596,3560
0.5750574109,3561
0.7779420829,3562
0.5359074225,3563
0.4480334528,3564
0.6303070144,3565
0.7326411169,3566
0.6851875493,3567
0.5552976365,3568
0.8004441874,3569
0.5812905259,3570
0.4788276938,3571
0.5282344147,3572
0.7472990566,3573
0.4983996175,3574
0.7495372821,3575
0.6682950098,3576
0.4692803097,3577
0.6564001364,3578
0.5726729941,3579
0.4757614383,3580
0.3912520637,3581
0.3958538758,3582
0.424566818,3583
0.4369498415,3584
0.3746888994,3585
0.3792744495,3586
0.316606608,3587
0.3812803811,3588
0.308858879,3589
0.2488629797,3590
0.2854898461,3591
0.3031200895,3592
0.3752050855,3593
0.3695386175,3594
0.4664700331,3595
0.3277773627,3596
0.2655780844,3597
0.2728682715,3598
0.2648971677,3599
0.2326344641,3600
0.2204606022,3601
0.2543040193,3602
0.2115448569,3603
0.2029760837,3604
0.2391298115,3605
0.1586164551,3606
0.1478156778,3607
0.2301007041,3608
0.2471715093,3609
0.2243778268,3610
0.2422248204,3611
0.2202253286,3612
0.1257486644,3613
0.115579621,3614
0.1026544149,3615
0.08669533291,3616
0.08493780699,3617
0.0868366759,3618
0.1700413857,3619
0.5778304053,3620
0.6807658103,3621
0.4542663127,3622
0.5209671706,3623
0.5414388364,3624
0.7477050595,3625
0.672799891,3626
0.6156340019,3627
0.4495867277,3628
0.4754408696,3629
0.4926030687,3630
0.7722526334,3631
0.6533888917,3632
0.4870208089,3633
0.410256863,3634
0.4845104282,3635
0.7663645536,3636
0.5023327902,3637
0.557249146,3638
0.4999890328,3639
0.4155019202,3640
0.709038603,3641
0.7218983441,3642
0.6162255918,3643
0.5058744871,3644
0.6177579091,3645
0.6065821001,3646
0.7372349995,3647
0.5395933913,3648
0.6017251932,3649
0.3944757216,3650
0.487508549,3651
0.7202819592,3652
0.6370298113,3653
0.5913700475,3654
0.4552863303,3655
0.377472564,3656
0.6346472694,3657
0.7015072923,3658
0.5277430674,3659
0.4171031126,3660
0.2749457758,3661
0.5501390062,3662
0.7650450048,3663
0.4225253014,3664
0.4398587333,3665
0.2872929884,3666
0.32780985,3667
0.6286038515,3668
0.7058569228,3669
0.4774388952,3670
0.3057682555,3671
0.2855190499,3672
0.6498252138,3673
0.7566325426,3674
0.4724749326,3675
0.5554846531,3676
0.2998571645,3677
0.443611311,3678
0.6976906587,3679
0.5980538013,3680
0.6118517551,3681
0.6112622954,3682
0.4823238072,3683
0.6511402949,3684
0.7280679084,3685
0.380887959,3686
0.3969201075,3687
0.3287846385,3688
0.3197987217,3689
0.6992802813,3690
0.6253033378,3691
0.5404800908,3692
0.5370868532,3693
0.4527983179,3694
0.732979318,3695
0.7044862963,3696
0.5412219711,3697
0.4258106708,3698
0.3943801165,3699
0.4482452426,3700
0.7418160299,3701
0.5800252323,3702
0.536392499,3703
0.4672647166,3704
0.5062223693,3705
0.72067236,3706
0.6158075503,3707
0.5234826396,3708
0.5027423437,3709
0.4763339518,3710
0.5816033557,3711
0.7582729141,3712
0.5494157777,3713
0.5373161801,3714
0.4673795348,3715
0.5869710452,3716
0.7838033646,3717
0.6618618614,3718
0.6558135872,3719
0.4654794892,3720
0.4004256647,3721
0.6715841724,3722
0.6796085903,3723
0.5702108948,3724
0.4756288968,3725
0.5010219714,3726
0.7043973237,3727
0.6561691574,3728
0.5613599083,3729
0.4835323502,3730
0.4578664309,3731
0.508045812,3732
0.7369384676,3733
0.6883832546,3734
0.5010138105,3735
0.5087830189,3736
0.5898340112,3737
0.8021280791,3738
0.5641056947,3739
0.4951171005,3740
0.500379996,3741
0.4327008363,3742
0.6489544355,3743
0.7980405748,3744
0.536962226,3745
0.4109050495,3746
0.4174047709,3747
0.4926245692,3748
0.753022609,3749
0.5194134553,3750
0.6195005641,3751
0.512282831,3752
0.4146072292,3753
0.6332692033,3754
0.6682102657,3755
0.475053457,3756
0.3780660998,3757
0.3189100552,3758
0.567845295,3759
0.7961816545,3760
0.4791415466,3761
0.4336506686,3762
0.3824947564,3763
0.3485855736,3764
0.666357064,3765
0.6919246049,3766
0.4182645015,3767
0.3843403379,3768
0.3740087435,3769
0.475191818,3770
0.828251511,3771
0.5142328374,3772
0.4724726452,3773
0.2947001214,3774
0.3800049934,3775
0.7477000263,3776
0.7261823476,3777
0.5681071755,3778
0.4613438347,3779
0.4176016883,3780
0.7423913333,3781
0.6837674482,3782
0.6040743201,3783
0.5428889628,3784
0.4321690599,3785
0.6356680602,3786
0.7447819378,3787
0.7002083774,3788
0.6298246227,3789
0.4779198936,3790
0.4754414104,3791
0.7512966278,3792
0.6410820432,3793
0.4995431543,3794
0.4595523892,3795
0.419173606,3796
0.6736480869,3797
0.7557251937,3798
0.4224809331,3799
0.4201574312,3800
0.3598847036,3801
0.6287959064,3802
0.7549040368,3803
0.526954653,3804
0.5605465503,3805
0.5562160714,3806
0.4656785253,3807
0.7692595065,3808
0.6250530896,3809
0.5502491104,3810
0.3957093559,3811
0.3866177779,3812
0.6272266542,3813
0.7279536946,3814
0.6367441509,3815
0.5838411012,3816
0.4385383031,3817
0.3754050219,3818
0.8096368188,3819
0.5504589541,3820
0.4672398632,3821
0.3750850967,3822
0.4489649535,3823
0.7042213853,3824
0.7324919997,3825
0.5750298214,3826
0.5781125286,3827
0.5089989894,3828
0.6110083778,3829
0.7291554413,3830
0.5319686943,3831
0.5739391393,3832
0.3612031557,3833
0.4472800311,3834
0.7637326467,3835
0.5862172307,3836
0.6054043332,3837
0.4380209735,3838
0.4462139415,3839
0.5433460653,3840
0.7407101995,3841
0.5241090864,3842
0.5771598281,3843
0.3425979421,3844
0.6768032303,3845
0.7524294301,3846
0.4760035466,3847
0.5057618626,3848
0.3558305824,3849
0.4071409612,3850
0.7227359241,3851
0.6384350418,3852
0.5749811176,3853
0.469385183,3854
0.4583273267,3855
0.6752691356,3856
0.6993293034,3857
0.5770667435,3858
0.4929947637,3859
0.3822891755,3860
0.4584119413,3861
0.7475604636,3862
0.5179181665,3863
0.4180160676,3864
0.322223774,3865
0.592440429,3866
0.6984729115,3867
0.6673238172,3868
0.5233928462,3869
0.4603901995,3870
0.4532668815,3871
0.6554659913,3872
0.6561291654,3873
0.4795337519,3874
0.4519878397,3875
0.3699930655,3876
0.5484612967,3877
0.757431407,3878
0.5814931194,3879
0.5605317011,3880
0.4579888377,3881
0.5275254637,3882
0.7695368383,3883
0.6038170552,3884
0.5488957869,3885
0.4272483605,3886
0.3607295428,3887
0.6885960049,3888
0.7680882557,3889
0.5292642675,3890
0.4856234273,3891
0.4864250622,3892
0.5581867453,3893
0.7406557076,3894
0.5762742667,3895
0.5353933466,3896
0.4898012928,3897
0.5080477293,3898
0.7492130548,3899
0.6789162791,3900
0.5519102575,3901
0.4395383272,3902
0.4948600108,3903
0.6090604699,3904
0.7368070863,3905
0.6435441533,3906
0.6236034358,3907
0.4028666516,3908
0.6386571492,3909
0.7347713409,3910
0.536879052,3911
0.5504936122,3912
0.4361901209,3913
0.4989893552,3914
0.690152915,3915
0.5546531372,3916
0.4697113817,3917
0.3745814735,3918
0.3245706524,3919
0.6362997249,3920
0.7279275092,3921
0.4513202603,3922
0.3695357135,3923
0.2613278173,3924
0.5205832865,3925
0.7350183751,3926
0.4168277882,3927
0.4053298763,3928
0.3180656632,3929
0.4472643327,3930
0.750178292,3931
0.648154375,3932
0.4952889027,3933
0.3746886789,3934
0.4311696593,3935
0.7144642462,3936
0.6512307582,3937
0.5328614066,3938
0.5810354736,3939
0.4445754154,3940
0.4635701479,3941
0.756410946,3942
0.455436401,3943
0.5499900716,3944
0.3769914078,3945
0.4344126739,3946
0.7241218671,3947
0.5447265667,3948
0.5329552989,3949
0.3259007521,3950
0.3642489538,3951
0.7190383848,3952
0.6194893847,3953
0.6036571162,3954
0.4873026066,3955
0.4352304159,3956
0.5664012918,3957
0.7123296823,3958
0.5471047219,3959
0.5528754253,3960
0.5553705753,3961
0.4934446223,3962
0.6580384023,3963
0.6992408733,3964
0.562038458,3965
0.5519111064,3966
0.4497790698,3967
0.6115418151,3968
0.734915066,3969
0.4896528412,3970
0.4865106784,3971
0.4764021857,3972
0.5767131964,3973
0.6818931741,3974
0.6384264472,3975
0.5279264706,3976
0.4699820338,3977
0.5045080182,3978
0.677434183,3979
0.6970146465,3980
0.6394943333,3981
0.4290601201,3982
0.501909613,3983
0.6255794673,3984
0.7547252981,3985
0.6533050341,3986
0.5788198894,3987
0.5304297339,3988
0.574460077,3989
0.73015236,3990
0.4862146228,3991
0.6660561019,3992
0.4458758563,3993
0.4452455277,3994
0.8159770335,3995
0.6246104579,3996
0.5255126031,3997
0.4347135872,3998
0.4671879134,3999
0.6378452144,4000
0.7483844374,4001
0.5686021744,4002
0.4967450875,4003
0.462268378,4004
0.4658141818,4005
0.6767859343,4006
0.4970418269,4007
0.4708685075,4008
0.3424246184,4009
0.3690199678,4010
0.7094946151,4011
0.6255973845,4012
0.5176593719,4013
0.4273183171,4014
0.3319544153,4015
0.6200877912,4016
0.7712908738,4017
0.4698726042,4018
0.5851333383,4019
0.3872382801,4020
0.4420421645,4021
0.7745195705,4022
0.6112963816,4023
0.5596987634,4024
0.4698882373,4025
0.5252510354,4026
0.7437096595,4027
0.5374012819,4028
0.6018891822,4029
0.3324550174,4030
0.3594608451,4031
0.3959961464,4032
0.7556743016,4033
0.472240857,4034
0.5961016738,4035
0.456054215,4036
0.3699217904,4037
0.7367565688,4038
0.6916816996,4039
0.556322572,4040
0.4921326878,4041
0.4369957617,4042
0.6887077737,4043
0.807365864,4044
0.5430061156,4045
0.5380351062,4046
0.4361962176,4047
0.4810244687,4048
0.7248429703,4049
0.5211974448,4050
0.5499824941,4051
0.4851151248,4052
0.4937845777,4053
0.7071365029,4054
0.6896633206,4055
0.545107548,4056
0.4221195713,4057
0.4619217915,4058
0.5247187327,4059
0.7764943395,4060
0.5849193765,4061
0.5062930887,4062
0.4324674217,4063
0.5281297958,4064
0.8005982427,4065
0.5335705071,4066
0.5388473677,4067
0.4310007853,4068
0.3785681471,4069
0.6123102302,4070
0.6734146149,4071
0.5713511378,4072
0.4798713207,4073
0.4014653128,4074
0.567219052,4075
0.7216339105,4076
0.6382863681,4077
0.6041513291,4078
0.4903638649,4079
0.4071403871,4080
0.7551930578,4081
0.5675613604,4082
0.6052033215,4083
0.4526002825,4084
0.4010092885,4085
0.6111094574,4086
0.6573976744,4087
0.5735037625,4088
0.4729559052,4089
0.4537950293,4090
0.5686477854,4091
0.7627685921,4092
0.5150550881,4093
0.5917607156,4094
0.4718063321,4095
0.4914701393,4096
0.7659335756,4097
0.61230877,4098
0.5534413455,4099
0.4215100769,4100
0.4529637272,4101
0.7680836063,4102
0.6504173698,4103
0.6060084188,4104
0.6266188342,4105
0.4990788127,4106
0.5256398351,4107
0.7869807959,4108
0.5247759978,4109
0.52813678,4110
0.4260229088,4111
0.4467216838,4112
0.7002458021,4113
0.7476791174,4114
0.5656103511,4115
0.5229315752,4116
0.4214722008,4117
0.592160864,4118
0.8108644438,4119
0.5700553405,4120
0.5632794858,4121
0.3623202052,4122
0.4404188638,4123
0.7027215512,4124
0.5946112427,4125
0.4820836994,4126
0.38698041,4127
0.4334447552,4128
0.737345413,4129
0.4848922701,4130
0.54041585,4131
0.474577492,4132
0.3556903894,4133
0.5822076325,4134
0.7131150594,4135
0.5620903214,4136
0.5752928916,4137
0.5395410062,4138
0.5441627097,4139
0.7467696274,4140
0.5022498764,4141
0.5199612323,4142
0.3683664914,4143
0.3801650243,4144
0.6985325318,4145
0.7579376989,4146
0.5598778424,4147
0.4214700732,4148
0.4809526685,4149
0.6530622748,4150
0.7054877772,4151
0.5509827615,4152
0.5435758641,4153
0.4609647268,4154
0.5124407116,4155
0.7231624489,4156
0.6064248148,4157
0.6403772461,4158
0.5300201669,4159
0.5028382252,4160
0.7843553268,4161
0.7235718436,4162
0.6301140495,4163
0.5881503937,4164
0.4918729703,4165
0.5829237369,4166
0.7445739272,4167
0.5469938682,4168
0.5395347678,4169
0.4086947125,4170
0.5013364891,4171
0.7194607191,4172
0.5425979914,4173
0.4790779079,4174
0.4550860442,4175
0.3495450016,4176
0.6600562099,4177
0.6731814784,4178
0.5621748525,4179
0.3308817202,4180
0.3692932473,4181
0.600703519,4182
0.734567556,4183
0.4521801888,4184
0.4590845971,4185
0.3876199675,4186
0.4136693661,4187
0.6939722127,4188
0.5970826666,4189
0.5753684605,4190
0.4316049235,4191
0.3486508862,4192
0.6822149091,4193
0.7308501651,4194
0.4227810762,4195
0.2426985421,4196
0.3419818225,4197
0.4181412132,4198
0.8226161472,4199
0.4987142051,4200
0.4651657188,4201
0.3502597586,4202
0.3570251094,4203
0.6942152477,4204
0.7050229646,4205
0.5183715846,4206
0.3979777948,4207
0.3823511061,4208
0.6087199983,4209
0.7079244943,4210
0.5821104645,4211
0.5529124487,4212
0.4018344946,4213
0.4569614168,4214
0.7312894998,4215
0.5664344214,4216
0.6259282304,4217
0.6472204417,4218
0.5100024229,4219
0.6742282266,4220
0.708666364,4221
0.532258695,4222
0.4237113694,4223
0.5024168566,4224
0.5549070947,4225
0.7929042764,4226
0.596110489,4227
0.4999135407,4228
0.4764232356,4229
0.4788530062,4230
0.7524540834,4231
0.7073125892,4232
0.6278307066,4233
0.6644256422,4234
0.5096843831,4235
0.6976439123,4236
0.681429681,4237
0.5447771851,4238
0.4964583542,4239
0.4717141644,4240
0.5437021673,4241
0.7355095513,4242
0.5631661446,4243
0.609967294,4244
0.6436064195,4245
0.5897846234,4246
0.7461655258,4247
0.6750463571,4248
0.5480588737,4249
0.4815366051,4250
0.390500636,4251
0.6253634144,4252
0.6308045141,4253
0.5402047935,4254
0.4604926293,4255
0.3861982885,4256
0.4803997884,4257
0.6993505435,4258
0.6345733424,4259
0.5243077551,4260
0.4661886949,4261
0.5325872261,4262
0.7916823284,4263
0.532451427,4264
0.6225828304,4265
0.6043712126,4266
0.5187020707,4267
0.4521132954,4268
0.7883534457,4269
0.4336067511,4270
0.4429234361,4271
0.3564897937,4272
0.598089282,4273
0.7982802742,4274
0.5313174248,4275
0.5754312476,4276
0.4009453929,4277
0.3883903654,4278
0.5775754325,4279
0.8210538871,4280
0.5583075693,4281
0.4066619396,4282
0.3868421428,4283
0.4874682759,4284
0.6919905896,4285
0.448512242,4286
0.4583459039,4287
0.4389653831,4288
0.3761195949,4289
0.6717770568,4290
0.6777967333,4291
0.4441698823,4292
0.4432817342,4293
0.4260423678,4294
0.7045594364,4295
0.6611421108,4296
0.622223593,4297
0.4694439691,4298
0.466200834,4299
0.5645700609,4300
0.7593160996,4301
0.5137729901,4302
0.4066096288,4303
0.4474443091,4304
0.4408148664,4305
0.7874431432,4306
0.7047201248,4307
0.497028987,4308
0.4821553917,4309
0.4538229819,4310
0.4723908896,4311
0.63535098,4312
0.5840325617,4313
0.585744015,4314
0.4687508841,4315
0.5227654511,4316
0.7015310654,4317
0.6703814772,4318
0.6063101748,4319
0.5935426969,4320
0.4850770214,4321
0.6921958692,4322
0.7482023494,4323
0.4829439209,4324
0.4944710583,4325
0.4040801814,4326
0.652099684,4327
0.7404732606,4328
0.5232864649,4329
0.5343146196,4330
0.3830431591,4331
0.3451497601,4332
0.7254435426,4333
0.6513794379,4334
0.4682581359,4335
0.4368725452,4336
0.4544242391,4337
0.7338701096,4338
0.658588141,4339
0.5654698302,4340
0.4009368483,4341
0.3605323227,4342
0.5639449961,4343
0.7671824257,4344
0.5993396718,4345
0.5424866623,4346
0.305939914,4347
0.426395455,4348
0.7502836075,4349
0.5872569447,4350
0.559504404,4351
0.419038849,4352
0.4246798809,4353
0.6155577679,4354
0.7574274925,4355
0.5856583413,4356
0.5918055411,4357
0.3289685092,4358
0.5724330243,4359
0.7724380412,4360
0.4919189035,4361
0.5487620862,4362
0.4416697734,4363
0.4557500483,4364
0.6823566528,4365
0.6688392999,4366
0.5510648421,4367
0.468566081,4368
0.4249296174,4369
0.542185698,4370
0.7797938403,4371
0.5582334359,4372
0.5935724908,4373
0.3704993904,4374
0.4644470876,4375
0.6767288038,4376
0.7328060807,4377
0.6143482437,4378
0.4047929222,4379
0.3626974937,4380
0.6860978796,4381
0.7749562827,4382
0.5268629646,4383
0.4564946285,4384
0.4192760836,4385
0.4906475867,4386
0.762410725,4387
0.5407325164,4388
0.5837340625,4389
0.4831907315,4390
0.50984523,4391
0.7668483243,4392
0.6353936829,4393
0.5799071148,4394
0.4467895693,4395
0.3973385,4396
0.528255486,4397
0.7352879683,4398
0.5617635304,4399
0.5069414881,4400
0.3888181775,4401
0.538593761,4402
0.787568402,4403
0.4824819957,4404
0.4077806988,4405
0.4298102154,4406
0.479395363,4407
0.787640153,4408
0.6515571944,4409
0.5201585239,4410
0.5270465402,4411
0.5177827946,4412
0.6444940202,4413
0.6947931465,4414
0.556235193,4415
0.4705397264,4416
0.3885057648,4417
0.4704227697,4418
0.7603553079,4419
0.5279086568,4420
0.5437300468,4421
0.4595704197,4422
0.3630024996,4423
0.6564621131,4424
0.6755510063,4425
0.444236408,4426
0.3948789796,4427
0.3604506132,4428
0.6331882362,4429
0.7963589053,4430
0.6732752882,4431
0.6223123146,4432
0.5435707903,4433
0.4655414244,4434
0.8193002624,4435
0.6483867794,4436
0.5596987904,4437
0.4090798883,4438
0.3684555844,4439
0.6719547392,4440
0.6493322943,4441
0.5191413486,4442
0.3641314278,4443
0.2722029367,4444
0.5477924006,4445
0.7640113559,4446
0.5240182681,4447
0.4544789999,4448
0.3184180647,4449
0.4276962042,4450
0.7799035783,4451
0.4457882692,4452
0.4334525391,4453
0.4009511521,4454
0.3341101246,4455
0.6964227849,4456
0.7176331259,4457
0.3817412606,4458
0.3486655326,4459
0.3176284599,4460
0.4286664353,4461
0.7869512885,4462
0.4137036848,4463
0.2856935765,4464
0.3497328419,4465
0.4149169287,4466
0.7035085486,4467
0.7670806658,4468
0.5091671406,4469
0.464902766,4470
0.473216735,4471
0.6524348539,4472
0.7565806391,4473
0.5245812718,4474
0.465096354,4475
0.4110629052,4476
0.4009364324,4477
0.7923320207,4478
0.6031255323,4479
0.6235118839,4480
0.4534936151,4481
0.5125666248,4482
0.6667913682,4483
0.7427811187,4484
0.6164533779,4485
0.6462845852,4486
0.5387656912,4487
0.4953942597,4488
0.7492158754,4489
0.6433087399,4490
0.5576532761,4491
0.5561082713,4492
0.4471253136,4493
0.6549735991,4494
0.6709190567,4495
0.4842742841,4496
0.5322721043,4497
0.5091270408,4498
0.5662566443,4499
0.7246981881,4500
0.5659192028,4501
0.5075697257,4502
0.3413598944,4503
0.5108700765,4504
0.6997174345,4505
0.6827016246,4506
0.5195757887,4507
0.5227925871,4508
0.4286960521,4509
0.661355951,4510
0.7181666016,4511
0.4907914313,4512
0.4070281907,4513
0.3686640245,4514
0.4758338353,4515
0.7457909012,4516
0.5137332905,4517
0.5031472337,4518
0.4868651391,4519
0.4352846887,4520
0.7056266944,4521
0.5581871525,4522
0.5792638094,4523
0.6299579711,4524
0.4382131319,4525
0.5091846474,4526
0.7627932062,4527
0.4742800621,4528
0.4377912968,4529
0.3053499032,4530
0.6012738159,4531
0.7744900371,4532
0.5676124738,4533
0.5728659172,4534
0.5392540244,4535
0.3703373898,4536
0.5931430982,4537
0.704517261,4538
0.5104070545,4539
0.4367441618,4540
0.3914107053,4541
0.7220249637,4542
0.5680918014,4543
0.5986823215,4544
0.4793970043,4545
0.314756853,4546
0.4345478229,4547
0.6972973638,4548
0.6101603023,4549
0.3708534155,4550
0.3709699145,4551
0.3924485192,4552
0.7159807694,4553
0.6420419084,4554
0.5549553518,4555
0.5469247304,4556
0.4318088352,4557
0.4321597315,4558
0.7250630199,4559
0.5981546278,4560
0.5702505303,4561
0.431796383,4562
0.5157640893,4563
0.7032119324,4564
0.5632044044,4565
0.5955268357,4566
0.4722163039,4567
0.4739743087,4568
0.5307667336,4569
0.7736902987,4570
0.4538795048,4571
0.4451269546,4572
0.3878260964,4573
0.5160676424,4574
0.7347502096,4575
0.5365832252,4576
0.5720671099,4577
0.4414917525,4578
0.4345155773,4579
0.5519355991,4580
0.8006968916,4581
0.5954500775,4582
0.5150721721,4583
0.4419008241,4584
0.4546166606,4585
0.7197679919,4586
0.5791866216,4587
0.3890480375,4588
0.4359010458,4589
0.4674475432,4590
0.6850430031,4591
0.7535237788,4592
0.5173415333,4593
0.4672712682,4594
0.3618671663,4595
0.6859703294,4596
0.7424648982,4597
0.5367027031,4598
0.4377706181,4599
0.4598391643,4600
0.4744010702,4601
0.4965308358,4602
0.7527423483,4603
0.5843984363,4604
0.5139564879,4605
0.3446794689,4606
0.6280062435,4607
0.6661443906,4608
0.4743731535,4609
0.3784626324,4610
0.3880387213,4611
0.4310163051,4612
0.692027495,4613
0.6443473558,4614
0.4601265815,4615
0.3543926329,4616
0.4360264125,4617
0.741242681,4618
0.6625550466,4619
0.5586651797,4620
0.4414310969,4621
0.4839155758,4622
0.6142061862,4623
0.7639580135,4624
0.5551995867,4625
0.4775852728,4626
0.4394489769,4627
0.4279011536,4628
0.6950336506,4629
0.670937368,4630
0.5713237204,4631
0.4945034777,4632
0.4411623298,4633
0.6955005501,4634
0.601765697,4635
0.4718395263,4636
0.419815572,4637
0.3711787296,4638
0.7101635989,4639
0.6805416183,4640
0.5268746271,4641
0.4666713088,4642
0.4103723767,4643
0.4556272694,4644
0.7944953296,4645
0.4689640551,4646
0.5065313185,4647
0.2825656066,4648
0.2580198504,4649
0.6076925374,4650
0.5791911867,4651
0.4884026913,4652
0.4583570304,4653
0.4062522442,4654
0.652671094,4655
0.7851147171,4656
0.4553440887,4657
0.3712781893,4658
0.3777939144,4659
0.4074992514,4660
0.8055635028,4661
0.6537754008,4662
0.564712875,4663
0.555628507,4664
0.5078244086,4665
0.5922752047,4666
0.6658243387,4667
0.5590100447,4668
0.3774000984,4669
0.3376274101,4670
0.6078365418,4671
0.7463292524,4672
0.4391058901,4673
0.4970659342,4674
0.3856074946,4675
0.4269073954,4676
0.8106441444,4677
0.5529756207,4678
0.4771136239,4679
0.3620276129,4680
0.5353831928,4681
0.7069332494,4682
0.6664651929,4683
0.4640510035,4684
0.4022538689,4685
0.4340792483,4686
0.601916769,4687
0.7543477654,4688
0.5719807854,4689
0.5176604526,4690
0.3963832761,4691
0.4537121733,4692
0.7716073556,4693
0.4317857148,4694
0.3675927082,4695
0.4332696081,4696
0.3923534925,4697
0.6132498144,4698
0.7090193716,4699
0.4446117119,4700
0.3862888066,4701
0.2749057751,4702
0.5821669865,4703
0.7045751,4704
0.547287586,4705
0.5035072431,4706
0.4595941007,4707
0.5095755511,4708
0.6726603757,4709
0.6665478338,4710
0.534803033,4711
0.4472998795,4712
0.3989384659,4713
0.7188678257,4714
0.6853224155,4715
0.4431286373,4716
0.349825446,4717
0.2561888352,4718
0.4227813898,4719
0.7646300881,4720
0.497261173,4721
0.6018704302,4722
0.4398288812,4723
0.4697837705,4724
0.6920699674,4725
0.6664533657,4726
0.4782677999,4727
0.3435969184,4728
0.3394655225,4729
0.5347459867,4730
0.7701462618,4731
0.5375895205,4732
0.6152111144,4733
0.495967091,4734
0.4347627074,4735
0.6448729136,4736
0.5708975749,4737
0.48644796,4738
0.4204975787,4739
0.4293979294,4740
0.6611017993,4741
0.7556617389,4742
0.5778278629,4743
0.4256368129,4744
0.3093542436,4745
0.5181910576,4746
0.7687655244,4747
0.6094573957,4748
0.5045551409,4749
0.48154837,4750
0.4316580165,4751
0.6627925512,4752
0.6870524799,4753
0.4124069991,4754
0.3716665931,4755
0.245913711,4756
0.6396673988,4757
0.774480681,4758
0.4741291894,4759
0.3413717532,4760
0.2587513614,4761
0.3280388749,4762
0.7349080943,4763
0.6670966215,4764
0.5469939146,4765
0.3808342707,4766
0.2835269406,4767
0.6805571531,4768
0.7211832894,4769
0.436666965,4770
0.446934432,4771
0.3963120581,4772
0.5637504223,4773
0.7486525691,4774
0.5477179269,4775
0.3982630108,4776
0.3074522127,4777
0.3040051097,4778
0.7334405434,4779
0.5675137117,4780
0.523161197,4781
0.2996670205,4782
0.2598081779,4783
0.5519991464,4784
0.7234014255,4785
0.4661468609,4786
0.4306483447,4787
0.3471363306,4788
0.5690800993,4789
0.6814485645,4790
0.5560250901,4791
0.4834984126,4792
0.3912150898,4793
0.401643245,4794
0.7675082892,4795
0.6908403476,4796
0.4899815894,4797
0.4052852288,4798
0.2901316596,4799
0.4925879402,4800
0.7818410811,4801
0.4970072942,4802
0.5733111996,4803
0.2833497155,4804
0.3606072411,4805
0.8164176326,4806
0.5167140297,4807
0.5908499977,4808
0.3755833111,4809
0.2996607036,4810
0.7559961451,4811
0.7038701352,4812
0.6038799009,4813
0.4525702294,4814
0.344012944,4815
0.6259201021,4816
0.7299171219,4817
0.4688030476,4818
0.6169798944,4819
0.421841306,4820
0.4887887249,4821
0.7599859599,4822
0.5065357061,4823
0.6158868427,4824
0.3358995756,4825
0.3851746913,4826
0.719829179,4827
0.679036786,4828
0.4166638817,4829
0.3234883395,4830
0.3348800665,4831
0.7043956139,4832
0.6700727258,4833
0.5958861563,4834
0.592080592,4835
0.5804720726,4836
0.6707176048,4837
0.7935112548,4838
0.5057569123,4839
0.4712865347,4840
0.4120297176,4841
0.3736183683,4842
0.7391413361,4843
0.5847708253,4844
0.4564974622,4845
0.3944017309,4846
0.3752925718,4847
0.4523221397,4848
0.7746428316,4849
0.3925447979,4850
0.504490531,4851
0.2950383974,4852
0.527966181,4853
0.722734157,4854
0.4736434356,4855
0.5154516037,4856
0.3618248651,4857
0.3765292631,4858
0.626225936,4859
0.688192441,4860
0.6292462689,4861
0.4998471794,4862
0.2969004481,4863
0.6412654179,4864
0.669658794,4865
0.4250602674,4866
0.3505832965,4867
0.2866149534,4868
0.3737422969,4869
0.7942068442,4870
0.5738954808,4871
0.4530424448,4872
0.3059621059,4873
0.3176819777,4874
0.7106648415,4875
0.6245121673,4876
0.5781796689,4877
0.5824171226,4878
0.5208742128,4879
0.6059884853,4880
0.7861054374,4881
0.6115792023,4882
0.7008382357,4883
0.6582061283,4884
0.5145951505,4885
0.7595412509,4886
0.5686460178,4887
0.4608802873,4888
0.269505318,4889
0.294964522,4890
0.5019213685,4891
0.7981233829,4892
0.5210812003,4893
0.4613953452,4894
0.3511499472,4895
0.5005665124,4896
0.7489949212,4897
0.4857588518,4898
0.5516937448,4899
0.4133063619,4900
0.4703627898,4901
0.5437384125,4902
0.757438805,4903
0.4600682164,4904
0.3850149062,4905
0.3331254937,4906
0.5542254906,4907
0.7402711124,4908
0.4962265494,4909
0.5360157359,4910
0.3487891252,4911
0.4028792155,4912
0.7328761288,4913
0.6968350978,4914
0.3374612869,4915
0.4300157897,4916
0.3385873247,4917
0.7032886464,4918
0.7539298982,4919
0.4603076703,4920
0.4971521127,4921
0.4583763469,4922
0.4553399102,4923
0.7102300136,4924
0.5504303265,4925
0.485056555,4926
0.4032319764,4927
0.4186821507,4928
0.7876892664,4929
0.610994726,4930
0.5866955355,4931
0.365304167,4932
0.2726833026,4933
0.4905896286,4934
0.6948153499,4935
0.5786592108,4936
0.3965540164,4937
0.334807811,4938
0.496712128,4939
0.7804446099,4940
0.5448533567,4941
0.5294047879,4942
0.3477409187,4943
0.3121239274,4944
0.7396133163,4945
0.676791516,4946
0.4811561126,4947
0.3999276629,4948
0.2834088803,4949
0.5632119817,4950
0.7483018111,4951
0.4895747691,4952
0.3682781434,4953
0.3777735812,4954
0.4925349757,4955
0.7471593042,4956
0.6138339393,4957
0.5596885577,4958
0.4152176643,4959
0.330795824,4960
0.682848063,4961
0.6706162348,4962
0.5371776428,4963
0.5927877674,4964
0.4929215956,4965
0.5396792063,4966
0.7877577419,4967
0.5818030855,4968
0.5528385321,4969
0.4045503897,4970
0.3901227844,4971
0.7602269927,4972
0.5099597733,4973
0.5392759854,4974
0.3776956876,4975
0.4132963775,4976
0.3587651144,4977
0.7724196951,4978
0.3604602948,4979
0.4153138189,4980
0.2925519687,4981
0.406083947,4982
0.8248850538,4983
0.5336331024,4984
0.5515418011,4985
0.4971336405,4986
0.3911313309,4987
0.5693902799,4988
0.6491003537,4989
0.3854486574,4990
0.3384221036,4991
0.4020546953,4992
0.3886474516,4993
0.7773516613,4994
0.60997512,4995
0.4658388554,4996
0.3121256876,4997
0.3971076998,4998
0.5486382123,4999
0.7533569368,5000
0.5635717464,5001
0.5007969994,5002
0.3126779181,5003
0.5623668854,5004
0.7563718099,5005
0.5899690878,5006
0.6443248406,5007
0.5266183546,5008
0.4886296274,5009
0.7459887257,5010
0.5094527716,5011
0.4804419804,5012
0.2894356379,5013
0.3140414356,5014
0.5731369987,5015
0.7776991459,5016
0.5322389125,5017
0.3975076086,5018
0.2817149135,5019
0.4383736813,5020
0.6897952103,5021
0.3783257913,5022
0.4055599944,5023
0.3197149358,5024
0.232435146,5025
0.7040544477,5026
0.6230711898,5027
0.4961232058,5028
0.4265905707,5029
0.3165719327,5030
0.4138730747,5031
0.7687844015,5032
0.4301439467,5033
0.4234190672,5034
0.2662320508,5035
0.3188067053,5036
0.7148414387,5037
0.6424902671,5038
0.5371234567,5039
0.4009349208,5040
0.2849239248,5041
0.5709856453,5042
0.7396870561,5043
0.4683539121,5044
0.4851163177,5045
0.3353002573,5046
0.4368457377,5047
0.7539672274,5048
0.6680871868,5049
0.6920187713,5050
0.5803208333,5051
0.3837470629,5052
0.6617860191,5053
0.6973440919,5054
0.38041421,5055
0.3365493936,5056
0.3106603964,5057
0.5661489426,5058
0.7373098333,5059
0.4484711081,5060
0.4517865274,5061
0.2671576944,5062
0.3366445401,5063
0.6512565432,5064
0.666480007,5065
0.4673612853,5066
0.3747015571,5067
0.4020331986,5068
0.7130629501,5069
0.6881260265,5070
0.4206883144,5071
0.4396885703,5072
0.3707038096,5073
0.5078992257,5074
0.8034776976,5075
0.5484359723,5076
0.4897397121,5077
0.4351174321,5078
0.3940903558,5079
0.7163161488,5080
0.7364036213,5081
0.3639612517,5082
0.398201746,5083
0.3233268851,5084
0.4242179708,5085
0.7296242987,5086
0.4649708882,5087
0.5211597276,5088
0.4887121823,5089
0.5717215486,5090
0.7030683802,5091
0.57401426,5092
0.540807653,5093
0.3958317669,5094
0.3523851021,5095
0.5709409109,5096
0.7658189533,5097
0.4685646904,5098
0.4853733418,5099
0.3393090324,5100
0.6193938918,5101
0.7389788723,5102
0.6843480169,5103
0.5456713178,5104
0.4240199274,5105
0.4034397839,5106
0.7582672833,5107
0.5373194481,5108
0.5588430081,5109
0.2904357972,5110
0.3148863296,5111
0.6326480991,5112
0.6977161982,5113
0.5303873355,5114
0.4234405925,5115
0.3799096894,5116
0.5309111913,5117
0.7769984818,5118
0.5314279981,5119
0.4272014903,5120
0.3417991307,5121
0.3626060949,5122
0.7462922655,5123
0.5434430041,5124
0.45369118,5125
0.3224414851,5126
0.2898304724,5127
0.5774752905,5128
0.7916404742,5129
0.448687919,5130
0.5477018048,5131
0.4825349422,5132
0.4943061775,5133
0.7344197939,5134
0.6549735711,5135
0.4341963129,5136
0.3397987166,5137
0.3126223083,5138
0.6871177242,5139
0.668585199,5140
0.5544923059,5141
0.3920914133,5142
0.3832238979,5143
0.6662220888,5144
0.6950739847,5145
0.5388968206,5146
0.4405709816,5147
0.4289064744,5148
0.3513508662,5149
0.733505715,5150
0.6554991697,5151
0.5930562134,5152
0.4908802561,5153
0.3664572078,5154
0.7783732478,5155
0.7230101259,5156
0.4602870875,5157
0.4671921663,5158
0.4156766218,5159
0.4640178207,5160
0.7737902813,5161
0.4425496084,5162
0.450675419,5163
0.3618714334,5164
0.4784895508,5165
0.759179936,5166
0.5468852968,5167
0.3917393135,5168
0.3408574558,5169
0.2772773275,5170
0.4704282781,5171
0.7704296112,5172
0.5994277535,5173
0.5850444946,5174
0.2552603873,5175
0.6184250128,5176
0.8233004746,5177
0.6335351832,5178
0.6264845697,5179
0.6532284049,5180
0.4946981134,5181
0.7175474934,5182
0.6750599177,5183
0.4881230996,5184
0.3481323847,5185
0.2590044282,5186
0.5701988141,5187
0.7685641945,5188
0.4618678516,5189
0.3202744589,5190
0.3060728529,5191
0.3028806916,5192
0.6915003614,5193
0.6660879649,5194
0.4818638217,5195
0.3830791656,5196
0.3999268511,5197
0.7424616168,5198
0.5824027401,5199
0.5542906429,5200
0.4219939303,5201
0.4069673918,5202
0.5384639567,5203
0.7518572551,5204
0.3957062917,5205
0.3599882948,5206
0.3944793427,5207
0.3421629323,5208
0.7186460279,5209
0.5991556763,5210
0.5859009548,5211
0.5051066569,5212
0.526449731,5213
0.509686654,5214
0.7812066516,5215
0.4781310037,5216
0.4056349575,5217
0.2825965319,5218
0.6790622063,5219
0.6602729897,5220
0.4712026754,5221
0.5011754947,5222
0.3794977761,5223
0.3831528581,5224
0.7305551355,5225
0.6508229486,5226
0.6213707297,5227
0.562530825,5228
0.3806851737,5229
0.7461641172,5230
0.6783972245,5231
0.4656049555,5232
0.3823616509,5233
0.4238189097,5234
0.4824014198,5235
0.7924303569,5236
0.4225400089,5237
0.5176676224,5238
0.3664804711,5239
0.3638562038,5240
0.8198232744,5241
0.6006617183,5242
0.5653314508,5243
0.4137300843,5244
0.349720727,5245
0.5802644709,5246
0.7062387387,5247
0.4040784871,5248
0.3936009755,5249
0.3253530089,5250
0.4164650963,5251
0.7629355727,5252
0.5116137116,5253
0.4917446169,5254
0.3232527279,5255
0.2901726643,5256
0.5592166286,5257
0.7258297863,5258
0.3817985259,5259
0.4908321522,5260
0.3507917741,5261
0.5439767745,5262
0.8098263377,5263
0.5960209507,5264
0.5967988156,5265
0.616893829,5266
0.4161748933,5267
0.6628804465,5268
0.633368521,5269
0.4890468715,5270
0.3769616028,5271
0.278384078,5272
0.74358835,5273
0.7453119458,5274
0.5055695397,5275
0.3850332776,5276
0.3577953369,5277
0.3660530849,5278
0.7558146236,5279
0.5401077703,5280
0.4790676191,5281
0.3061486824,5282
0.3126625625,5283
0.7892121988,5284
0.5732884682,5285
0.537585055,5286
0.376951974,5287
0.3370159423,5288
0.623938866,5289
0.7420022429,5290
0.4221186243,5291
0.3638980031,5292
0.2791678458,5293
0.4888039081,5294
0.7248916099,5295
0.4208873606,5296
0.4805101023,5297
0.3259253372,5298
0.3232993036,5299
0.7509789468,5300
0.6262595271,5301
0.5174236146,5302
0.4139232626,5303
0.369442793,5304
0.7058824244,5305
0.7026785898,5306
0.6315333641,5307
0.4387983813,5308
0.4002011828,5309
0.5237840615,5310
0.7767467052,5311
0.4872741634,5312
0.469578944,5313
0.3476487206,5314
0.4299091303,5315
0.7440758455,5316
0.4894733892,5317
0.4908285732,5318
0.3745031747,5319
0.2961213658,5320
0.6355844743,5321
0.6962249752,5322
0.3554093642,5323
0.3549625866,5324
0.3007415728,5325
0.5844599944,5326
0.7296015653,5327
0.5422786315,5328
0.3980756003,5329
0.329936662,5330
0.4260889342,5331
0.8036831697,5332
0.5483995244,5333
0.5250907232,5334
0.4342852976,5335
0.4144561906,5336
0.5897049789,5337
0.6295875053,5338
0.5451528057,5339
0.5316065714,5340
0.5124579889,5341
0.4998203066,5342
0.7121027494,5343
0.6891669596,5344
0.5145910659,5345
0.4309297446,5346
0.3836926538,5347
0.5184875535,5348
0.8107647273,5349
0.5949195567,5350
0.5619695927,5351
0.5085501233,5352
0.4681907658,5353
0.6535096697,5354
0.6938926251,5355
0.469278636,5356
0.4276687001,5357
0.4910750813,5358
0.5389305562,5359
0.8124003752,5360
0.5240780319,5361
0.5231577944,5362
0.5046984625,5363
0.4190796017,5364
0.7767691999,5365
0.6391981123,5366
0.5264888305,5367
0.3517441239,5368
0.5782477258,5369
0.6790687935,5370
0.6296839969,5371
0.6633983286,5372
0.4926146442,5373
0.4807198477,5374
0.6313735508,5375
0.7225696088,5376
0.5677430496,5377
0.522929421,5378
0.4720106323,5379
0.4520075169,5380
0.8405095925,5381
0.4944730601,5382
0.4173867008,5383
0.4037676974,5384
0.4232761992,5385
0.7266498408,5386
0.7010434102,5387
0.4455047506,5388
0.4179317359,5389
0.4582687713,5390
0.617457157,5391
0.7305701906,5392
0.5247541699,5393
0.5712396249,5394
0.4616661497,5395
0.4474588985,5396
0.7898658159,5397
0.6126404612,5398
0.4462890677,5399
0.3782512855,5400
0.3628540073,5401
0.674633151,5402
0.7370217561,5403
0.5432811887,5404
0.5663866969,5405
0.4972087079,5406
0.5358429107,5407
0.7285878996,5408
0.6047709883,5409
0.5298177939,5410
0.3592619048,5411
0.3295799222,5412
0.6375154734,5413
0.6062053579,5414
0.5845868592,5415
0.5100522483,5416
0.4251858043,5417
0.6690309369,5418
0.6151716571,5419
0.6278946682,5420
0.4975320906,5421
0.4649905478,5422
0.5115492267,5423
0.7450659029,5424
0.5615250262,5425
0.5758728701,5426
0.4779685776,5427
0.4226341507,5428
0.6125888953,5429
0.7287455312,5430
0.5708202136,5431
0.4565535551,5432
0.3491433168,5433
0.5557504286,5434
0.7929313603,5435
0.489982432,5436
0.5122296105,5437
0.4624308391,5438
0.505044059,5439
0.7065414986,5440
0.7100281693,5441
0.3891139324,5442
0.4239982457,5443
0.4242395293,5444
0.5484896266,5445
0.8212802135,5446
0.6236393832,5447
0.5713405651,5448
0.4904794772,5449
0.3393813563,5450
0.7131247637,5451
0.6903517249,5452
0.5117663436,5453
0.4890407568,5454
0.3909397338,5455
0.7089098596,5456
0.7094227413,5457
0.4596289339,5458
0.4963468342,5459
0.4669694954,5460
0.4781580415,5461
0.7434232326,5462
0.5412529049,5463
0.5682017833,5464
0.4189592757,5465
0.4070475959,5466
0.6206334453,5467
0.6582952278,5468
0.5582574012,5469
0.5011251412,5470
0.5087033922,5471
0.6186369734,5472
0.7707252108,5473
0.5342961881,5474
0.5219972707,5475
0.4315185593,5476
0.6154648879,5477
0.7559064134,5478
0.5280358044,5479
0.5215218686,5480
0.4718150354,5481
0.3555383521,5482
0.6636456106,5483
0.6830978954,5484
0.4396725812,5485
0.4335629918,5486
0.4528973832,5487
0.5450327932,5488
0.7499748683,5489
0.4771757196,5490
0.4605210621,5491
0.3214787488,5492
0.3705687679,5493
0.7693805918,5494
0.5557312343,5495
0.5526412865,5496
0.2684882082,5497
0.4190489653,5498
0.7065041716,5499
0.6396708497,5500
0.533132403,5501
0.4813815755,5502
0.4297638213,5503
0.5402586274,5504
0.7294532441,5505
0.4511952905,5506
0.4033509125,5507
0.4432500688,5508
0.4205737729,5509
0.7132737978,5510
0.6664304356,5511
0.5530397163,5512
0.4576306364,5513
0.4451073119,5514
0.6209311311,5515
0.7503690487,5516
0.5436352145,5517
0.4213283054,5518
0.4843281207,5519
0.6714776041,5520
0.7429058404,5521
0.5664684094,5522
0.4996380008,5523
0.3640308044,5524
0.5211677173,5525
0.7957532119,5526
0.5611486036,5527
0.4691561222,5528
0.4219729266,5529
0.3883946945,5530
0.645447009,5531
0.6918647992,5532
0.6792744825,5533
0.6897200839,5534
0.5598673504,5535
0.5564133388,5536
0.7346102651,5537
0.5716107365,5538
0.5649900445,5539
0.4479299469,5540
0.4908958504,5541
0.7137295033,5542
0.6213802367,5543
0.6208123745,5544
0.4634089964,5545
0.5096186666,5546
0.6401737603,5547
0.6828719707,5548
0.5630259639,5549
0.4945033142,5550
0.4371598199,5551
0.5320199655,5552
0.8113715241,5553
0.4476645227,5554
0.4444139137,5555
0.3586224578,5556
0.3885775803,5557
0.7101811939,5558
0.7065125134,5559
0.4313956603,5560
0.4476481623,5561
0.3782472365,5562
0.6507165546,5563
0.7118165825,5564
0.601807532,5565
0.4451148604,5566
0.4349520203,5567
0.5197077624,5568
0.7167145707,5569
0.5801760592,5570
0.6003965476,5571
0.439802861,5572
0.3139066333,5573
0.6166853215,5574
0.7486970959,5575
0.6784274624,5576
0.7053126492,5577
0.4275191144,5578
0.3966185121,5579
0.7687486205,5580
0.6443476205,5581
0.638527012,5582
0.2947613894,5583
0.5319121703,5584
0.7341627276,5585
0.6152013394,5586
0.5683488712,5587
0.473153523,5588
0.4482315125,5589
0.6586688348,5590
0.7632831755,5591
0.554668851,5592
0.5164413928,5593
0.4727410165,5594
0.5063804442,5595
0.7668839126,5596
0.5778542343,5597
0.488504631,5598
0.4632598121,5599
0.4550289805,5600
0.7277466849,5601
0.7200899575,5602
0.5749569609,5603
0.4534053305,5604
0.4185840227,5605
0.7105461667,5606
0.8146998758,5607
0.5315300307,5608
0.5783007023,5609
0.5246443863,5610
0.5702447745,5611
0.6621096969,5612
0.5483388249,5613
0.6205612739,5614
0.4156950362,5615
0.4333489658,5616
0.6785625763,5617
0.7311015237,5618
0.5699979927,5619
0.5275284448,5620
0.4406681056,5621
0.5974976326,5622
0.7522659554,5623
0.4938510904,5624
0.5020601404,5625
0.4423645735,5626
0.6814079442,5627
0.8046967432,5628
0.6119434223,5629
0.4915870261,5630
0.4836581914,5631
0.4421546703,5632
0.7033901142,5633
0.6304598036,5634
0.5684976997,5635
0.3709307638,5636
0.4384271667,5637
0.5771422935,5638
0.7564489636,5639
0.4843640072,5640
0.4984148359,5641
0.4242106826,5642
0.4535703721,5643
0.7612817806,5644
0.5525958293,5645
0.4808084395,5646
0.3742873428,5647
0.5643805827,5648
0.7518940831,5649
0.6233066236,5650
0.5836335801,5651
0.4857913049,5652
0.3901472737,5653
0.637506801,5654
0.7986274218,5655
0.4982609774,5656
0.3978144867,5657
0.4589578562,5658
0.5196398821,5659
0.7866031598,5660
0.5309809299,5661
0.5569488947,5662
0.4369123109,5663
0.4315006341,5664
0.6842171111,5665
0.5731409093,5666
0.6004530088,5667
0.4045411705,5668
0.4712891995,5669
0.7478707712,5670
0.7721883451,5671
0.5424976194,5672
0.5181882821,5673
0.490715113,5674
0.5578484908,5675
0.8196498501,5676
0.5853930189,5677
0.585257758,5678
0.4872031063,5679
0.4183833269,5680
0.6150649789,5681
0.7442791188,5682
0.5040563332,5683
0.5026010591,5684
0.4298315678,5685
0.516584468,5686
0.7939011253,5687
0.5923286179,5688
0.4736092636,5689
0.4543695459,5690
0.5026816148,5691
0.8414634029,5692
0.5881037314,5693
0.5451764248,5694
0.4251607955,5695
0.42827315,5696
0.6701941572,5697
0.7169297244,5698
0.5024907179,5699
0.3963080364,5700
0.3914318183,5701
0.3595359633,5702
0.6882483924,5703
0.672399421,5704
0.5753015718,5705
0.5289310553,5706
0.4856307292,5707
0.6059239956,5708
0.750409309,5709
0.489336955,5710
0.4903996245,5711
0.3264320318,5712
0.5309393583,5713
0.7379142543,5714
0.6299604607,5715
0.6366334219,5716
0.4923258856,5717
0.4747629542,5718
0.783776722,5719
0.5619159522,5720
0.5604839368,5721
0.5137468689,5722
0.4358215968,5723
0.5298561908,5724
0.8285326149,5725
0.4976307692,5726
0.4051189496,5727
0.4494970348,5728
0.4443731719,5729
0.7627684495,5730
0.6256956605,5731
0.5998517952,5732
0.4597092897,5733
0.4110464637,5734
0.6448382607,5735
0.798451468,5736
0.6296575806,5737
0.6670212277,5738
0.4242446622,5739
0.5830871893,5740
0.7405098925,5741
0.5780172963,5742
0.4885442741,5743
0.4621184919,5744
0.3983625765,5745
0.7391727702,5746
0.6266038581,5747
0.6105713009,5748
0.4199588018,5749
0.3668294275,5750
0.4478336982,5751
0.8020132163,5752
0.5628017772,5753
0.5876877124,5754
0.4245318719,5755
0.6112383756,5756
0.7748889963,5757
0.6208089399,5758
0.651462953,5759
0.5388265598,5760
0.368758132,5761
0.7175852723,5762
0.6986274432,5763
0.4563592658,5764
0.453184494,5765
0.4488026165,5766
0.6174517143,5767
0.7987669773,5768
0.4857305462,5769
0.4354994115,5770
0.4156206603,5771
0.4535392711,5772
0.7326305399,5773
0.5303306904,5774
0.577887357,5775
0.3938094896,5776
0.3933733471,5777
0.8221900761,5778
0.7079930477,5779
0.4167716342,5780
0.4977120623,5781
0.502797295,5782
0.5712346378,5783
0.7198745741,5784
0.6474341368,5785
0.6458504296,5786
0.4464060749,5787
0.4583078072,5788
0.7509136396,5789
0.5923035743,5790
0.4478574359,5791
0.4336782748,5792
0.3709415108,5793
0.5957857966,5794
0.7542424896,5795
0.4817492936,5796
0.4998456407,5797
0.3433072349,5798
0.5038371248,5799
0.8013957992,5800
0.5706497487,5801
0.556310872,5802
0.4645920324,5803
0.4200678291,5804
0.7243441821,5805
0.6037877374,5806
0.5396549887,5807
0.4984779076,5808
0.3882522738,5809
0.6895066971,5810
0.7240591574,5811
0.5844478913,5812
0.4527041817,5813
0.4244802051,5814
0.4861634619,5815
0.7820702587,5816
0.6088908127,5817
0.5797627326,5818
0.4443125854,5819
0.5166212146,5820
0.6973618183,5821
0.6510848741,5822
0.483217977,5823
0.4107995068,5824
0.4146681387,5825
0.5183214857,5826
0.7788320158,5827
0.4822116472,5828
0.4870423169,5829
0.3660750122,5830
0.4296169994,5831
0.7073680464,5832
0.5252899655,5833
0.5159255251,5834
0.2982047128,5835
0.2794135888,5836
0.6449387355,5837
0.7403217127,5838
0.471395758,5839
0.4263464074,5840
0.2608914404,5841
0.5978479034,5842
0.7304741273,5843
0.4956678857,5844
0.4558930551,5845
0.3837802029,5846
0.4194172868,5847
0.7358085206,5848
0.6314609981,5849
0.5389629333,5850
0.3091677937,5851
0.3112230413,5852
0.6065285771,5853
0.7395205982,5854
0.4929905701,5855
0.5360046422,5856
0.4142448007,5857
0.4008031005,5858
0.7661760497,5859
0.578605201,5860
0.4596547629,5861
0.3709048829,5862
0.3462257843,5863
0.7131099903,5864
0.7142391071,5865
0.5321506145,5866
0.4812785943,5867
0.5071141652,5868
0.555751079,5869
0.752500249,5870
0.4959268582,5871
0.4675081703,5872
0.387718251,5873
0.3272409075,5874
0.717802969,5875
0.6809307686,5876
0.475262358,5877
0.4879260874,5878
0.3806578166,5879
0.5376009301,5880
0.8112321246,5881
0.4754089915,5882
0.3896818291,5883
0.3884121074,5884
0.4933568778,5885
0.6977539767,5886
0.6423320023,5887
0.6021648752,5888
0.5360371839,5889
0.4848945398,5890
0.6474931719,5891
0.7151863473,5892
0.4845819305,5893
0.5332873842,5894
0.4160373578,5895
0.6115502139,5896
0.7066429712,5897
0.550381506,5898
0.544382716,5899
0.4176976784,5900
0.4300896565,5901
0.6888612533,5902
0.5998033223,5903
0.6281910805,5904
0.4057161425,5905
0.3981571898,5906
0.7546792451,5907
0.7052874184,5908
0.5460199008,5909
0.4514981331,5910
0.4006922545,5911
0.4696019839,5912
0.7981846218,5913
0.5926844306,5914
0.6611625613,5915
0.5502191757,5916
0.4175858338,5917
0.7902161057,5918
0.5956862089,5919
0.4761122126,5920
0.4703740723,5921
0.3456318018,5922
0.6871031793,5923
0.6609072629,5924
0.4669501501,5925
0.2850244979,5926
0.3324735578,5927
0.62495116,5928
0.7457519054,5929
0.6214074646,5930
0.6519484478,5931
0.4459211804,5932
0.4824360932,5933
0.7847555554,5934
0.6090321556,5935
0.5372067475,5936
0.4877987861,5937
0.4617489039,5938
0.7827727423,5939
0.5827963109,5940
0.4104273336,5941
0.4092924837,5942
0.3771231123,5943
0.5789819758,5944
0.7903080005,5945
0.4472160488,5946
0.4764044168,5947
0.5011390096,5948
0.5886242584,5949
0.8032143731,5950
0.5012985088,5951
0.4592322825,5952
0.367964243,5953
0.4890745724,5954
0.6606295187,5955
0.6255001744,5956
0.6207540042,5957
0.5932590939,5958
0.6927308116,5959
0.6993250558,5960
0.7311015242,5961
0.5951689516,5962
0.6404267743,5963
0.6261534176,5964
0.6169166937,5965
0.7891642923,5966
0.5606302612,5967
0.5608034674,5968
0.3824583303,5969
0.4504329992,5970
0.6849560885,5971
0.6722397423,5972
0.5958624005,5973
0.710328199,5974
0.7133471773,5975
0.6170154664,5976
0.7688838626,5977
0.4282248412,5978
0.408313009,5979
0.3873494226,5980
0.465138068,5981
0.7240072772,5982
0.5558347611,5983
0.5656716473,5984
0.4556322676,5985
0.4759774117,5986
0.7071154997,5987
0.6925924807,5988
0.4865357952,5989
0.4213999133,5990
0.4543616968,5991
0.7260774862,5992
0.7143625592,5993
0.5549132349,5994
0.4203553545,5995
0.3695522393,5996
0.5029030509,5997
0.7736592323,5998
0.5156763242,5999
0.4112153704,6000
0.4876155724,6001
0.5564954688,6002
0.7515367573,6003
0.5422592003,6004
0.6091541117,6005
0.3309947107,6006
0.3287784462,6007
0.6369646862,6008
0.7787420405,6009
0.5642507988,6010
0.3298370043,6011
0.479617574,6012
0.7584281739,6013
0.683584192,6014
0.5191635359,6015
0.5471812076,6016
0.4958584711,6017
0.4919257125,6018
0.7821223257,6019
0.5464344015,6020
0.6097279521,6021
0.4466436581,6022
0.4873441204,6023
0.6803289518,6024
0.7275369612,6025
0.5517260698,6026
0.5000766492,6027
0.5017318191,6028
0.6574616752,6029
0.7308026753,6030
0.5041294755,6031
0.5024878772,6032
0.4783069795,6033
0.4607679862,6034
0.7922356071,6035
0.6464585362,6036
0.5720542876,6037
0.5146155305,6038
0.5081387272,6039
0.6585177617,6040
0.7750561305,6041
0.5711567769,6042
0.6646058941,6043
0.5492412298,6044
0.6373921566,6045
0.7348711373,6046
0.6203419511,6047
0.542038042,6048
0.4950692455,6049
0.4637455929,6050
0.6707902894,6051
0.7264690511,6052
0.5835169607,6053
0.5716846839,6054
0.5146445682,6055
0.6776455653,6056
0.7615924278,6057
0.5666681785,6058
0.5093544398,6059
0.5314937197,6060
0.5622046094,6061
0.7125275985,6062
0.5672990383,6063
0.5692705397,6064
0.4610090611,6065
0.505782912,6066
0.7430689858,6067
0.7127382214,6068
0.4551974338,6069
0.4923339241,6070
0.4861398227,6071
0.5654127273,6072
0.7689968502,6073
0.6208584233,6074
0.5616518402,6075
0.4395817758,6076
0.4685877527,6077
0.7293096486,6078
0.7160063128,6079
0.6777283462,6080
0.6985435465,6081
0.5619858422,6082
0.4864648194,6083
0.6945387748,6084
0.5786826044,6085
0.5680158721,6086
0.4812318571,6087
0.4843683342,6088
0.7059636926,6089
0.6020165483,6090
0.5191587993,6091
0.4127234863,6092
0.4361189087,6093
0.503669712,6094
0.7550875845,6095
0.4778805318,6096
0.4976819882,6097
0.4860761363,6098
0.4916238749,6099
0.7761741786,6100
0.6243192482,6101
0.5604204257,6102
0.4532233895,6103
0.4880743652,6104
0.5738842449,6105
0.7832866899,6106
0.5214804801,6107
0.6344554312,6108
0.5332856423,6109
0.457350996,6110
0.7800041727,6111
0.5481920005,6112
0.5912812799,6113
0.5612403398,6114
0.4961745598,6115
0.5520210538,6116
0.8106727377,6117
0.4936312409,6118
0.4663183707,6119
0.4660033127,6120
0.6104610792,6121
0.7731475188,6122
0.4858398702,6123
0.5023743984,6124
0.4389148114,6125
0.4170500996,6126
0.6829335059,6127
0.7395876191,6128
0.4209132347,6129
0.4430578358,6130
0.4578090272,6131
0.6416376157,6132
0.8225294727,6133
0.4968300109,6134
0.4791290756,6135
0.5713900694,6136
0.5132193223,6137
0.738869228,6138
0.6404298685,6139
0.5279804194,6140
0.4052073505,6141
0.52665155,6142
0.7154566122,6143
0.6483397558,6144
0.5971373267,6145
0.4802472637,6146
0.5247451729,6147
0.541889383,6148
0.7891565089,6149
0.6186433127,6150
0.5038118476,6151
0.5554982847,6152
0.521034766,6153
0.657632205,6154
0.6768266634,6155
0.6025727423,6156
0.5285675907,6157
0.4927309269,6158
0.5609498661,6159
0.7074310199,6160
0.5229288724,6161
0.5195522906,6162
0.4136159139,6163
0.3966370248,6164
0.7291058671,6165
0.6766946082,6166
0.495821418,6167
0.4569546611,6168
0.4557221917,6169
0.678263729,6170
0.6803372987,6171
0.4797788324,6172
0.5295845168,6173
0.5220117885,6174
0.7125908712,6175
0.6352735953,6176
0.5661976811,6177
0.4721119099,6178
0.4656620912,6179
0.6199311927,6180
0.7749280445,6181
0.4909394767,6182
0.4302908743,6183
0.4519222655,6184
0.557702169,6185
0.7772724862,6186
0.6484733275,6187
0.5300515018,6188
0.5183472491,6189
0.5217152519,6190
0.6843899738,6191
0.686641695,6192
0.5737163899,6193
0.5097466373,6194
0.4895460163,6195
0.5790980932,6196
0.7795764288,6197
0.5621463464,6198
0.5347179285,6199
0.4221651804,6200
0.4839463031,6201
0.7397700959,6202
0.7034775714,6203
0.4929736791,6204
0.488280872,6205
0.4538192503,6206
0.6636174349,6207
0.6365641264,6208
0.6053471578,6209
0.671187917,6210
0.6479255305,6211
0.5556530549,6212
0.7127486594,6213
0.692140039,6214
0.72218157,6215
0.611709163,6216
0.4304097812,6217
0.6448445118,6218
0.6583260127,6219
0.5860460882,6220
0.5152881709,6221
0.3889042629,6222
0.6345164366,6223
0.7891498596,6224
0.5761853384,6225
0.4280983159,6226
0.4800015624,6227
0.5073540047,6228
0.7623468066,6229
0.6141350051,6230
0.6484615051,6231
0.5887348967,6232
0.5555342931,6233
0.7080138772,6234
0.726700449,6235
0.6234345747,6236
0.5981280659,6237
0.6389229708,6238
0.6484515077,6239
0.7310994982,6240
0.5800291855,6241
0.6437253249,6242
0.6288883952,6243
0.4689743395,6244
0.7444241673,6245
0.6881881476,6246
0.5678720328,6247
0.5392571807,6248
0.448478601,6249
0.6427717048,6250
0.7380050299,6251
0.5079602017,6252
0.5127841531,6253
0.4005932953,6254
0.4978460782,6255
0.6786342699,6256
0.5241762109,6257
0.6450514049,6258
0.4715945926,6259
0.474456779,6260
0.6546973747,6261
0.7038502069,6262
0.4412571031,6263
0.438780588,6264
0.4133608219,6265
0.5578728578,6266
0.780996238,6267
0.5088740675,6268
0.4973052824,6269
0.4216726745,6270
0.4786991274,6271
0.6846037034,6272
0.5511198052,6273
0.5549793139,6274
0.4554852477,6275
0.496003662,6276
0.6116664078,6277
0.7171359899,6278
0.6396652263,6279
0.5672129159,6280
0.5780219162,6281
0.6200000327,6282
0.7153896851,6283
0.6133434826,6284
0.6554052637,6285
0.6910242875,6286
0.6650617848,6287
0.6963362542,6288
0.6879654858,6289
0.5560407291,6290
0.6674054173,6291
0.6193129701,6292
0.7356975617,6293
0.6104901988,6294
0.7204328337,6295
0.5947978257,6296
0.6881147635,6297
0.524327659,6298
0.6748037374,6299
0.5637125527,6300
0.5946232966,6301
0.4622853642,6302
0.4142622748,6303
0.7119892671,6304
0.6353365822,6305
0.6732847903,6306
0.5094660801,6307
0.4057794377,6308
0.598836623,6309
0.745513417,6310
0.3999377524,6311
0.4293975689,6312
0.405766987,6313
0.6033540603,6314
0.8256359809,6315
0.6176216204,6316
0.5847849839,6317
0.5239758354,6318
0.5099369729,6319
0.7429891616,6320
0.556905421,6321
0.5204609411,6322
0.3958011977,6323
0.3879032317,6324
0.6079155719,6325
0.7032177652,6326
0.5089489811,6327
0.5733428031,6328
0.5057983132,6329
0.5401967314,6330
0.7554599367,6331
0.4759353032,6332
0.4922500668,6333
0.3879687215,6334
0.3889094322,6335
0.7210327361,6336
0.7680103468,6337
0.5204896716,6338
0.5695456105,6339
0.4544042983,6340
0.6388446074,6341
0.6648449635,6342
0.5867684743,6343
0.4516047963,6344
0.4319179319,6345
0.7515779066,6346
0.6874459374,6347
0.5785865435,6348
0.4689441153,6349
0.4448381985,6350
0.635247976,6351
0.7308064551,6352
0.5805428872,6353
0.5192763994,6354
0.4230740717,6355
0.5258819506,6356
0.6792825785,6357
0.6879340027,6358
0.6178645791,6359
0.5368225726,6360
0.4947987677,6361
0.6593790695,6362
0.7839142007,6363
0.5862689153,6364
0.5072413789,6365
0.4613703149,6366
0.4734887952,6367
0.6843975873,6368
0.7117753336,6369
0.5337968127,6370
0.5186503607,6371
0.5114272784,6372
0.6357477461,6373
0.7535995463,6374
0.5177721373,6375
0.5623180304,6376
0.4839400957,6377
0.4660848314,6378
0.7161554435,6379
0.7167794042,6380
0.4814604199,6381
0.4861084105,6382
0.5365358179,6383
0.6199114921,6384
0.8039403376,6385
0.5073102173,6386
0.5620369021,6387
0.4574874485,6388
0.4377939128,6389
0.7351281769,6390
0.6155629839,6391
0.6441990753,6392
0.6362184664,6393
0.4986917232,6394
0.6170872958,6395
0.7609217765,6396
0.4754883967,6397
0.4238511483,6398
0.3386179989,6399
0.4074679717,6400
0.7993958516,6401
0.6725078496,6402
0.5893159208,6403
0.6046156483,6404
0.535482913,6405
0.6296984749,6406
0.7370352345,6407
0.4986492172,6408
0.4880000706,6409
0.3828573305,6410
0.5610585688,6411
0.7462473126,6412
0.4698211228,6413
0.4290972029,6414
0.4190543061,6415
0.431204771,6416
0.6788987935,6417
0.6975324675,6418
0.5127142936,6419
0.5642715448,6420
0.4299943618,6421
0.700302414,6422
0.6725832591,6423
0.5651863238,6424
0.4496867568,6425
0.4261328513,6426
0.4479639693,6427
0.6895473501,6428
0.6868289619,6429
0.4293923444,6430
0.3900920956,6431
0.4092902894,6432
0.7154437859,6433
0.6993621677,6434
0.5679332316,6435
0.6396290237,6436
0.553919636,6437
0.5233693043,6438
0.7049931895,6439
0.5407050934,6440
0.6372565257,6441
0.3277874578,6442
0.4990883523,6443
0.7295051082,6444
0.4932219431,6445
0.6268220891,6446
0.3908992828,6447
0.501520514,6448
0.5707028672,6449
0.6942190133,6450
0.571714909,6451
0.5417543799,6452
0.3274604463,6453
0.5649766307,6454
0.7331896727,6455
0.5306799834,6456
0.5636564609,6457
0.4588111118,6458
0.3770757338,6459
0.627909574,6460
0.7428545345,6461
0.4167103627,6462
0.5553434737,6463
0.5643097122,6464
0.7179265288,6465
0.764373556,6466
0.6119000284,6467
0.6994052075,6468
0.6453579342,6469
0.6272949847,6470
0.7482786995,6471
0.6333633084,6472
0.5820761695,6473
0.4265274281,6474
0.4655785638,6475
0.6324039504,6476
0.519243465,6477
0.6288592614,6478
0.4358865941,6479
0.5549183944,6480
0.5590485032,6481
0.7015094066,6482
0.5246610276,6483
0.5284370675,6484
0.357596965,6485
0.701469846,6486
0.7403110042,6487
0.5985845948,6488
0.5057128149,6489
0.4719457932,6490
0.4693125769,6491
0.6579567024,6492
0.7104458577,6493
0.4888432069,6494
0.5071517126,6495
0.4890353382,6496
0.6203861147,6497
0.7368876109,6498
0.5612526725,6499
0.5674925151,6500
0.5183670008,6501
0.5216229338,6502
0.7694155107,6503
0.7038428927,6504
0.6169690431,6505
0.5291209265,6506
0.5568222978,6507
0.6643034166,6508
0.7225646172,6509
0.5034970249,6510
0.6117010888,6511
0.5441546172,6512
0.6204991679,6513
0.7782945805,6514
0.5994327409,6515
0.5739612508,6516
0.4764782129,6517
0.6459499206,6518
0.767714378,6519
0.5960882074,6520
0.5293947424,6521
0.5199308646,6522
0.570023985,6523
0.7732229806,6524
0.5579199442,6525
0.6323501641,6526
0.4749470161,6527
0.5283400516,6528
0.7343287115,6529
0.6558497008,6530
0.6186223162,6531
0.4468993012,6532
0.4577382231,6533
0.6913225116,6534
0.7057631157,6535
0.5651625829,6536
0.6192426735,6537
0.5556389457,6538
0.6618475174,6539
0.6943820372,6540
0.5403314572,6541
0.5285984364,6542
0.4683916926,6543
0.4717504162,6544
0.6907919549,6545
0.7271584307,6546
0.4700049042,6547
0.4516861303,6548
0.4392488657,6549
0.5656390049,6550
0.7950100385,6551
0.5680834134,6552
0.5479638358,6553
0.5068197493,6554
0.5553064635,6555
0.8015444724,6556
0.5898040219,6557
0.4960089255,6558
0.4173849344,6559
0.412935342,6560
0.7230632374,6561
0.6934719418,6562
0.4973929686,6563
0.4987161267,6564
0.4292085296,6565
0.5146637841,6566
0.7316196258,6567
0.5658802098,6568
0.4167072356,6569
0.4585443048,6570
0.5292206023,6571
0.7620056034,6572
0.5911351379,6573
0.690409297,6574
0.6895882278,6575
0.5989804378,6576
0.5334976699,6577
0.8039659048,6578
0.6044873137,6579
0.6639342921,6580
0.5602046979,6581
0.5311559493,6582
0.7438822635,6583
0.5331882221,6584
0.5494262146,6585
0.3836979138,6586
0.3897016929,6587
0.6316426557,6588
0.5943211806,6589
0.643708354,6590
0.4725935823,6591
0.435846372,6592
0.7274793953,6593
0.7419869487,6594
0.4216210689,6595
0.5007841796,6596
0.3764107975,6597
0.4654953276,6598
0.764603885,6599
0.5754892624,6600
0.4517012374,6601
0.4785750487,6602
0.475087947,6603
0.6763108795,6604
0.5618181196,6605
0.5007206739,6606
0.4629863335,6607
0.4260466158,6608
0.4994651146,6609
0.6989352967,6610
0.57399496,6611
0.5827791235,6612
0.4750495731,6613
0.5317327099,6614
0.7035832511,6615
0.4853643515,6616
0.536115849,6617
0.4156521563,6618
0.4192004913,6619
0.6924142922,6620
0.719493583,6621
0.5798126902,6622
0.5591813476,6623
0.5779173304,6624
0.7369098063,6625
0.6945056771,6626
0.5603918489,6627
0.6543990419,6628
0.6713619462,6629
0.7049032115,6630
0.7418490883,6631
0.5789306649,6632
0.5624743998,6633
0.5032356877,6634
0.5088784856,6635
0.6920894463,6636
0.6616368372,6637
0.6781330013,6638
0.7099701951,6639
0.7097635437,6640
0.5841167625,6641
0.6830686056,6642
0.6253376477,6643
0.6490474583,6644
0.6090919447,6645
0.4788589663,6646
0.7802853164,6647
0.6762840852,6648
0.5927875019,6649
0.6333942367,6650
0.624308998,6651
0.5311389063,6652
0.7469724957,6653
0.6274286022,6654
0.6046572593,6655
0.5461602411,6656
0.5756263921,6657
0.6867290102,6658
0.5794673081,6659
0.5588207477,6660
0.5569097265,6661
0.4764463145,6662
0.6860158394,6663
0.7323956033,6664
0.4604819864,6665
0.4196727597,6666
0.4251061128,6667
0.5598643986,6668
0.7105157735,6669
0.5286307214,6670
0.516535827,6671
0.4653631227,6672
0.4758442305,6673
0.684430837,6674
0.6649629056,6675
0.5236834931,6676
0.4675539739,6677
0.4759143551,6678
0.6001391229,6679
0.7463587847,6680
0.5046667728,6681
0.5240161539,6682
0.4382702304,6683
0.6252364935,6684
0.7613187884,6685
0.559191454,6686
0.4938109799,6687
0.4058166691,6688
0.5951243672,6689
0.7649768073,6690
0.5001463327,6691
0.4911420835,6692
0.4537728793,6693
0.4803291691,6694
0.7937092665,6695
0.5623383965,6696
0.496515929,6697
0.4157587332,6698
0.4049828073,6699
0.6914446882,6700
0.742689611,6701
0.6114309594,6702
0.5143075183,6703
0.505817937,6704
0.6342836382,6705
0.71942526,6706
0.5737529986,6707
0.5281567605,6708
0.4769577462,6709
0.4529944974,6710
0.4637947803,6711
0.7563518209,6712
0.6922905318,6713
0.6097908096,6714
0.5551811862,6715
0.502864852,6716
0.6704566476,6717
0.7035000056,6718
0.6262320838,6719
0.5378671954,6720
0.5584892889,6721
0.5307654142,6722
0.6648445338,6723
0.7013289848,6724
0.5699278943,6725
0.5470375482,6726
0.5644906214,6727
0.5897412757,6728
0.7736160967,6729
0.5487045098,6730
0.5775399667,6731
0.5072530229,6732
0.4958599497,6733
0.6459640619,6734
0.6872441943,6735
0.5486741593,6736
0.5167685984,6737
0.5422304112,6738
0.5231327888,6739
0.7430504902,6740
0.7402594358,6741
0.6784122769,6742
0.4491187961,6743
0.5097282369,6744
0.7728047839,6745
0.6422761936,6746
0.5683177377,6747
0.5135267407,6748
0.5035289064,6749
0.6945912345,6750
0.7512296257,6751
0.5913114726,6752
0.561221599,6753
0.5049717621,6754
0.633536952,6755
0.7057954558,6756
0.5813324535,6757
0.5314478798,6758
0.5673601656,6759
0.5703446434,6760
0.6636859884,6761
0.6757154067,6762
0.5801166741,6763
0.4939837464,6764
0.547669089,6765
0.7715217295,6766
0.6069779536,6767
0.5456927611,6768
0.5018729248,6769
0.449723227,6770
0.5205782591,6771
0.742003924,6772
0.6483037172,6773
0.6046051876,6774
0.6491521312,6775
0.6234797545,6776
0.7577371287,6777
0.4268710696,6778
0.4479872876,6779
0.3236336625,6780
0.453524796,6781
0.626070384,6782
0.6994910232,6783
0.432858172,6784
0.4280167722,6785
0.5245571622,6786
0.6946105979,6787
0.8159446497,6788
0.6146399515,6789
0.558926097,6790
0.4796001742,6791
0.4534625593,6792
0.7087515399,6793
0.6815333981,6794
0.5915393837,6795
0.5148236303,6796
0.5500425725,6797
0.7347421118,6798
0.5130671345,6799
0.5935919702,6800
0.4820438619,6801
0.4400943823,6802
0.477507854,6803
0.7571505647,6804
0.5110292846,6805
0.5133565037,6806
0.5649553094,6807
0.7542618921,6808
0.5318374478,6809
0.7294230574,6810
0.5774722628,6811
0.5733253576,6812
0.5248114385,6813
0.759810216,6814
0.5828553421,6815
0.4877220284,6816
0.3317423902,6817
0.4551771401,6818
0.7920294327,6819
0.5374354562,6820
0.5615522366,6821
0.5560607675,6822
0.4779710843,6823
0.5573259679,6824
0.7424126,6825
0.4983073881,6826
0.4861824881,6827
0.4992505796,6828
0.6132481721,6829
0.7676980767,6830
0.6495927301,6831
0.5483332315,6832
0.4860405445,6833
0.5127874653,6834
0.7109338018,6835
0.5996606826,6836
0.5829019544,6837
0.4588547637,6838
0.533650044,6839
0.6911469479,6840
0.5127306149,6841
0.5501080667,6842
0.4841131908,6843
0.4575588438,6844
0.5867726394,6845
0.7964383551,6846
0.5050402164,6847
0.4337823274,6848
0.4881958302,6849
0.7010829171,6850
0.7022575738,6851
0.5642029514,6852
0.4847633914,6853
0.4453133233,6854
0.4803769539,6855
0.6902766262,6856
0.6699251514,6857
0.5571556116,6858
0.4438043924,6859
0.3249791749,6860
0.5699335545,6861
0.7549035317,6862
0.4363531973,6863
0.3936291755,6864
0.380309023,6865
0.3630726077,6866
0.5276895466,6867
0.6883168351,6868
0.4781640325,6869
0.6365443608,6870
0.5019702738,6871
0.6520666381,6872
0.7798291269,6873
0.4319096882,6874
0.4052313262,6875
0.418909289,6876
0.3801532725,6877
0.6756262768,6878
0.5215890537,6879
0.711463898,6880
0.5234181706,6881
0.5816851798,6882
0.8041497236,6883
0.5133091604,6884
0.5119263009,6885
0.5329822,6886
0.5179091519,6887
0.5623786642,6888
0.6356703765,6889
0.566638095,6890
0.6021317245,6891
0.5331971484,6892
0.7139832143,6893
0.5478751881,6894
0.5415022156,6895
0.3651518847,6896
0.4375174602,6897
0.4382567573,6898
0.7094891471,6899
0.6657176793,6900
0.6873799877,6901
0.6238394848,6902
0.5455474967,6903
0.6232595596,6904
0.6219319531,6905
0.5641910164,6906
0.3980970869,6907
0.4540761775,6908
0.3851676243,6909
0.7045528323,6910
0.605766808,6911
0.4215483387,6912
0.3241308435,6913
0.2797620764,6914
0.7128596143,6915
0.7044265187,6916
0.5025776828,6917
0.3382801315,6918
0.348863515,6919
0.511446813,6920
0.8076190059,6921
0.5254182524,6922
0.5999117132,6923
0.4926419685,6924
0.5390734025,6925
0.7395121355,6926
0.6785079046,6927
0.5645667604,6928
0.4696798643,6929
0.4501487716,6930
0.6474480204,6931
0.6879237677,6932
0.5906940464,6933
0.5471176611,6934
0.4568983843,6935
0.7192904256,6936
0.7252076356,6937
0.6610617248,6938
0.4368133288,6939
0.4153382001,6940
0.5143112841,6941
0.787773355,6942
0.5696036103,6943
0.6388617092,6944
0.6189761922,6945
0.6290715844,6946
0.7861912312,6947
0.4963175162,6948
0.4485703335,6949
0.3258915071,6950
0.3544592125,6951
0.5436091615,6952
0.7280914222,6953
0.4741768839,6954
0.4560969581,6955
0.4145731959,6956
0.5901450885,6957
0.6970165645,6958
0.5007279936,6959
0.5305996616,6960
0.4039631402,6961
0.4720631533,6962
0.676223522,6963
0.5793500964,6964
0.5437282889,6965
0.4870561491,6966
0.5428071945,6967
0.7422586538,6968
0.5747470052,6969
0.6181478763,6970
0.4998995956,6971
0.4771546562,6972
0.5918326449,6973
0.7843565187,6974
0.6272719829,6975
0.5580528064,6976
0.4767233028,6977
0.6667573244,6978
0.6400767974,6979
0.6530729928,6980
0.5447222843,6981
0.4490494343,6982
0.414336189,6983
0.6897338003,6984
0.6749395683,6985
0.5360185156,6986
0.6087224632,6987
0.6310395949,6988
0.7700154292,6989
0.6464005421,6990
0.554780432,6991
0.6041917771,6992
0.5680078229,6993
0.527686042,6994
0.7490588765,6995
0.6451002624,6996
0.4759671313,6997
0.4098816091,6998
0.5169303154,6999
0.7583519969,7000
0.6299310091,7001
0.6283721571,7002
0.5906262701,7003
0.7064296429,7004
0.6543937543,7005
0.7373759658,7006
0.5138265066,7007
0.5048531113,7008
0.4970731528,7009
0.6167638704,7010
0.7701772777,7011
0.5189405779,7012
0.4573107885,7013
0.4953719598,7014
0.4641875889,7015
0.5541445652,7016
0.7575928901,7017
0.5338703115,7018
0.5121488111,7019
0.5358942083,7020
0.7319204183,7021
0.6094249362,7022
0.6116732325,7023
0.6183335651,7024
0.5476001492,7025
0.4648909301,7026
0.6460610293,7027
0.6610639007,7028
0.5905328189,7029
0.4840621097,7030
0.5219577527,7031
0.7217388481,7032
0.8010201309,7033
0.4055510385,7034
0.4621476863,7035
0.4929330198,7036
0.7525871199,7037
0.5225831224,7038
0.5736154403,7039
0.6714548483,7040
0.5861963636,7041
0.5061385461,7042
0.4092704656,7043
0.6866002207,7044
0.6582912403,7045
0.5585424555,7046
0.3795411394,7047
0.3144848736,7048
0.3343861283,7049
0.6903363171,7050
0.7372360194,7051
0.5452962699,7052
0.4942829899,7053
0.4282000219,7054
0.4790520251,7055
0.4369716079,7056
0.4284382943,7057
0.4355253828,7058
0.328640455,7059
0.2901367929,7060
0.2122237228,7061
0.2409650896,7062
0.2534591576,7063
0.2234519524,7064
0.2181629193,7065
0.1976466794,7066
0.186850529,7067
0.2226321924,7068
0.254438895,7069
0.2512097731,7070
0.1919422599,7071
0.2038248627,7072
0.2129345522,7073
0.2457066559,7074
0.2513300959,7075
0.1958170757,7076
0.141132427,7077
0.1801464397,7078
0.2390392488,7079
0.3252775583,7080
0.3292702397,7081
0.2092614892,7082
0.1610831971,7083
0.1354850857,7084
0.1545773924,7085
0.2159085015,7086
0.2177859792,7087
0.1747643006,7088
0.1503611501,7089
0.2283867391,7090
0.3136698229,7091
0.3580313037,7092
0.2344981923,7093
0.1683091067,7094
0.1628991614,7095
0.1482813169,7096
0.3193226191,7097
0.1926176818,7098
0.286973099,7099
0.706428846,7100
0.7411417351,7101
0.4757410516,7102
0.415209929,7103
0.3995960739,7104
0.3385949707,7105
0.3507746931,7106
0.3488676202,7107
0.4868187737,7108
0.4039081926,7109
0.3132093891,7110
0.3932966479,7111
0.3887636273,7112
0.4002259317,7113
0.4901372291,7114
0.3562866337,7115
0.2766083215,7116
0.1640246316,7117
0.163886894,7118
0.1574732108,7119
0.1714924002,7120
0.1559986735,7121
0.1789258117,7122
0.2302151528,7123
0.3684782605,7124
0.3484705948,7125
0.1937448072,7126
0.1832067777,7127
0.1284693058,7128
0.1151548939,7129
0.1964115441,7130
0.1269870539,7131
0.160175645,7132
0.1786686747,7133
0.1857424149,7134
0.1627044797,7135
0.208749708,7136
0.1813083606,7137
0.1472067036,7138
0.2089920581,7139
0.1957830045,7140
0.2024522129,7141
0.1654238159,7142
0.286396425,7143
0.3268396769,7144
0.4251760516,7145
0.4786317031,7146
0.4078930137,7147
0.287816324,7148
0.197514948,7149
0.186652577,7150
0.1574420237,7151
0.1639238329,7152
0.1716761684,7153
0.1741854529,7154
0.1469885645,7155
0.1832589654,7156
0.1742940378,7157
0.233421466,7158
0.141420901,7159
0.1533578732,7160
0.2154369895,7161
0.2254962862,7162
0.2399788427,7163
0.1711969368,7164
0.1649582586,7165
0.1770155607,7166
0.171361922,7167
0.1818810262,7168
0.1660007568,7169
0.1545646586,7170
0.1303859668,7171
0.1086167231,7172
0.116445663,7173
0.197133194,7174
0.3533269918,7175
0.7614278487,7176
0.5816419325,7177
0.4183115735,7178
0.3425472456,7179
0.3438359393,7180
0.3524678665,7181
0.3179601715,7182
0.2876548978,7183
0.2661343014,7184
0.2376203596,7185
0.4255781185,7186
0.718629241,7187
0.5468919588,7188
0.5635037416,7189
0.3626137003,7190
0.332271824,7191
0.3358063916,7192
0.4995102775,7193
0.566137559,7194
0.5727373053,7195
0.2349272151,7196
0.1838910482,7197
0.1601653247,7198
0.1505736694,7199
0.12769436,7200
0.1166686533,7201
0.1422315349,7202
0.1541504217,7203
0.1650955741,7204
0.1557671447,7205
0.1758890621,7206
0.1645236422,7207
0.1798663626,7208
0.2439607521,7209
0.335149644,7210
0.2395420874,7211
0.1762090542,7212
0.2846306184,7213
0.2491911699,7214
0.2227594018,7215
0.2428812889,7216
0.189827737,7217
0.1541576823,7218
0.1541269262,7219
0.1604655074,7220
0.1765113653,7221
0.1517847574,7222
0.1573910499,7223
0.2884313758,7224
0.1534002784,7225
0.2015408058,7226
0.1838328011,7227
0.3461590028,7228
0.7831768771,7229
0.3950660003,7230
0.5043943829,7231
0.3058280693,7232
0.226832356,7233
0.3146625989,7234
0.2413501848,7235
0.1851728346,7236
0.2257195244,7237
0.3107226378,7238
0.2851913208,7239
0.3427674799,7240
0.3975364515,7241
0.3814807427,7242
0.3438803641,7243
0.2571761964,7244
0.2196773729,7245
0.1868067305,7246
0.1919936089,7247
0.2568441765,7248
0.2314702338,7249
0.2589372759,7250
0.1915861326,7251
0.1630619356,7252
0.2717157653,7253
0.193801472,7254
0.2892430471,7255
0.3150519988,7256
0.3082135764,7257
0.2770555789,7258
0.1846059407,7259
0.1823538289,7260
0.1777374376,7261
0.2096287331,7262
0.2187598977,7263
0.2601204208,7264
0.157570228,7265
0.2452585648,7266
0.2580937022,7267
0.1831658293,7268
0.1856289979,7269
0.2129630099,7270
0.3837450516,7271
0.7721818835,7272
0.5608993583,7273
0.4270202709,7274
0.3634684682,7275
0.3071933171,7276
0.3867569453,7277
0.3750783053,7278
0.3353565828,7279
0.3420060115,7280
0.3693747191,7281
0.4316384457,7282
0.5008400938,7283
0.5062837288,7284
0.4423589854,7285
0.2764056292,7286
0.2307674271,7287
0.2317226436,7288
0.2200439629,7289
0.2004809679,7290
0.1980823711,7291
0.4349067046,7292
0.7836101647,7293
0.37910917,7294
0.4227083684,7295
0.2190191176,7296
0.3279779133,7297
0.3279910385,7298
0.3506797185,7299
0.337066118,7300
0.2596462914,7301
0.1847684201,7302
0.1622381168,7303
0.1765453248,7304
0.1786222107,7305
0.286731606,7306
0.2364572521,7307
0.194863596,7308
0.1670710049,7309
0.1299045299,7310
0.07425272907,7311
0.2632189079,7312
0.774578909,7313
0.5479676909,7314
0.4484540992,7315
0.192828645,7316
0.2798392781,7317
0.2663362718,7318
0.2117123499,7319
0.1506937453,7320
0.1479816466,7321
0.1645976681,7322
0.1572767748,7323
0.1799804729,7324
0.1843236166,7325
0.1712769183,7326
0.1489799327,7327
0.1668792557,7328
0.1908404467,7329
0.2125473196,7330
0.2357136199,7331
0.2277635647,7332
0.4205196776,7333
0.7681086123,7334
0.4690699221,7335
0.4274251113,7336
0.2521997927,7337
0.1867792207,7338
0.1975742777,7339
0.1668181605,7340
0.240580566,7341
0.2625584955,7342
0.3560727313,7343
0.3651363824,7344
0.7705895551,7345
0.5635138416,7346
0.4936735359,7347
0.454292387,7348
0.3515200977,7349
0.2937454663,7350
0.3736900226,7351
0.3137550132,7352
0.3144111065,7353
0.287428596,7354
0.540137767,7355
0.7855485324,7356
0.5127922831,7357
0.5041498845,7358
0.39284173,7359
0.3823535505,7360
0.4418873751,7361
0.3142987936,7362
0.315170868,7363
0.2800378672,7364
0.3183365347,7365
0.2304704976,7366
0.3029143445,7367
0.3237988203,7368
0.3393172522,7369
0.3455029918,7370
0.2430764561,7371
0.1764038589,7372
0.1521991992,7373
0.1642091977,7374
0.1552928817,7375
0.1707252234,7376
0.1723176833,7377
0.5978073757,7378
0.7538836539,7379
0.4293267585,7380
0.3967778263,7381
0.2609915203,7382
0.3071759947,7383
0.3349031321,7384
0.3550817747,7385
0.3193447749,7386
0.2047191213,7387
0.1668081581,7388
0.1340030737,7389
0.1400616008,7390
0.1520720752,7391
0.1670024493,7392
0.1884444765,7393
0.2026432307,7394
0.2671587647,7395
0.3682838936,7396
0.3106680267,7397
0.1950559313,7398
0.6323547588,7399
0.6673610529,7400
0.4170164469,7401
0.4196837002,7402
0.3301325855,7403
0.3037666002,7404
0.3576727703,7405
0.3504678618,7406
0.2944210721,7407
0.2304427442,7408
0.339633412,7409
0.4468727485,7410
0.4300023003,7411
0.4501132808,7412
0.3808517027,7413
0.3223253999,7414
0.2410504262,7415
0.2340142609,7416
0.2243307509,7417
0.2033481631,7418
0.2455848738,7419
0.5851195933,7420
0.675081204,7421
0.4935863609,7422
0.2363415949,7423
0.2287512699,7424
0.5750332965,7425
0.4252189796,7426
0.4646942919,7427
0.3446459828,7428
0.3108149465,7429
0.2806032984,7430
0.6059863557,7431
0.4243031796,7432
0.3048106148,7433
0.3081347031,7434
0.3655549555,7435
0.5846426161,7436
0.3467290204,7437
0.2735114166,7438
0.3301180285,7439
0.3863139987,7440
0.7597990666,7441
0.5175083232,7442
0.5864526918,7443
0.3904856676,7444
0.3827085411,7445
0.5209907563,7446
0.8120152662,7447
0.5231662295,7448
0.4878358884,7449
0.5000121353,7450
0.5352416823,7451
0.7388441433,7452
0.6409930194,7453
0.5313488241,7454
0.4426562139,7455
0.3119977997,7456
0.6888041225,7457
0.7744371001,7458
0.4480830518,7459
0.3660309453,7460
0.3344920235,7461
0.4266889772,7462
0.7541392148,7463
0.6512547343,7464
0.6687688499,7465
0.55728608,7466
0.420885462,7467
0.6854298723,7468
0.7345164121,7469
0.6772712152,7470
0.6896457927,7471
0.5424095293,7472
0.6012004328,7473
0.7551666398,7474
0.5239611582,7475
0.485904239,7476
0.4148423073,7477
0.591608321,7478
0.7582598675,7479
0.3793941033,7480
0.4016509777,7481
0.3948310977,7482
0.4840913725,7483
0.6104520082,7484
0.6855015042,7485
0.7411117642,7486
0.7192022493,7487
0.5633015058,7488
0.5685758302,7489
0.6763881667,7490
0.4761053898,7491
0.3629901592,7492
0.2896879067,7493
0.520722917,7494
0.7697039261,7495
0.5274426307,7496
0.6343491417,7497
0.4128525951,7498
0.4076940792,7499
0.7200150999,7500
0.5642948979,7501
0.6829294965,7502
0.6526149804,7503
0.5746848763,7504
0.5146887757,7505
0.7031188661,7506
0.5166211588,7507
0.5023199727,7508
0.3971070798,7509
0.4717416797,7510
0.7486211296,7511
0.4560009373,7512
0.4222170861,7513
0.2676517562,7514
0.2960642498,7515
0.6044464311,7516
0.7554685132,7517
0.4608287405,7518
0.3471297658,7519
0.3874538623,7520
0.5345775417,7521
0.8122644262,7522
0.5671204127,7523
0.5966919395,7524
0.3165049887,7525
0.3008480281,7526
0.6412688539,7527
0.6994195614,7528
0.5528726744,7529
0.4015232487,7530
0.3384593895,7531
0.4686524832,7532
0.6413603634,7533
0.5087549335,7534
0.4310080661,7535
0.3622973505,7536
0.3768735383,7537
0.7262219886,7538
0.6298615698,7539
0.4813516818,7540
0.3955667999,7541
0.4823030284,7542
0.7302662038,7543
0.6656526137,7544
0.4272409083,7545
0.4364359578,7546
0.3996467719,7547
0.5144932082,7548
0.7620404582,7549
0.5274595965,7550
0.5615010072,7551
0.4420165628,7552
0.4455629144,7553
0.678631914,7554
0.6321385804,7555
0.6498069529,7556
0.4606001866,7557
0.4603522928,7558
0.7531341478,7559
0.6753636428,7560
0.4887616632,7561
0.4225019585,7562
0.3533177745,7563
0.6486433725,7564
0.7675721285,7565
0.4447005949,7566
0.4597959552,7567
0.5001214054,7568
0.3888762783,7569
0.7725487651,7570
0.54095769,7571
0.568064418,7572
0.3804083275,7573
0.2933197086,7574
0.5235903564,7575
0.7232950893,7576
0.4759224433,7577
0.4250909614,7578
0.323300761,7579
0.5035664019,7580
0.7949883657,7581
0.5573134409,7582
0.6846240788,7583
0.5405327753,7584
0.4938560721,7585
0.7138398874,7586
0.6347209966,7587
0.4689628605,7588
0.3984378898,7589
0.3534743705,7590
0.5524074091,7591
0.7112779261,7592
0.3954110952,7593
0.5368453413,7594
0.4194241458,7595
0.5076334922,7596
0.7997311083,7597
0.4740530552,7598
0.6536008394,7599
0.3820425147,7600
0.3538192546,7601
0.7428332578,7602
0.7215201452,7603
0.5033777881,7604
0.4104401411,7605
0.4007810984,7606
0.7307075203,7607
0.6603393958,7608
0.5069188269,7609
0.4541714633,7610
0.5284029567,7611
0.4269178739,7612
0.7186773903,7613
0.6240290787,7614
0.549506367,7615
0.3053829405,7616
0.3267220186,7617
0.7368574793,7618
0.5753009846,7619
0.5530361333,7620
0.3192623896,7621
0.2745279042,7622
0.5530823998,7623
0.767957522,7624
0.6224264968,7625
0.5659656131,7626
0.5494802334,7627
0.4397435556,7628
0.7709704543,7629
0.5634293163,7630
0.3641377906,7631
0.4169463998,7632
0.2758484126,7633
0.6033573179,7634
0.6799896776,7635
0.5208368399,7636
0.4590531833,7637
0.3404322353,7638
0.4264496662,7639
0.736187301,7640
0.5433369616,7641
0.4193553408,7642
0.4177521599,7643
0.325779321,7644
0.7754551606,7645
0.5970505212,7646
0.5142485856,7647
0.4518697761,7648
0.322942666,7649
0.5691447634,7650
0.7910888022,7651
0.5651908172,7652
0.5221887377,7653
0.4047617739,7654
0.3807121754,7655
0.745849386,7656
0.5181329516,7657
0.5375349119,7658
0.5772554709,7659
0.5991315351,7660
0.739052972,7661
0.6679733737,7662
0.4510375121,7663
0.3574589998,7664
0.2929565552,7665
0.5378704107,7666
0.7843112517,7667
0.539668974,7668
0.6041158101,7669
0.4859533302,7670
0.3973731261,7671
0.6366717275,7672
0.6928798844,7673
0.6439358442,7674
0.5283314847,7675
0.3248116724,7676
0.3721215955,7677
0.7605106676,7678
0.5435930011,7679
0.4951609033,7680
0.3764271068,7681
0.3897859079,7682
0.68158728,7683
0.6802864408,7684
0.4572208272,7685
0.3552061055,7686
0.310932913,7687
0.5025166269,7688
0.8013714748,7689
0.5913548848,7690
0.4029508858,7691
0.4254090512,7692
0.4878511483,7693
0.7173337048,7694
0.6607741846,7695
0.5430471066,7696
0.3906514256,7697
0.2689091338,7698
0.4121217144,7699
0.6907810841,7700
0.4359533588,7701
0.4650362036,7702
0.352752767,7703
0.3321770191,7704
0.6730169613,7705
0.6185598372,7706
0.450229356,7707
0.4112208052,7708
0.3538988259,7709
0.6488954962,7710
0.7877025309,7711
0.4677783648,7712
0.4616596621,7713
0.3904750936,7714
0.3788140043,7715
0.7361346816,7716
0.5247185672,7717
0.4340079841,7718
0.3271517383,7719
0.3230696464,7720
0.620387956,7721
0.7752794177,7722
0.4350064099,7723
0.4365422845,7724
0.3932258556,7725
0.4919371405,7726
0.8109384011,7727
0.5703499793,7728
0.6167850634,7729
0.476314233,7730
0.473980074,7731
0.749044564,7732
0.6072619694,7733
0.5523880417,7734
0.4129045273,7735
0.3461556938,7736
0.5992387555,7737
0.7634092507,7738
0.4727212794,7739
0.4773131554,7740
0.3352643273,7741
0.3093566639,7742
0.7528460032,7743
0.5568812268,7744
0.5492147857,7745
0.3401625028,7746
0.2862396646,7747
0.713115194,7748
0.6982777919,7749
0.4869665133,7750
0.4203214132,7751
0.3175749396,7752
0.5926669039,7753
0.7855986282,7754
0.6154568336,7755
0.5685168459,7756
0.483264957,7757
0.4912459109,7758
0.7621607831,7759
0.5345796321,7760
0.4933900425,7761
0.3482193219,7762
0.31829454,7763
0.5872190208,7764
0.6930556993,7765
0.4381880299,7766
0.3110245309,7767
0.2605658922,7768
0.3329682634,7769
0.7413239434,7770
0.6036019832,7771
0.4805667589,7772
0.3375034715,7773
0.4685326197,7774
0.7597449905,7775
0.5310489359,7776
0.5191487815,7777
0.3982394617,7778
0.3323167895,7779
0.562947253,7780
0.8045593453,7781
0.5467858991,7782
0.527039981,7783
0.3976396865,7784
0.5524335575,7785
0.7396294874,7786
0.6071836008,7787
0.5354665356,7788
0.4700038991,7789
0.42301971,7790
0.596221258,7791
0.7556773765,7792
0.4849284029,7793
0.4102716517,7794
0.3109522116,7795
0.602665836,7796
0.8118245592,7797
0.5908236061,7798
0.622893969,7799
0.7119792496,7800
0.6911130066,7801
0.5237767736,7802
0.7603558173,7803
0.5650208858,7804
0.4600209098,7805
0.4545307812,7806
0.4909449268,7807
0.7419809549,7808
0.5834801517,7809
0.6523043418,7810
0.6559466912,7811
0.5430699996,7812
0.7082435935,7813
0.6792825742,7814
0.5251557631,7815
0.5540451372,7816
0.55664197,7817
0.602469068,7818
0.7203174439,7819
0.4868285013,7820
0.4772315752,7821
0.4189659467,7822
0.500555474,7823
0.7413432673,7824
0.5030847735,7825
0.4167210598,7826
0.4116579496,7827
0.4273724248,7828
0.7265637489,7829
0.5269989249,7830
0.6570011678,7831
0.4334046884,7832
0.410056444,7833
0.6408460074,7834
0.7811222125,7835
0.5406105621,7836
0.6050711214,7837
0.4712171373,7838
0.6113376927,7839
0.6672195041,7840
0.4930823602,7841
0.4632981279,7842
0.5395377007,7843
0.3706159845,7844
0.718996924,7845
0.7514205562,7846
0.3740387416,7847
0.3621943241,7848
0.4865942126,7849
0.6669250784,7850
0.5886240406,7851
0.5151673028,7852
0.4128543591,7853
0.2785468468,7854
0.5356215451,7855
0.7413741697,7856
0.4478621919,7857
0.5881522024,7858
0.5562357146,7859
0.5764021015,7860
0.7117051904,7861
0.6616850328,7862
0.5511292484,7863
0.4179381793,7864
0.4710398996,7865
0.7109255854,7866
0.728673286,7867
0.4850255183,7868
0.393451157,7869
0.4181385975,7870
0.5086743408,7871
0.7571689936,7872
0.5030223436,7873
0.6235197337,7874
0.5888507378,7875
0.4921508441,7876
0.7564048563,7877
0.6412851111,7878
0.6041806721,7879
0.5900912594,7880
0.6192971901,7881
0.7232216933,7882
0.6855327933,7883
0.5192856305,7884
0.4058580469,7885
0.3808101745,7886
0.5613112804,7887
0.7977712915,7888
0.4510413074,7889
0.5652786977,7890
0.3758170658,7891
0.4334769121,7892
0.7194003269,7893
0.552069742,7894
0.4830079547,7895
0.4366156898,7896
0.4156560756,7897
0.6010088314,7898
0.7485238964,7899
0.5841138269,7900
0.6627567808,7901
0.667550065,7902
0.7375951971,7903
0.7420816007,7904
0.5260701263,7905
0.5456799831,7906
0.4123145739,7907
0.5508099776,7908
0.7547626277,7909
0.5759785477,7910
0.6413772642,7911
0.4489257793,7912
0.546160656,7913
0.7341901834,7914
0.659681144,7915
0.5888765529,7916
0.6562755271,7917
0.567121377,7918
0.605704182,7919
0.6896307067,7920
0.4674687374,7921
0.5076002702,7922
0.4296534806,7923
0.6609468322,7924
0.7639514335,7925
0.6584516866,7926
0.542464925,7927
0.5588282055,7928
0.5195074064,7929
0.7142105156,7930
0.6169658817,7931
0.5060430024,7932
0.3878316064,7933
0.3316620691,7934
0.4836963948,7935
0.726200776,7936
0.5685383335,7937
0.6260495302,7938
0.6484875204,7939
0.5516145914,7940
0.7626529114,7941
0.5092268202,7942
0.3088372747,7943
0.3404697029,7944
0.3089525394,7945
0.7307789936,7946
0.7721403294,7947
0.6179016732,7948
0.6370342329,7949
0.6000032308,7950
0.5343645281,7951
0.7472621793,7952
0.5025857311,7953
0.439689644,7954
0.4545067605,7955
0.4320813507,7956
0.7243312463,7957
0.7186977284,7958
0.5479058367,7959
0.5718831709,7960
0.4663912073,7961
0.5578475506,7962
0.7039695914,7963
0.4772342445,7964
0.5080648709,7965
0.3038909364,7966
0.5908478346,7967
0.7482703943,7968
0.6018778791,7969
0.5840706061,7970
0.6443467043,7971
0.5616563446,7972
0.7350303344,7973
0.668894351,7974
0.5439123512,7975
0.5853920959,7976
0.6240414761,7977
0.5765686456,7978
0.7815898428,7979
0.5492380013,7980
0.6167107369,7981
0.6052884683,7982
0.4504735657,7983
0.6151267592,7984
0.7159423304,7985
0.53377104,7986
0.6226342193,7987
0.5340618429,7988
0.6710831377,7989
0.7407349336,7990
0.5340129319,7991
0.5308768672,7992
0.4244080685,7993
0.5358102835,7994
0.7285905087,7995
0.5853676865,7996
0.5937010013,7997
0.5045927722,7998
0.3940921858,7999
0.6052346006,8000
0.660841674,8001
0.4838306285,8002
0.5099626616,8003
0.617951538,8004
0.5410784165,8005
0.7234634391,8006
0.5445389317,8007
0.5006830488,8008
0.5675342556,8009
0.503102713,8010
0.7458891442,8011
0.652623194,8012
0.5105028717,8013
0.3982746456,8014
0.5119276427,8015
0.7469793598,8016
0.7203212538,8017
0.5390781644,8018
0.4877987776,8019
0.3024449455,8020
0.3124538653,8021
0.7311752124,8022
0.576411257,8023
0.580359017,8024
0.4410440626,8025
0.448046401,8026
0.6678498972,8027
0.6687276842,8028
0.5466056085,8029
0.354629357,8030
0.2704623331,8031
0.4594433853,8032
0.7129876265,8033
0.6524977302,8034
0.5511290039,8035
0.4633925499,8036
0.5316416263,8037
0.6236637763,8038
0.5231714404,8039
0.6411254409,8040
0.4775717111,8041
0.5676140259,8042
0.7534835387,8043
0.5943535667,8044
0.5148835874,8045
0.5045586326,8046
0.4672036658,8047
0.6244992636,8048
0.7604720415,8049
0.5399977348,8050
0.5112010237,8051
0.4680494009,8052
0.5681532482,8053
0.7525866747,8054
0.6365869071,8055
0.5937275057,8056
0.5381938933,8057
0.4748801732,8058
0.6601831467,8059
0.6544577663,8060
0.5720370461,8061
0.4714079776,8062
0.4719949757,8063
0.50993063,8064
0.7345131788,8065
0.7008819941,8066
0.6288734962,8067
0.5000641222,8068
0.4997012677,8069
0.6805941859,8070
0.666129443,8071
0.5185081095,8072
0.502833111,8073
0.4557981558,8074
0.4702291994,8075
0.727723101,8076
0.5279570667,8077
0.5483789596,8078
0.4658520652,8079
0.3712771034,8080
0.7297248256,8081
0.5908362223,8082
0.5745467315,8083
0.4983743654,8084
0.5353853467,8085
0.7421336914,8086
0.6507004245,8087
0.5533183705,8088
0.5790226535,8089
0.5024596689,8090
0.6273107013,8091
0.7647314278,8092
0.584317477,8093
0.5466858265,8094
0.5689487624,8095
0.5884957532,8096
0.7238158623,8097
0.5974035396,8098
0.5417035294,8099
0.4969950355,8100
0.5198256391,8101
0.5303884312,8102
0.7924938446,8103
0.536646347,8104
0.5263487037,8105
0.4870470333,8106
0.4394396076,8107
0.6735431592,8108
0.687182488,8109
0.5860594165,8110
0.3888007602,8111
0.3597278614,8112
0.487150294,8113
0.7720208886,8114
0.5877929662,8115
0.4691166033,8116
0.3855704825,8117
0.5299998557,8118
0.7115405005,8119
0.6315021368,8120
0.578594453,8121
0.4450159212,8122
0.4466810626,8123
0.4532226252,8124
0.7354964557,8125
0.4555322625,8126
0.5016679018,8127
0.4183069709,8128
0.5356750409,8129
0.7407757908,8130
0.5262470985,8131
0.4727842409,8132
0.4493676831,8133
0.4164202927,8134
0.6404910084,8135
0.6820212005,8136
0.4578210782,8137
0.5335098966,8138
0.3721337302,8139
0.6533955462,8140
0.7841934716,8141
0.5403639642,8142
0.4747165979,8143
0.4204406217,8144
0.4875198944,8145
0.6832331199,8146
0.6811943907,8147
0.4958293553,8148
0.4997423868,8149
0.3923151046,8150
0.629765029,8151
0.7511060032,8152
0.4955473748,8153
0.4804749425,8154
0.3680321039,8155
0.3811222305,8156
0.693439512,8157
0.6219882496,8158
0.6644156782,8159
0.5299573771,8160
0.5906417385,8161
0.6782515153,8162
0.7501373181,8163
0.5800433356,8164
0.5769878776,8165
0.3864701315,8166
0.5563626203,8167
0.7471006083,8168
0.5063586049,8169
0.5722379316,8170
0.3679814611,8171
0.4091237706,8172
0.6534916244,8173
0.6681745487,8174
0.4652152785,8175
0.4374472072,8176
0.3983723064,8177
0.6777514394,8178
0.7393242667,8179
0.5738372496,8180
0.4605217457,8181
0.4399830867,8182
0.6935316489,8183
0.7407757505,8184
0.5274340529,8185
0.6713370276,8186
0.4780268308,8187
0.486281235,8188
0.6735738403,8189
0.7060553784,8190
0.4535083578,8191
0.4733977096,8192
0.4312364708,8193
0.3710621867,8194
0.7240975503,8195
0.5582494968,8196
0.5721161709,8197
0.5705807083,8198
0.3751294426,8199
0.6979367741,8200
0.6288466752,8201
0.5286068902,8202
0.4421613471,8203
0.6020247647,8204
0.7368420962,8205
0.6786454545,8206
0.4884571317,8207
0.3702644228,8208
0.405758304,8209
0.3478166914,8210
0.7413005352,8211
0.5861363687,8212
0.3790050158,8213
0.3270616242,8214
0.4141510645,8215
0.6903954015,8216
0.6821529082,8217
0.4661842315,8218
0.4751127639,8219
0.4063200907,8220
0.4813363089,8221
0.7410609767,8222
0.5582172658,8223
0.5079496901,8224
0.3715432745,8225
0.5756023511,8226
0.7655343357,8227
0.555456333,8228
0.615534485,8229
0.4369033141,8230
0.4934981718,8231
0.691508312,8232
0.6162439089,8233
0.6507802915,8234
0.6114598732,8235
0.6224818677,8236
0.64986264,8237
0.7703059025,8238
0.60047276,8239
0.6521627406,8240
0.6387007771,8241
0.5107279608,8242
0.6785708597,8243
0.6779894009,8244
0.4350468754,8245
0.3647911074,8246
0.5187840791,8247
0.5749839161,8248
0.7628179482,8249
0.5259867947,8250
0.5178517449,8251
0.5400131594,8252
0.521193855,8253
0.7680751844,8254
0.5594837137,8255
0.5297479733,8256
0.3766216498,8257
0.4848054631,8258
0.7434300206,8259
0.5245848756,8260
0.5104541856,8261
0.3270471268,8262
0.2977314971,8263
0.6384389653,8264
0.6789657899,8265
0.4889148667,8266
0.4109934068,8267
0.3393379099,8268
0.6402352933,8269
0.7606965921,8270
0.5275925893,8271
0.4332819726,8272
0.4482429405,8273
0.4131719072,8274
0.7610741783,8275
0.5384594688,8276
0.4784744666,8277
0.306996171,8278
0.381326687,8279
0.7172571213,8280
0.560075288,8281
0.5534746496,8282
0.4013265999,8283
0.3902820111,8284
0.6785445541,8285
0.6683920939,8286
0.485157984,8287
0.3244725317,8288
0.2667831814,8289
0.5915323546,8290
0.7227881358,8291
0.5461683009,8292
0.6810128992,8293
0.5970114818,8294
0.5240185379,8295
0.7634851876,8296
0.5762911618,8297
0.5552611245,8298
0.5678288916,8299
0.4033257764,8300
0.6379867634,8301
0.7150385043,8302
0.5082516814,8303
0.5600207088,8304
0.4497916863,8305
0.5086034219,8306
0.7441527683,8307
0.5896636734,8308
0.5021843121,8309
0.4178194671,8310
0.360977825,8311
0.6303303488,8312
0.7428620122,8313
0.5633483159,8314
0.5120873943,8315
0.4319299356,8316
0.4310056944,8317
0.7746688282,8318
0.6271901521,8319
0.650258675,8320
0.6468272256,8321
0.5420167504,8322
0.7263683054,8323
0.7334603806,8324
0.6848869756,8325
0.7473743807,8326
0.6552283847,8327
0.4416966249,8328
0.7565325225,8329
0.4810930251,8330
0.5480353669,8331
0.3907185412,8332
0.5568722066,8333
0.7520362324,8334
0.6671443291,8335
0.5013916958,8336
0.4411133858,8337
0.4009580477,8338
0.720343997,8339
0.7118412714,8340
0.5366088582,8341
0.4617491416,8342
0.3389319055,8343
0.6127548525,8344
0.7547436904,8345
0.534071228,8346
0.5337568706,8347
0.3413961686,8348
0.4020743541,8349
0.681345659,8350
0.7117730396,8351
0.5484005125,8352
0.3914713529,8353
0.3805882431,8354
0.7279148594,8355
0.6317146321,8356
0.5255074032,8357
0.4909146474,8358
0.3550780685,8359
0.5901204319,8360
0.7873539185,8361
0.5546909434,8362
0.5476219587,8363
0.6210244988,8364
0.5943933411,8365
0.7229732355,8366
0.632483889,8367
0.6172463297,8368
0.515369853,8369
0.4502633856,8370
0.6777023736,8371
0.6587851586,8372
0.5620424866,8373
0.5609774009,8374
0.5422161667,8375
0.6570969357,8376
0.7738976697,8377
0.6870305136,8378
0.5791903846,8379
0.3648282326,8380
0.4545268841,8381
0.7792695966,8382
0.6476060425,8383
0.5635350185,8384
0.5414474298,8385
0.540738458,8386
0.6809088349,8387
0.60493955,8388
0.560676842,8389
0.5977676398,8390
0.5665174412,8391
0.68757986,8392
0.7523522485,8393
0.5356292922,8394
0.5721155457,8395
0.418835269,8396
0.6996670594,8397
0.7583543019,8398
0.5325579799,8399
0.5070840867,8400
0.504838371,8401
0.4886643647,8402
0.6709358918,8403
0.7104709139,8404
0.5782365321,8405
0.4557966718,8406
0.4106693196,8407
0.5200720043,8408
0.7677707596,8409
0.6193773151,8410
0.5033587627,8411
0.4769525142,8412
0.5404598822,8413
0.729917106,8414
0.7698486505,8415
0.527711288,8416
0.5155431271,8417
0.3868660436,8418
0.564385605,8419
0.7409940855,8420
0.6665782948,8421
0.5286745299,8422
0.4674095799,8423
0.4987346198,8424
0.769251692,8425
0.643953752,8426
0.6175020428,8427
0.5200262375,8428
0.4992907228,8429
0.7226898755,8430
0.6190497824,8431
0.5361252655,8432
0.4785625483,8433
0.4336681697,8434
0.6508876617,8435
0.7004439063,8436
0.5259833242,8437
0.4357101371,8438
0.4598420101,8439
0.5810286897,8440
0.7771998069,8441
0.5363990788,8442
0.4626170219,8443
0.439034954,8444
0.4863491594,8445
0.695145981,8446
0.7035978093,8447
0.5243505079,8448
0.4903493127,8449
0.476407728,8450
0.5076429998,8451
0.7584130929,8452
0.5514396932,8453
0.572441728,8454
0.4552683108,8455
0.3165941706,8456
0.5885426803,8457
0.7655509344,8458
0.4845427798,8459
0.4753299993,8460
0.3912480462,8461
0.6554667413,8462
0.7465947861,8463
0.5176668876,8464
0.5052118015,8465
0.4064193307,8466
0.4352400576,8467
0.6369234433,8468
0.740473857,8469
0.5490609673,8470
0.5749164979,8471
0.3521979053,8472
0.6611256609,8473
0.7201969121,8474
0.5902757994,8475
0.5079375673,8476
0.4716292428,8477
0.4619083663,8478
0.54718656,8479
0.7842745705,8480
0.4977722023,8481
0.5337001016,8482
0.4892912455,8483
0.6321109943,8484
0.7772777741,8485
0.6073624746,8486
0.529513748,8487
0.4231345785,8488
0.4414241723,8489
0.5075265913,8490
0.7590771251,8491
0.5430266893,8492
0.5751068437,8493
0.477892943,8494
0.5090586939,8495
0.7666749865,8496
0.5217100285,8497
0.5018051542,8498
0.4419117222,8499
0.6744930407,8500
0.6059346757,8501
0.5420353701,8502
0.510418986,8503
0.8060453401,8504
0.6224976029,8505
0.5382840549,8506
0.7802804585,8507
0.6033258147,8508
0.5233761217,8509
0.5225889952,8510
0.7248486642,8511
0.4589975289,8512
0.5113270185,8513
0.6943377541,8514
0.5335456399,8515
0.5054767997,8516
0.6137971094,8517
0.6162148542,8518
0.5842292469,8519
0.483757436,8520
0.4867946903,8521
0.4858508867,8522
0.4788838445,8523
0.436246934,8524
0.4371852972,8525
0.4430089859,8526
0.4113495587,8527
0.3795004418,8528
0.4502872411,8529
0.4985713778,8530
0.353234055,8531
0.2509190949,8532
0.2197256325,8533
0.2011691159,8534
0.2678067172,8535
0.2757089584,8536
0.2830169202,8537
0.2663963581,8538
0.2061101567,8539
0.2707922071,8540
0.2622348236,8541
0.2506959738,8542
0.2405858958,8543
0.2424582821,8544
0.2129824229,8545
0.1654601605,8546
0.1655993377,8547
0.2334046426,8548
0.2706325675,8549
0.3173467087,8550
0.2639175445,8551
0.21763179,8552
0.1524437096,8553
0.13849897,8554
0.1504425453,8555
0.09107261299,8556
0.1096890875,8557
0.2405627036,8558
0.6439732074,8559
0.7183480336,8560
0.5874413147,8561
0.5242050138,8562
0.576494731,8563
0.7267652135,8564
0.7055325404,8565
0.5828635713,8566
0.5838290774,8567
0.5410531683,8568
0.4888450668,8569
0.735034041,8570
0.6612919061,8571
0.547170106,8572
0.4935146899,8573
0.4721066152,8574
0.7033330545,8575
0.6713427567,8576
0.5876756044,8577
0.5633436898,8578
0.5223101101,8579
0.5387879186,8580
0.7596054975,8581
0.6764371229,8582
0.6305573946,8583
0.5491839942,8584
0.4985476966,8585
0.6713735986,8586
0.6952457393,8587
0.5301405102,8588
0.5571089201,8589
0.4141768601,8590
0.6901098492,8591
0.6907303036,8592
0.5761378595,8593
0.5519056986,8594
0.5599588304,8595
0.6332617905,8596
0.6913676763,8597
0.5482766314,8598
0.5923547667,8599
0.4960665953,8600
0.6111405972,8601
0.7766311734,8602
0.4711112105,8603
0.555100202,8604
0.4593125205,8605
0.4376508796,8606
0.7115358015,8607
0.5850358229,8608
0.601731186,8609
0.3724746053,8610
0.4318017013,8611
0.6479047019,8612
0.6476747463,8613
0.5636927544,8614
0.4792485811,8615
0.3664849644,8616
0.5747411367,8617
0.7467257307,8618
0.497644951,8619
0.4406639099,8620
0.363689148,8621
0.3992813421,8622
0.7570233855,8623
0.5450069827,8624
0.5615037654,8625
0.3806329286,8626
0.3229618214,8627
0.6632451103,8628
0.7457901521,8629
0.3839976165,8630
0.3999690458,8631
0.4289581438,8632
0.635601024,8633
0.6761894029,8634
0.5701910943,8635
0.5553630401,8636
0.3656642365,8637
0.4828273554,8638
0.7467792227,8639
0.5703560831,8640
0.5723934838,8641
0.509505444,8642
0.3928949684,8643
0.7502718568,8644
0.6242610803,8645
0.5872780993,8646
0.4840214013,8647
0.4734404907,8648
0.5966390643,8649
0.778412113,8650
0.5272858082,8651
0.5242669015,8652
0.4654103309,8653
0.5533323156,8654
0.8058329434,8655
0.6387218551,8656
0.5534585925,8657
0.5131259849,8658
0.4635765263,8659
0.6899856756,8660
0.6986697053,8661
0.5529178718,8662
0.4817409602,8663
0.4852396606,8664
0.6343191311,8665
0.7176236184,8666
0.5094922766,8667
0.5230745745,8668
0.4558922048,8669
0.464325636,8670
0.7161437774,8671
0.6438761561,8672
0.5470932134,8673
0.528626031,8674
0.4986303218,8675
0.7354915199,8676
0.6698133695,8677
0.5249395237,8678
0.4197868104,8679
0.43279408,8680
0.4688458844,8681
0.8499073102,8682
0.4899857446,8683
0.4885998104,8684
0.3595226576,8685
0.4978698832,8686
0.7798283785,8687
0.5059879699,8688
0.4749144441,8689
0.391179282,8690
0.3741555679,8691
0.5785999707,8692
0.7359429904,8693
0.469152433,8694
0.4800632585,8695
0.3108688208,8696
0.699538127,8697
0.7594819443,8698
0.5533895514,8699
0.5051057545,8700
0.4639072267,8701
0.4765647038,8702
0.7297638102,8703
0.6237108838,8704
0.6454643807,8705
0.4902358225,8706
0.48586401,8707
0.6732007434,8708
0.6019750482,8709
0.3778694063,8710
0.3101692882,8711
0.3148457617,8712
0.4154984945,8713
0.6564635167,8714
0.5128182094,8715
0.6625504826,8716
0.4636685203,8717
0.6018965441,8718
0.7416756156,8719
0.6332740896,8720
0.5485309408,8721
0.4402885136,8722
0.4179409172,8723
0.5414371405,8724
0.7798377899,8725
0.5558277768,8726
0.4716124492,8727
0.5217095204,8728
0.5019142717,8729
0.7351395424,8730
0.5566121823,8731
0.4693889725,8732
0.4584166765,8733
0.4600302619,8734
0.662347686,8735
0.6825085379,8736
0.6433244597,8737
0.5283507947,8738
0.5330447528,8739
0.6614183513,8740
0.7504522673,8741
0.4848891366,8742
0.3950259615,8743
0.4514436695,8744
0.4877813414,8745
0.6878965999,8746
0.6864208037,8747
0.5987515743,8748
0.4269912283,8749
0.4485753581,8750
0.5698408641,8751
0.7556603099,8752
0.6300845309,8753
0.5077058073,8754
0.4136343683,8755
0.3684174908,8756
0.6967361084,8757
0.6438134008,8758
0.5788834718,8759
0.5268100843,8760
0.5345226877,8761
0.7432006265,8762
0.7052927494,8763
0.5201742982,8764
0.5084299515,8765
0.4552151309,8766
0.497755935,8767
0.685513868,8768
0.627442688,8769
0.5234701069,8770
0.3377102669,8771
0.3912884539,8772
0.6499364078,8773
0.6408612863,8774
0.5652979982,8775
0.4003434015,8776
0.429277522,8777
0.4841822296,8778
0.7299326128,8779
0.5704230977,8780
0.4844658753,8781
0.4329565886,8782
0.4730714669,8783
0.8107107955,8784
0.60450312,8785
0.5632336231,8786
0.4182541635,8787
0.477658699,8788
0.6380925717,8789
0.7361139818,8790
0.5922924788,8791
0.4558695496,8792
0.4160924617,8793
0.6175811672,8794
0.7492553337,8795
0.4984064498,8796
0.592954281,8797
0.4918768032,8798
0.4980520724,8799
0.5667565278,8800
0.7086686648,8801
0.6242106876,8802
0.6098116664,8803
0.5186257381,8804
0.6784271058,8805
0.7610211085,8806
0.5602424691,8807
0.5480585507,8808
0.4684330002,8809
0.469679139,8810
0.7887286942,8811
0.6164103659,8812
0.6307708441,8813
0.4133199119,8814
0.4789855736,8815
0.736131015,8816
0.710277667,8817
0.5351007151,8818
0.490064305,8819
0.516967983,8820
0.4358658623,8821
0.7361610628,8822
0.5935096386,8823
0.6768960109,8824
0.5929843818,8825
0.5465613521,8826
0.6672583829,8827
0.5676164013,8828
0.5136397368,8829
0.4393013695,8830
0.5029396865,8831
0.5896523121,8832
0.7480866219,8833
0.5938357672,8834
0.6268271311,8835
0.4830395542,8836
0.6391324386,8837
0.7224279759,8838
0.5211725854,8839
0.5507900617,8840
0.5602335526,8841
0.5083672068,8842
0.6724881591,8843
0.7394104258,8844
0.5054535073,8845
0.5657875634,8846
0.5932709534,8847
0.6839610323,8848
0.6109771899,8849
0.5792761968,8850
0.4960483807,8851
0.5055261034,8852
0.4549791857,8853
0.7359475865,8854
0.5124019677,8855
0.5965741916,8856
0.5416845759,8857
0.4226390686,8858
0.7257812638,8859
0.6390159206,8860
0.694747724,8861
0.5343391745,8862
0.4315416755,8863
0.4479042306,8864
0.7771275329,8865
0.524831038,8866
0.4587392093,8867
0.2936352751,8868
0.5152244793,8869
0.7292882135,8870
0.5120031192,8871
0.3931723414,8872
0.4174379864,8873
0.3738560022,8874
0.6361501197,8875
0.7154196648,8876
0.5122681149,8877
0.5805110737,8878
0.3472850743,8879
0.6387914625,8880
0.7214610568,8881
0.5238821082,8882
0.4325468551,8883
0.344190973,8884
0.3612807031,8885
0.5135877498,8886
0.6565895787,8887
0.4884394578,8888
0.5218195465,8889
0.4163922263,8890
0.768809722,8891
0.6629719292,8892
0.6149084206,8893
0.5455796803,8894
0.4716284477,8895
0.4982596189,8896
0.7754064376,8897
0.7118127976,8898
0.6319602827,8899
0.5665020979,8900
0.4546074873,8901
0.6651940235,8902
0.6668982146,8903
0.5980000992,8904
0.4672314193,8905
0.4530434813,8906
0.4952006027,8907
0.7441089065,8908
0.6752948967,8909
0.5188148091,8910
0.4611146982,8911
0.5320849158,8912
0.7198687374,8913
0.6291512193,8914
0.5931427321,8915
0.5711916112,8916
0.4735370822,8917
0.591088591,8918
0.7392868203,8919
0.6082673065,8920
0.5456793318,8921
0.5882466743,8922
0.6344960094,8923
0.7630551137,8924
0.6370174026,8925
0.6010475408,8926
0.4499771623,8927
0.5446382237,8928
0.6268381429,8929
0.7935364281,8930
0.6056414103,8931
0.537988864,8932
0.5491067884,8933
0.6471922522,8934
0.6694948655,8935
0.5182784653,8936
0.5746930115,8937
0.5124630151,8938
0.4244387089,8939
0.7335104209,8940
0.6209030364,8941
0.6635594392,8942
0.5755646563,8943
0.4654615127,8944
0.5893539126,8945
0.5978864963,8946
0.484993393,8947
0.4222942478,8948
0.331821649,8949
0.4731266352,8950
0.7561154235,8951
0.4382568062,8952
0.4981292108,8953
0.355041645,8954
0.5907802778,8955
0.6967013761,8956
0.6722342533,8957
0.5377490674,8958
0.3491939689,8959
0.4290554969,8960
0.6828755211,8961
0.682831905,8962
0.5633132676,8963
0.498702201,8964
0.2944269805,8965
0.4351626501,8966
0.7275660836,8967
0.464724874,8968
0.4037376577,8969
0.3360776334,8970
0.2471930267,8971
0.6758660959,8972
0.6029350237,8973
0.4675419698,8974
0.3957655265,8975
0.4781881593,8976
0.6462783114,8977
0.7432747232,8978
0.5403955157,8979
0.5077978031,8980
0.4771793728,8981
0.5228411018,8982
0.7583602545,8983
0.5568653724,8984
0.5248525845,8985
0.4547169972,8986
0.4428726854,8987
0.6890055206,8988
0.7186721173,8989
0.5455031767,8990
0.4901018648,8991
0.4924786767,8992
0.5332728496,8993
0.7593031005,8994
0.5735970005,8995
0.4862837733,8996
0.3780973702,8997
0.620784635,8998
0.7745725262,8999
0.5885815289,9000
0.6405304764,9001
0.5559883814,9002
0.5566398814,9003
0.6464288711,9004
0.6661617204,9005
0.6033446311,9006
0.4870287763,9007
0.4452283256,9008
0.5127996069,9009
0.7468692842,9010
0.5507355518,9011
0.5432264595,9012
0.4293599821,9013
0.4628289994,9014
0.7534698222,9015
0.5627510652,9016
0.6075998403,9017
0.4141144037,9018
0.5056580417,9019
0.7151910803,9020
0.640877467,9021
0.5601536215,9022
0.4426521926,9023
0.4680673409,9024
0.6885351257,9025
0.6793150843,9026
0.4934533353,9027
0.5237082437,9028
0.3407436868,9029
0.41024559,9030
0.7781974537,9031
0.5861528479,9032
0.6104752027,9033
0.5288861914,9034
0.4871593106,9035
0.6481057235,9036
0.6799205274,9037
0.5199888261,9038
0.4984181397,9039
0.3900951109,9040
0.5931009834,9041
0.778803506,9042
0.5451701462,9043
0.5807500297,9044
0.570342363,9045
0.5700543966,9046
0.7605847304,9047
0.5335820895,9048
0.5875108238,9049
0.4751495478,9050
0.4136313182,9051
0.6910371528,9052
0.6718677825,9053
0.5657431697,9054
0.4825440913,9055
0.3969523402,9056
0.5275525635,9057
0.7798506419,9058
0.5484898143,9059
0.6819500704,9060
0.4580556405,9061
0.5489613326,9062
0.7422727945,9063
0.5949722357,9064
0.5878740818,9065
0.5314402573,9066
0.4155944009,9067
0.6019417443,9068
0.7026411671,9069
0.4703181158,9070
0.5424596012,9071
0.4405867489,9072
0.5348524946,9073
0.7573394063,9074
0.5659735453,9075
0.5225913956,9076
0.5311473797,9077
0.5198131202,9078
0.7152051796,9079
0.6678298354,9080
0.4850743747,9081
0.4714451796,9082
0.4251084892,9083
0.6155617009,9084
0.7959382905,9085
0.5003661107,9086
0.4712877575,9087
0.4696363322,9088
0.4610568004,9089
0.7109794608,9090
0.64197964,9091
0.5978707507,9092
0.5551059001,9093
0.4531408322,9094
0.6106462771,9095
0.7334448771,9096
0.623165089,9097
0.391354279,9098
0.4850413517,9099
0.5084955463,9100
0.7759570757,9101
0.6061678512,9102
0.5127129203,9103
0.5363391124,9104
0.5402407594,9105
0.672204646,9106
0.6289177798,9107
0.5274498803,9108
0.4968115126,9109
0.4220234633,9110
0.7373583421,9111
0.637254371,9112
0.4623477342,9113
0.3793166079,9114
0.3379713614,9115
0.5392523794,9116
0.7955435853,9117
0.5877746598,9118
0.5026745603,9119
0.4304981355,9120
0.3684596759,9121
0.7638552919,9122
0.5448566133,9123
0.6211341889,9124
0.320668282,9125
0.3457501021,9126
0.7364688488,9127
0.7416946919,9128
0.5581249669,9129
0.5318227637,9130
0.4279306499,9131
0.6488689514,9132
0.7280102733,9133
0.6113978089,9134
0.6561532627,9135
0.6311617006,9136
0.5652950408,9137
0.7698864423,9138
0.6157096581,9139
0.6191386242,9140
0.3651977285,9141
0.3937467134,9142
0.728772759,9143
0.754803268,9144
0.603594947,9145
0.5910063421,9146
0.4347591287,9147
0.6627043161,9148
0.7537577272,9149
0.6027650219,9150
0.5046360688,9151
0.407570283,9152
0.4926686983,9153
0.7900722248,9154
0.7007373516,9155
0.6902754282,9156
0.6885920351,9157
0.5336934921,9158
0.6526811757,9159
0.71770592,9160
0.5653206384,9161
0.5323705071,9162
0.5471213098,9163
0.5632727411,9164
0.8039653006,9165
0.5813803614,9166
0.5476175023,9167
0.591619966,9168
0.588842766,9169
0.7562684307,9170
0.6037569809,9171
0.6289635478,9172
0.5721044436,9173
0.5677610313,9174
0.6509726957,9175
0.7416497682,9176
0.5450619709,9177
0.5919223818,9178
0.5004090271,9179
0.6096462831,9180
0.7431761247,9181
0.5041447516,9182
0.4934819577,9183
0.4903982217,9184
0.5607473258,9185
0.7376730666,9186
0.6938252499,9187
0.4992324996,9188
0.4757023561,9189
0.5060562255,9190
0.766738457,9191
0.7010252208,9192
0.5129287318,9193
0.5080542984,9194
0.4326878829,9195
0.4940480735,9196
0.7483408162,9197
0.6711523968,9198
0.6149769498,9199
0.5769204119,9200
0.5238424787,9201
0.6811621378,9202
0.6895123695,9203
0.6108077541,9204
0.6233904643,9205
0.4176062629,9206
0.7297194563,9207
0.6842706638,9208
0.3520930847,9209
0.3098000798,9210
0.3292808859,9211
0.6510651711,9212
0.7643750437,9213
0.4665093883,9214
0.4459610288,9215
0.4258957317,9216
0.3603408358,9217
0.7664677388,9218
0.541957127,9219
0.513004995,9220
0.2736868126,9221
0.3506535645,9222
0.6423579177,9223
0.7117984512,9224
0.5102905901,9225
0.4457190281,9226
0.3272287691,9227
0.5004578248,9228
0.7389249052,9229
0.4544369042,9230
0.577558877,9231
0.4848553836,9232
0.5287809359,9233
0.7240861893,9234
0.6710871729,9235
0.5882268718,9236
0.4772898376,9237
0.4084908255,9238
0.5932893662,9239
0.708491473,9240
0.6075060087,9241
0.5689037442,9242
0.4048974295,9243
0.4665609476,9244
0.7059869673,9245
0.5778479874,9246
0.5327969619,9247
0.4337744969,9248
0.4912984302,9249
0.600896657,9250
0.603962222,9251
0.55966971,9252
0.536440574,9253
0.4864939644,9254
0.7389270324,9255
0.7393075874,9256
0.5748951446,9257
0.6266981845,9258
0.5300882828,9259
0.6504322924,9260
0.7533864973,9261
0.5501955,9262
0.4989078826,9263
0.4607652703,9264
0.4760667641,9265
0.7867437761,9266
0.6281152904,9267
0.5100427651,9268
0.5168505288,9269
0.4392975539,9270
0.6166781167,9271
0.7758088914,9272
0.395184723,9273
0.5136647344,9274
0.3555622107,9275
0.6084547134,9276
0.774786769,9277
0.5676081923,9278
0.5248365693,9279
0.4872774512,9280
0.5019802738,9281
0.6707789141,9282
0.6425614669,9283
0.390962603,9284
0.3643011509,9285
0.3124427424,9286
0.5361134081,9287
0.8039624806,9288
0.5222363742,9289
0.5182317273,9290
0.3720122362,9291
0.424625199,9292
0.6511152441,9293
0.7399247773,9294
0.5276551603,9295
0.3417200943,9296
0.3459878596,9297
0.5880875957,9298
0.7800421264,9299
0.5661591401,9300
0.52444032,9301
0.3487491368,9302
0.4451414772,9303
0.6998438357,9304
0.5952953305,9305
0.5067159136,9306
0.3764464982,9307
0.4345146331,9308
0.589586196,9309
0.7216359014,9310
0.5409454012,9311
0.4474674132,9312
0.3529665758,9313
0.4385030087,9314
0.7441894287,9315
0.5270904287,9316
0.4379064154,9317
0.3317775875,9318
0.6257675009,9319
0.7656805345,9320
0.5838187266,9321
0.5565116335,9322
0.5017057292,9323
0.4120109084,9324
0.5163075614,9325
0.7357354012,9326
0.46558438,9327
0.4435470581,9328
0.515304824,9329
0.504637347,9330
0.7483846132,9331
0.6085158298,9332
0.5622801861,9333
0.5238245176,9334
0.4531624638,9335
0.6072332632,9336
0.7895616745,9337
0.628222302,9338
0.6110999843,9339
0.4464297241,9340
0.6384409617,9341
0.7003639328,9342
0.4670435794,9343
0.4327246335,9344
0.4761573067,9345
0.5011136497,9346
0.638239637,9347
0.7291793172,9348
0.5819706064,9349
0.4187172526,9350
0.4680913892,9351
0.6469592773,9352
0.7367858965,9353
0.5750332187,9354
0.6393635868,9355
0.5809544689,9356
0.5794849347,9357
0.7794463291,9358
0.6880113745,9359
0.6656284111,9360
0.5350024781,9361
0.4331857493,9362
0.6679891958,9363
0.723180335,9364
0.5257071097,9365
0.4610237843,9366
0.4349668723,9367
0.3743530653,9368
0.732660875,9369
0.714605148,9370
0.5911776485,9371
0.5689644394,9372
0.3988803108,9373
0.7658008462,9374
0.6491054784,9375
0.4450213103,9376
0.3329275384,9377
0.2811556347,9378
0.5466162835,9379
0.7429422789,9380
0.5145055682,9381
0.4228070569,9382
0.2681879654,9383
0.5071125852,9384
0.7808328893,9385
0.6065484985,9386
0.5352694456,9387
0.4319643553,9388
0.4242568741,9389
0.6788416911,9390
0.6092438907,9391
0.4465771337,9392
0.4036225047,9393
0.348705279,9394
0.5761984073,9395
0.7471069595,9396
0.448661832,9397
0.3034412782,9398
0.3859714267,9399
0.3390360663,9400
0.6820697779,9401
0.5959643919,9402
0.5851881989,9403
0.4012382706,9404
0.3153067019,9405
0.6617461013,9406
0.7175057337,9407
0.5212723991,9408
0.4135398993,9409
0.4615563042,9410
0.6224445483,9411
0.7281685058,9412
0.5324383898,9413
0.5437461467,9414
0.5889394064,9415
0.449624529,9416
0.6921860375,9417
0.6175103688,9418
0.5796217968,9419
0.517756491,9420
0.4787862149,9421
0.6415767815,9422
0.7732381689,9423
0.5768507448,9424
0.3893777539,9425
0.456622798,9426
0.6431514937,9427
0.7072119583,9428
0.5596254914,9429
0.545902613,9430
0.4646698411,9431
0.53539421,9432
0.7195779207,9433
0.6161034704,9434
0.6267253279,9435
0.5607857919,9436
0.561372013,9437
0.6697657061,9438
0.7311261024,9439
0.6213820553,9440
0.519552926,9441
0.4719235808,9442
0.521179926,9443
0.7178558441,9444
0.6408649127,9445
0.6022106714,9446
0.5912374753,9447
0.4290214225,9448
0.7691231783,9449
0.740382115,9450
0.4870431536,9451
0.4717678248,9452
0.4160396581,9453
0.6704835608,9454
0.6920494618,9455
0.4286262082,9456
0.4266655911,9457
0.3473728158,9458
0.491360688,9459
0.7250194537,9460
0.5094239513,9461
0.4961108075,9462
0.4751723488,9463
0.3522842468,9464
0.7186929291,9465
0.6235109348,9466
0.4777186492,9467
0.3820334284,9468
0.2843303014,9469
0.6385998417,9470
0.7334329699,9471
0.5075936511,9472
0.5307431401,9473
0.4168890142,9474
0.4953500887,9475
0.7146601438,9476
0.5821061314,9477
0.6218130311,9478
0.5611438636,9479
0.455079382,9480
0.7741981899,9481
0.479829147,9482
0.5455167759,9483
0.2823640632,9484
0.308375064,9485
0.6268573082,9486
0.7125602968,9487
0.6092546908,9488
0.4220150406,9489
0.4135365732,9490
0.5994743194,9491
0.7729699869,9492
0.6031389778,9493
0.5238197013,9494
0.5251242124,9495
0.4956943172,9496
0.6834310239,9497
0.6930536053,9498
0.6025845136,9499
0.5316475674,9500
0.3721532189,9501
0.5836370994,9502
0.7470506946,9503
0.5522630109,9504
0.4771409354,9505
0.457970694,9506
0.543841247,9507
0.7305335692,9508
0.7014991571,9509
0.543831384,9510
0.4154444448,9511
0.4197216628,9512
0.7268590987,9513
0.6540919329,9514
0.6661937872,9515
0.4513676449,9516
0.4954667343,9517
0.5137181431,9518
0.7950645855,9519
0.5464141206,9520
0.6014827269,9521
0.4096191509,9522
0.3998627502,9523
0.769860343,9524
0.6048960459,9525
0.6185660574,9526
0.392596007,9527
0.3796239012,9528
0.5379184981,9529
0.742765345,9530
0.3909919514,9531
0.3654526831,9532
0.4040494161,9533
0.6204773486,9534
0.7632378849,9535
0.6446047779,9536
0.5117152662,9537
0.5226302715,9538
0.4128451143,9539
0.644671733,9540
0.6978986905,9541
0.4715825759,9542
0.4354081716,9543
0.3866008913,9544
0.510195842,9545
0.7200420758,9546
0.5148878761,9547
0.4005126669,9548
0.4572335302,9549
0.4663048622,9550
0.6586891232,9551
0.7339750427,9552
0.5747757889,9553
0.4804926927,9554
0.3852179051,9555
0.6208839564,9556
0.6584742648,9557
0.6169257991,9558
0.5722188363,9559
0.5428432838,9560
0.6155748786,9561
0.811415881,9562
0.5031831205,9563
0.5613797746,9564
0.4162823323,9565
0.5334259271,9566
0.7902465069,9567
0.4653726218,9568
0.447123464,9569
0.4732190431,9570
0.4884237097,9571
0.5372076072,9572
0.7826725903,9573
0.480155454,9574
0.4873518837,9575
0.4901664117,9576
0.6498757156,9577
0.6980701542,9578
0.50066534,9579
0.5071798523,9580
0.4791936814,9581
0.631057584,9582
0.5084646404,9583
0.4657066266,9584
0.4855571853,9585
0.4771993162,9586
0.3741977814,9587
0.4703656664,9588
0.7520873522,9589
0.7265873952,9590
0.7654914246,9591
0.6303352062,9592
0.6183079552,9593
0.7249847142,9594
0.6047675165,9595
0.5840483284,9596
0.5320422454,9597
0.5064815535,9598
0.7553302451,9599
0.6308786949,9600
0.7323258557,9601
0.6208258202,9602
0.6110556905,9603
0.6855173548,9604
0.7205829821,9605
0.6677799459,9606
0.7777426912,9607
0.6092403552,9608
0.669159003,9609
0.5043282814,9610
0.7763969076,9611
0.5425453049,9612
0.6026015282,9613
0.4294032542,9614
0.5329140794,9615
0.474584092,9616
0.4860165747,9617
0.3585329627,9618
0.4312088064,9619
0.2291067392,9620
0.3571750313,9621
0.4053893132,9622
0.2199927686,9623
0.1983207997,9624
0.1372291216,9625
0.1557252416,9626
0.1459247222,9627
0.1179853313,9628
0.2559081031,9629
0.1306144724,9630
0.1242728353,9631
0.09435603118,9632
0.09009111442,9633
0.111447975,9634
0.1328307048,9635
0.08281995111,9636
0.07603049751,9637
0.06395685,9638
0.06958984961,9639
0.04351886676,9640
0.04927615724,9641
0.04323513902,9642
0.06528035146,9643
0.06901154535,9644
0.05501529969,9645
0.03019265917,9646
0.05402912327,9647
0.0308740328,9648
0.04704529062,9649
0.03285247882,9650
0.04420794915,9651
0.03466985267,9652
0.04238255207,9653
0.03237627455,9654
0.03310833838,9655
0.04240200556,9656
0.0257840996,9657
0.02447341548,9658
0.02812228316,9659
0.03135316908,9660
0.01781557155,9661
0.0227861215,9662
0.0256723017,9663
0.01560353247,9664
0.0128511536,9665
0.02245718554,9666
0.02225656597,9667
0.01481869671,9668
0.01240925059,9669
0.01944213393,9670
0.009103694802,9671
0.02174188212,9672
0.01842729073,9673
0.008298309152,9674
0.01019771353,9675
0.006583641723,9676
0.01024500675,9677
0.008813365084,9678
0.008054885596,9679
0.01090256671,9680
0.009099705964,9681
0.006633987088,9682
0.00893513219,9683
0.008210584132,9684
0.009800500083,9685
0.008487845645,9686
0.004843508402,9687
0.002315593904,9688
0.003421706631,9689
0.004070251817,9690
0.003678841662,9691
0.005467991305,9692
0.003734646096,9693
0.003009833612,9694
0.001574391811,9695
0.002420137191,9696
0.002992853675,9697
0.002778809605,9698
0.002514255942,9699
0.001583367061,9700
0.002853852824,9701
0.001633196155,9702
0.001729808535,9703
0.001680793017,9704
0.00157051369,9705
7.105596877E-4,9706
7.700233606E-4,9707
5.592192014E-4,9708
6.577422001E-4,9709
5.313583689E-4,9710
3.805148572E-5,9711
2.88949154E-5,9712
3.191604715E-5,9713
2.106735424E-5,9714
2.312537318E-5,9715
2.479553223E-5,9716
2.636008255E-5,9717
2.166331614E-5,9718
2.714204687E-5,9719
2.191376742E-5,9720
2.11104809E-5,9721
1.84924311E-5,9722
2.895779886E-5,9723
2.803218547E-5,9724
2.11104809E-5,9725
1.794327519E-5,9726
1.525878906E-5,9727
1.446318711E-5,9728
0.0,9729
0.0,9730
0.0,9731
0.0,9732
0.0,9733
0.0,9734
0.0,9735
0.0,9736
0.0,9737
0.0,9738
0.0,9739
0.0,9740
0.0,9741
0.0,9742
0.0,9743
0.0,9744
0.0,9745
0.0,9746
0.0,9747
0.0,9748
0.0,9749
0.0,9750
0.0,9751
0.0,9752
0.0,9753
0.0,9754
0.0,9755
0.0,9756
0.0,9757
0.0,9758
0.0,9759
0.0,9760
0.0,9761
0.0,9762
0.0,9763
0.0,9764
0.0,9765
0.0,9766
0.0,9767
0.0,9768
0.0,9769
0.0,9770
