@RELATION 'Music feature'
%rows=1
%columns=14720
%sample_rate=22050
%window_size=512
%step_size=512

@ATTRIBUTE 'Distances in phase domain' NUMERIC
@ATTRIBUTE WindowNumber NUMERIC

@DATA
0.0,1
2.5461877E-6,2
1.4359916E-4,3
1.416144E-4,4
1.5658281E-4,5
1.5303482E-4,6
1.4200072E-4,7
1.5290444E-4,8
1.4557171E-4,9
1.6308372E-4,10
1.5453716E-4,11
1.5887129E-4,12
1.4558955E-4,13
1.5498736E-4,14
1.5926678E-4,15
1.630305E-4,16
1.6279267E-4,17
1.426485E-4,18
1.440192E-4,19
0.002165167,20
0.0034262356,21
0.0032090317,22
0.002914727,23
0.0022391148,24
0.0014899853,25
0.0014701693,26
0.0016104521,27
0.0010451287,28
0.0011181985,29
8.4491144E-4,30
6.463207E-4,31
5.4103363E-4,32
5.6985614E-4,33
6.5235153E-4,34
5.7587866E-4,35
6.75666E-4,36
4.706909E-4,37
5.507706E-4,38
0.005377252,39
0.011943951,40
0.0103695,41
0.008124065,42
0.006276958,43
0.004945682,44
0.0038287377,45
0.0015916872,46
9.1574073E-4,47
9.0240594E-4,48
0.0011956925,49
0.0016778046,50
0.0016400586,51
0.004338353,52
0.0050033126,53
0.0059337346,54
0.005970105,55
0.0053762402,56
0.0042699957,57
0.0037842486,58
0.0034132847,59
0.0035304269,60
0.002673258,61
0.005764398,62
0.015972506,63
0.016855845,64
0.011799207,65
0.009668279,66
0.0073396894,67
0.0053568385,68
0.0037902144,69
0.002808156,70
0.0025791486,71
0.0036962186,72
0.0036719884,73
0.011431609,74
0.017463408,75
0.016524918,76
0.015856646,77
0.012629149,78
0.009228788,79
0.008090722,80
0.008843672,81
0.0064631477,82
0.00657638,83
0.004472038,84
0.0064208345,85
0.011200062,86
0.015168569,87
0.010558198,88
0.008719552,89
0.0053931684,90
0.0030602755,91
0.004727385,92
0.004653736,93
0.002805049,94
0.0036018288,95
0.0034982017,96
0.0030909807,97
0.0043613696,98
0.009504455,99
0.010764773,100
0.010243618,101
0.009773106,102
0.010255118,103
0.009165525,104
0.009869215,105
0.009695909,106
0.009064989,107
0.00792301,108
0.0070941006,109
0.006088507,110
0.005586775,111
0.0050817025,112
0.004977832,113
0.0041180043,114
0.0025636896,115
0.0025345911,116
0.0023537711,117
0.0027648576,118
0.003010628,119
0.0027828375,120
0.0024995953,121
0.002558516,122
0.002454936,123
0.0019989095,124
0.002223009,125
0.003626533,126
0.012890111,127
0.015965868,128
0.015441517,129
0.013362957,130
0.013596966,131
0.012278884,132
0.012443921,133
0.011764107,134
0.011010622,135
0.008633848,136
0.007944076,137
0.0060429443,138
0.005184806,139
0.0052056853,140
0.0050582048,141
0.0043211696,142
0.0034533758,143
0.0035585333,144
0.003946639,145
0.0042983964,146
0.0043985075,147
0.004447777,148
0.0044119945,149
0.008590502,150
0.017432978,151
0.019131603,152
0.020243507,153
0.017386653,154
0.01627529,155
0.016403453,156
0.016702505,157
0.014856288,158
0.014411843,159
0.012322787,160
0.009537986,161
0.007189944,162
0.007798266,163
0.0077142185,164
0.007513855,165
0.0065695164,166
0.005732827,167
0.0055480557,168
0.005880906,169
0.0059851995,170
0.005738508,171
0.005616852,172
0.0054201777,173
0.0056036273,174
0.007836381,175
0.019485405,176
0.022230692,177
0.021057168,178
0.019035645,179
0.017435009,180
0.015824156,181
0.016177615,182
0.016026903,183
0.015566835,184
0.012854655,185
0.011524847,186
0.009822738,187
0.008405184,188
0.0075354944,189
0.0075074965,190
0.005760483,191
0.0039105387,192
0.0035111795,193
0.0030108043,194
0.0029210642,195
0.002845385,196
0.0028608618,197
0.002531405,198
0.0029773496,199
0.0025562618,200
0.0027146942,201
0.0023995575,202
0.002485935,203
0.0036097788,204
0.009746821,205
0.013814374,206
0.009935917,207
0.008425042,208
0.0059681595,209
0.004594936,210
0.005875781,211
0.0055997437,212
0.004725137,213
0.004960051,214
0.0049010604,215
0.0041977707,216
0.0046145194,217
0.0043661543,218
0.0136649115,219
0.020981152,220
0.019558838,221
0.019156452,222
0.018519217,223
0.016165474,224
0.016742669,225
0.016493836,226
0.015704019,227
0.013060817,228
0.010576406,229
0.008666076,230
0.011953318,231
0.014482831,232
0.018466933,233
0.018974597,234
0.018192204,235
0.017482951,236
0.015219914,237
0.014579928,238
0.010524101,239
0.009473999,240
0.008392187,241
0.015345867,242
0.031693704,243
0.02926854,244
0.025357492,245
0.02479008,246
0.023888184,247
0.022739107,248
0.018713206,249
0.016699005,250
0.016004415,251
0.01385887,252
0.012582845,253
0.011626981,254
0.010486763,255
0.00923358,256
0.008054735,257
0.016502207,258
0.013693381,259
0.01597391,260
0.009132206,261
0.008618839,262
0.008312751,263
0.007824269,264
0.007974605,265
0.0068550557,266
0.007769957,267
0.008206977,268
0.0072864788,269
0.0073466883,270
0.008469081,271
0.005420906,272
0.0058016796,273
0.005971484,274
0.0047400626,275
0.004002649,276
0.004103433,277
0.0037508842,278
0.0038279872,279
0.0025288097,280
0.0021122943,281
0.00223214,282
0.0018110155,283
0.0019920764,284
0.001878783,285
0.0017348181,286
0.002499617,287
0.003951987,288
0.004223527,289
0.0042828904,290
0.004286387,291
0.004194644,292
0.0041676518,293
0.004087812,294
0.0040722443,295
0.0034528354,296
0.0033316142,297
0.003082686,298
0.0025475002,299
0.0030615868,300
0.0025878449,301
0.0029084461,302
0.0025822502,303
0.002344345,304
0.00282561,305
0.0027420653,306
0.0025781759,307
0.0026132772,308
0.0025590898,309
0.0026807466,310
0.0021529438,311
0.002163429,312
0.002453566,313
0.002164844,314
0.0035139886,315
0.004542543,316
0.0038543204,317
0.0039053129,318
0.0040667397,319
0.0036508015,320
0.0039843386,321
0.00398687,322
0.003770299,323
0.0036367704,324
0.0033706473,325
0.003773841,326
0.0034293528,327
0.003299516,328
0.0032406605,329
0.0027988716,330
0.0029568304,331
0.0032716815,332
0.0029070394,333
0.0030955588,334
0.0026651598,335
0.0024508089,336
0.0027904208,337
0.0024357291,338
0.0023025253,339
0.002470931,340
0.0025098065,341
0.002201118,342
0.002248723,343
0.0024070141,344
0.002218117,345
0.0019336297,346
0.0021473416,347
0.0020492333,348
0.0017391208,349
0.0018860446,350
0.0019149036,351
0.0017522987,352
0.0016696522,353
0.00179301,354
0.002672168,355
0.0026942263,356
0.004751619,357
0.011045892,358
0.010676577,359
0.010003998,360
0.008415118,361
0.0052602184,362
0.005002929,363
0.005834758,364
0.004148429,365
0.0039811293,366
0.0035514613,367
0.0026929774,368
0.002681783,369
0.0026013977,370
0.0028397834,371
0.0029813123,372
0.004916953,373
0.020268882,374
0.034964327,375
0.028432768,376
0.022713078,377
0.018071262,378
0.014343427,379
0.010116439,380
0.004643246,381
0.005960016,382
0.0072569875,383
0.011557056,384
0.014699344,385
0.012580469,386
0.011787813,387
0.011195295,388
0.017358277,389
0.025253663,390
0.021663897,391
0.016973281,392
0.014140043,393
0.013196089,394
0.018258665,395
0.027007189,396
0.026846617,397
0.02501334,398
0.021989807,399
0.015475472,400
0.036264915,401
0.037748415,402
0.030128641,403
0.025174994,404
0.020406907,405
0.0346922,406
0.044133324,407
0.047318276,408
0.039300945,409
0.03469825,410
0.0524232,411
0.059317045,412
0.05446896,413
0.05212527,414
0.046474297,415
0.037611526,416
0.038197063,417
0.05719696,418
0.11067793,419
0.09166156,420
0.07335434,421
0.056495283,422
0.044378366,423
0.033310458,424
0.03480885,425
0.045251656,426
0.038411178,427
0.03938788,428
0.0339529,429
0.023605656,430
0.02848535,431
0.041217413,432
0.034613762,433
0.030031392,434
0.023345493,435
0.015655294,436
0.015599662,437
0.019566782,438
0.026861792,439
0.03207808,440
0.031101657,441
0.027629914,442
0.026746733,443
0.025209876,444
0.025530292,445
0.024088731,446
0.024172017,447
0.03385151,448
0.03339643,449
0.024158014,450
0.020599298,451
0.014809222,452
0.020740736,453
0.027958076,454
0.023333928,455
0.020250555,456
0.017683044,457
0.016450712,458
0.01725122,459
0.016477175,460
0.016847262,461
0.022158455,462
0.021106737,463
0.019512627,464
0.019026099,465
0.019632526,466
0.016846912,467
0.019440923,468
0.038274344,469
0.03806533,470
0.032325555,471
0.030469297,472
0.0213761,473
0.019624686,474
0.021137143,475
0.01897726,476
0.01789409,477
0.03393351,478
0.02982241,479
0.026015913,480
0.022021882,481
0.018641008,482
0.01576482,483
0.013447691,484
0.013040248,485
0.013326819,486
0.021845922,487
0.02638397,488
0.026330113,489
0.024080558,490
0.021419242,491
0.019798813,492
0.023093758,493
0.042731285,494
0.04339796,495
0.040193252,496
0.039798055,497
0.037632022,498
0.03494002,499
0.0302586,500
0.028176585,501
0.023101885,502
0.019420719,503
0.016909374,504
0.02319052,505
0.027019745,506
0.022619594,507
0.02046749,508
0.021533,509
0.02472796,510
0.021873046,511
0.018128011,512
0.01672759,513
0.015869282,514
0.017232366,515
0.023835633,516
0.02342081,517
0.024117721,518
0.04262141,519
0.047142744,520
0.03658868,521
0.04286819,522
0.046521224,523
0.04161515,524
0.04036298,525
0.038361777,526
0.033793673,527
0.058274075,528
0.05061516,529
0.043714546,530
0.045119017,531
0.060029015,532
0.038764145,533
0.036826063,534
0.044292677,535
0.047742277,536
0.044848796,537
0.04557788,538
0.050338265,539
0.040545855,540
0.03089384,541
0.047471445,542
0.045305908,543
0.030418614,544
0.04117652,545
0.036548242,546
0.037567303,547
0.031961024,548
0.027964996,549
0.03348461,550
0.024443612,551
0.020367602,552
0.01964713,553
0.017615363,554
0.016196376,555
0.01621057,556
0.014425012,557
0.013133126,558
0.012076169,559
0.011805936,560
0.012130631,561
0.013008623,562
0.011857377,563
0.010142065,564
0.009576411,565
0.011159088,566
0.008477606,567
0.008157128,568
0.0072706444,569
0.0072627612,570
0.006243731,571
0.0070673516,572
0.0080164485,573
0.010759998,574
0.015488257,575
0.015170102,576
0.015158493,577
0.014018095,578
0.013956996,579
0.013116269,580
0.011250405,581
0.0084180115,582
0.007125851,583
0.012645261,584
0.01321091,585
0.009998216,586
0.010155424,587
0.0068465252,588
0.0070349094,589
0.005923973,590
0.0058886674,591
0.0056220368,592
0.0059966696,593
0.0062376033,594
0.006012357,595
0.0065966113,596
0.0057666823,597
0.0050376607,598
0.0047690365,599
0.004563234,600
0.0033710117,601
0.0029816974,602
0.0029718997,603
0.0034383025,604
0.003331354,605
0.0021718568,606
0.0025328211,607
0.0025121637,608
0.0019864761,609
0.0020795823,610
0.001986367,611
0.0019429476,612
0.002158176,613
0.0021649962,614
0.0022326699,615
0.0031063075,616
0.0038651049,617
0.0041467235,618
0.003820416,619
0.0039251046,620
0.0041501937,621
0.0037211454,622
0.003555704,623
0.0033698913,624
0.0031173273,625
0.002673953,626
0.0025453619,627
0.002284208,628
0.0019823608,629
0.0017500392,630
0.0018845432,631
0.0018499556,632
0.0020827786,633
0.0018089432,634
0.0018501419,635
0.0020770233,636
0.0018867663,637
0.00176674,638
0.0017889454,639
0.0016349618,640
0.0015274951,641
0.0019460435,642
0.0027679065,643
0.004817001,644
0.004538106,645
0.0039615827,646
0.0040752175,647
0.0042959265,648
0.0040207203,649
0.0036595408,650
0.0038338986,651
0.0035255332,652
0.003800681,653
0.0034069065,654
0.0030595975,655
0.0029895105,656
0.0028492212,657
0.0028354626,658
0.0023903602,659
0.0022984624,660
0.002288932,661
0.0020472037,662
0.0020532357,663
0.0021138326,664
0.002065178,665
0.0019033066,666
0.0020161702,667
0.0019563409,668
0.0019287653,669
0.0019832647,670
0.0019486576,671
0.0019228144,672
0.0017463892,673
0.0016566417,674
0.001622272,675
0.0015097271,676
0.0015813181,677
0.0014274813,678
0.0013758062,679
0.0013591787,680
0.0011677794,681
0.0012029789,682
0.0012185842,683
0.0011426351,684
0.001205422,685
0.0015148371,686
0.0025022195,687
0.002665457,688
0.008035331,689
0.010965075,690
0.010137263,691
0.009295785,692
0.0070795277,693
0.0046841176,694
0.0046150754,695
0.00514903,696
0.003775942,697
0.0042691156,698
0.0034511127,699
0.0031462456,700
0.0028023175,701
0.0023897914,702
0.0024287538,703
0.0022650003,704
0.0024162736,705
0.0019135115,706
0.0018846343,707
0.0024150328,708
0.0027616022,709
0.0027488295,710
0.0027073054,711
0.002613834,712
0.0028858057,713
0.0027989761,714
0.0026799839,715
0.002639079,716
0.002695952,717
0.012572441,718
0.031411167,719
0.030990675,720
0.026788747,721
0.023758994,722
0.015245924,723
0.013899339,724
0.017527003,725
0.01181823,726
0.011114932,727
0.010583842,728
0.007746957,729
0.0066206367,730
0.0076226178,731
0.0078017036,732
0.006509212,733
0.0062758573,734
0.0058794664,735
0.0048778974,736
0.004376887,737
0.0037062936,738
0.0033439603,739
0.0030396492,740
0.033918317,741
0.050661713,742
0.045426857,743
0.042305484,744
0.035585243,745
0.024863806,746
0.02267187,747
0.02783649,748
0.017058741,749
0.018893866,750
0.014988847,751
0.011452069,752
0.012344436,753
0.011213559,754
0.012926676,755
0.011298302,756
0.011728012,757
0.011046577,758
0.009793641,759
0.0084856525,760
0.008322894,761
0.007488786,762
0.006669113,763
0.008188325,764
0.0105079925,765
0.0124026295,766
0.023062296,767
0.036103815,768
0.044323962,769
0.041844238,770
0.035989612,771
0.032708164,772
0.030688278,773
0.03263214,774
0.033467695,775
0.035183933,776
0.03709247,777
0.034149133,778
0.03148469,779
0.025661,780
0.023615796,781
0.021047011,782
0.01716554,783
0.013448659,784
0.01210105,785
0.009839953,786
0.008097441,787
0.009116246,788
0.008257836,789
0.0073716883,790
0.0068138,791
0.005992847,792
0.005045727,793
0.0042150337,794
0.0039790836,795
0.0042281845,796
0.004078759,797
0.0046857726,798
0.004483295,799
0.0048241233,800
0.0069545503,801
0.009166189,802
0.009188636,803
0.0104323225,804
0.01009069,805
0.010488373,806
0.010153722,807
0.010040206,808
0.009182194,809
0.008343581,810
0.008918634,811
0.008416366,812
0.008142501,813
0.007179795,814
0.007165461,815
0.006454755,816
0.006314647,817
0.006738768,818
0.006534593,819
0.0064814505,820
0.0070933704,821
0.008627474,822
0.008289388,823
0.0082331635,824
0.007204731,825
0.0074659404,826
0.0068117986,827
0.0064013563,828
0.00664644,829
0.006027231,830
0.005497744,831
0.00705481,832
0.007490909,833
0.007430758,834
0.0068336218,835
0.006313797,836
0.0063089756,837
0.0063365195,838
0.006288765,839
0.006292316,840
0.0062916595,841
0.006480053,842
0.0065268045,843
0.006586592,844
0.0066715637,845
0.006832034,846
0.0065931315,847
0.0077240053,848
0.011865832,849
0.0095293,850
0.007978092,851
0.006544496,852
0.006375619,853
0.0059515825,854
0.0059829084,855
0.0056237676,856
0.00570653,857
0.0055279722,858
0.005852841,859
0.006207187,860
0.0060195164,861
0.005525551,862
0.004990087,863
0.005574837,864
0.0054803016,865
0.005365094,866
0.004948193,867
0.0046336493,868
0.004694228,869
0.0043055536,870
0.0038462258,871
0.0034966767,872
0.0032321375,873
0.0029018489,874
0.0029784339,875
0.0028919065,876
0.002835909,877
0.0047495565,878
0.0057583605,879
0.0061205635,880
0.0051957318,881
0.004978486,882
0.00488681,883
0.0054907766,884
0.0055487985,885
0.0047770906,886
0.005098663,887
0.0048249327,888
0.005422595,889
0.005384589,890
0.0051962235,891
0.0075668874,892
0.017652286,893
0.015597653,894
0.013954194,895
0.014325981,896
0.013223434,897
0.012491419,898
0.011159381,899
0.010037545,900
0.009141515,901
0.008755023,902
0.007933566,903
0.011423667,904
0.011464235,905
0.00999948,906
0.009570552,907
0.009465561,908
0.008041057,909
0.0071372027,910
0.008004721,911
0.007334721,912
0.0063136,913
0.006765042,914
0.013929474,915
0.019443104,916
0.0142297195,917
0.012048219,918
0.0079160165,919
0.0050592795,920
0.0062913503,921
0.007121966,922
0.0045694704,923
0.0049844384,924
0.0051673763,925
0.0040249634,926
0.0048005483,927
0.0042998344,928
0.0038576648,929
0.0037567278,930
0.0031307922,931
0.0028723234,932
0.0028015396,933
0.0032141225,934
0.0034726327,935
0.00606534,936
0.013573535,937
0.015253011,938
0.015001137,939
0.014069557,940
0.014488635,941
0.01359834,942
0.014564415,943
0.013585118,944
0.012857892,945
0.0109954355,946
0.0103596365,947
0.0090016555,948
0.008400683,949
0.007908924,950
0.0074317195,951
0.0057812952,952
0.0049087345,953
0.004032315,954
0.0034998513,955
0.003178437,956
0.0030994664,957
0.0031230787,958
0.0028861433,959
0.0029919418,960
0.0026254477,961
0.002543676,962
0.0021073848,963
0.0022157643,964
0.0022080971,965
0.0020564382,966
0.0023898818,967
0.0028635077,968
0.0030593616,969
0.003102465,970
0.0030514575,971
0.0030969419,972
0.0027763941,973
0.0026143754,974
0.0027561495,975
0.0028511558,976
0.0030107193,977
0.0029452832,978
0.0028660072,979
0.0030143491,980
0.0028340926,981
0.002428198,982
0.002488453,983
0.0022544453,984
0.0021680228,985
0.0022081793,986
0.0022048324,987
0.0018698487,988
0.0019215659,989
0.0030929428,990
0.0041254046,991
0.004578469,992
0.0049111387,993
0.0045670536,994
0.004744009,995
0.0046038115,996
0.004365049,997
0.004227245,998
0.0033942286,999
0.0031118246,1000
0.0028576888,1001
0.0021340135,1002
0.0035254518,1003
0.003944732,1004
0.003909534,1005
0.0037791482,1006
0.004131471,1007
0.004394003,1008
0.0045179054,1009
0.0044265306,1010
0.004130135,1011
0.004066853,1012
0.003588995,1013
0.0031529826,1014
0.0030355353,1015
0.002761063,1016
0.00286729,1017
0.0026566903,1018
0.0023109324,1019
0.0022136988,1020
0.0018752733,1021
0.0015574927,1022
0.0019730155,1023
0.0027489453,1024
0.002414918,1025
0.0040129446,1026
0.012613301,1027
0.01680401,1028
0.020338604,1029
0.01943779,1030
0.019294707,1031
0.017718378,1032
0.016760973,1033
0.014728492,1034
0.0095029315,1035
0.008063572,1036
0.007414651,1037
0.009178688,1038
0.011813984,1039
0.012055599,1040
0.010562577,1041
0.009092914,1042
0.008258805,1043
0.0074619325,1044
0.0067147445,1045
0.0061485395,1046
0.0049906676,1047
0.004829324,1048
0.0046320236,1049
0.0041660513,1050
0.003647172,1051
0.0030923553,1052
0.0027658255,1053
0.002605925,1054
0.004627436,1055
0.021064453,1056
0.029341124,1057
0.027778633,1058
0.025571154,1059
0.024811106,1060
0.020785136,1061
0.020772047,1062
0.020148605,1063
0.018934377,1064
0.01578216,1065
0.013277443,1066
0.010940095,1067
0.009066185,1068
0.009093372,1069
0.010009108,1070
0.00895115,1071
0.017434373,1072
0.024716133,1073
0.026933856,1074
0.026501967,1075
0.028068956,1076
0.02673822,1077
0.02435181,1078
0.022260647,1079
0.016844288,1080
0.014820001,1081
0.022097878,1082
0.046019986,1083
0.043550685,1084
0.039762992,1085
0.03695715,1086
0.027872782,1087
0.028379528,1088
0.027538296,1089
0.02536264,1090
0.022033578,1091
0.023763781,1092
0.028523503,1093
0.03123384,1094
0.028796528,1095
0.027042676,1096
0.022458319,1097
0.022612127,1098
0.021195097,1099
0.017731572,1100
0.017895902,1101
0.016973134,1102
0.017399933,1103
0.01586119,1104
0.014909892,1105
0.015723588,1106
0.013178391,1107
0.013414203,1108
0.01177927,1109
0.022911867,1110
0.018802598,1111
0.02238129,1112
0.014865528,1113
0.016224755,1114
0.016832931,1115
0.013524423,1116
0.013681154,1117
0.009941432,1118
0.0094174165,1119
0.008054828,1120
0.0074631097,1121
0.0067912177,1122
0.006765651,1123
0.0066293534,1124
0.005864174,1125
0.0069957604,1126
0.006211971,1127
0.006533618,1128
0.006414877,1129
0.0061750463,1130
0.0055848286,1131
0.0054575144,1132
0.005665496,1133
0.005439487,1134
0.005596266,1135
0.0052043963,1136
0.0054163425,1137
0.0049273977,1138
0.0047462736,1139
0.007963703,1140
0.008898233,1141
0.009338509,1142
0.008598549,1143
0.0080248825,1144
0.007949758,1145
0.0067480826,1146
0.006132021,1147
0.0059270565,1148
0.0060729915,1149
0.009025777,1150
0.010106771,1151
0.0088138,1152
0.008224417,1153
0.009006375,1154
0.008086917,1155
0.007768432,1156
0.0074182395,1157
0.007717491,1158
0.0077720527,1159
0.015753679,1160
0.051514555,1161
0.053567667,1162
0.04685368,1163
0.04012023,1164
0.033203922,1165
0.030606942,1166
0.034342658,1167
0.029152954,1168
0.026073642,1169
0.025457218,1170
0.023318356,1171
0.024442807,1172
0.022102848,1173
0.02439919,1174
0.021705227,1175
0.020155853,1176
0.016801856,1177
0.01639039,1178
0.014967806,1179
0.013789497,1180
0.013869588,1181
0.014473034,1182
0.012616514,1183
0.012054626,1184
0.011014829,1185
0.010353015,1186
0.009946947,1187
0.00920427,1188
0.008728894,1189
0.017244808,1190
0.021180093,1191
0.025711292,1192
0.023914998,1193
0.025320016,1194
0.023279581,1195
0.021516077,1196
0.020158269,1197
0.013738908,1198
0.010872131,1199
0.009838475,1200
0.009542511,1201
0.013932801,1202
0.0144035565,1203
0.012981006,1204
0.010916728,1205
0.01059431,1206
0.010320231,1207
0.008583629,1208
0.008154251,1209
0.0074659805,1210
0.006943159,1211
0.006925372,1212
0.0067254137,1213
0.0067742136,1214
0.0053195637,1215
0.005054264,1216
0.0043662363,1217
0.004144089,1218
0.010001062,1219
0.019997377,1220
0.019800294,1221
0.019272922,1222
0.017517483,1223
0.015606694,1224
0.014903198,1225
0.014896586,1226
0.013959456,1227
0.012334193,1228
0.01096577,1229
0.008603523,1230
0.0066130944,1231
0.011403239,1232
0.01674908,1233
0.018131709,1234
0.019463854,1235
0.019706449,1236
0.019231318,1237
0.017538315,1238
0.017342908,1239
0.012622104,1240
0.01026716,1241
0.009261166,1242
0.009941311,1243
0.014340969,1244
0.025989022,1245
0.02455829,1246
0.021890447,1247
0.018588942,1248
0.015694527,1249
0.01411741,1250
0.015707955,1251
0.014385174,1252
0.012687864,1253
0.012599587,1254
0.013066966,1255
0.012636042,1256
0.012021004,1257
0.016464775,1258
0.017830264,1259
0.017417641,1260
0.018004302,1261
0.01680905,1262
0.014961034,1263
0.015680296,1264
0.01121359,1265
0.009794782,1266
0.008316628,1267
0.0075640148,1268
0.008929914,1269
0.010130825,1270
0.010270877,1271
0.008264868,1272
0.008255352,1273
0.0066297227,1274
0.01182308,1275
0.014289354,1276
0.013873721,1277
0.012499032,1278
0.012450719,1279
0.011789374,1280
0.012439535,1281
0.012128948,1282
0.012035459,1283
0.010526846,1284
0.009251856,1285
0.008398462,1286
0.007567625,1287
0.007231412,1288
0.0072637456,1289
0.006436646,1290
0.0053732623,1291
0.0050654775,1292
0.004896024,1293
0.0041920957,1294
0.0040676636,1295
0.0041460316,1296
0.0039704535,1297
0.003932057,1298
0.0036883955,1299
0.0032257244,1300
0.003095487,1301
0.0029823573,1302
0.0028737236,1303
0.0031571274,1304
0.0033127312,1305
0.0034059344,1306
0.00325096,1307
0.0031843765,1308
0.0029668123,1309
0.0028709418,1310
0.002571066,1311
0.0022879643,1312
0.002216105,1313
0.00234807,1314
0.0024383361,1315
0.0023158845,1316
0.002620729,1317
0.0027090283,1318
0.0024980973,1319
0.002394061,1320
0.0021428093,1321
0.0020749252,1322
0.0018854819,1323
0.0017997007,1324
0.0018025984,1325
0.001930796,1326
0.0019263539,1327
0.0019219099,1328
0.0019305996,1329
0.0019133437,1330
0.0018808631,1331
0.0017951482,1332
0.0017048015,1333
0.0017881115,1334
0.0025036514,1335
0.003441874,1336
0.0033585185,1337
0.0033372578,1338
0.0029550565,1339
0.0031033948,1340
0.0029620188,1341
0.0031146295,1342
0.0029014854,1343
0.0027440144,1344
0.0025081425,1345
0.0024679762,1346
0.002359813,1347
0.0018593811,1348
0.0018988022,1349
0.001889612,1350
0.0017221005,1351
0.0017345564,1352
0.0016801232,1353
0.0016800733,1354
0.0016811071,1355
0.0017501225,1356
0.0015654286,1357
0.0015517997,1358
0.0015186071,1359
0.0015473855,1360
0.0015756686,1361
0.0015991512,1362
0.0016315749,1363
0.0016614057,1364
0.0018936436,1365
0.0020054758,1366
0.0018354587,1367
0.0018773895,1368
0.0017426356,1369
0.0017695624,1370
0.001813969,1371
0.0017779727,1372
0.0017162539,1373
0.0017115184,1374
0.0017043705,1375
0.0016017203,1376
0.0016310585,1377
0.0015760518,1378
0.0014939465,1379
0.0014361303,1380
0.0014399807,1381
0.0012927739,1382
0.0012808355,1383
0.001328497,1384
0.0013220469,1385
0.0012809286,1386
0.0012479015,1387
0.0011697998,1388
0.001070255,1389
0.0010531041,1390
9.940757E-4,1391
9.196976E-4,1392
9.015857E-4,1393
8.167185E-4,1394
8.805481E-4,1395
8.629619E-4,1396
8.6598797E-4,1397
8.8292017E-4,1398
8.7771215E-4,1399
7.931892E-4,1400
7.253866E-4,1401
6.1375287E-4,1402
5.544803E-4,1403
6.882904E-4,1404
0.0017533476,1405
0.0038414234,1406
0.0053489017,1407
0.0054388945,1408
0.0049036243,1409
0.0039758254,1410
0.0025075576,1411
0.002450918,1412
0.0026751168,1413
0.0020040015,1414
0.0021638966,1415
0.0019346602,1416
0.001751009,1417
0.0015199255,1418
0.001590749,1419
0.0014341674,1420
0.0013104953,1421
0.0012897867,1422
0.001245096,1423
0.0012148389,1424
0.001143376,1425
0.0011637426,1426
0.0011368375,1427
0.0011240263,1428
0.0011197497,1429
0.001231877,1430
0.0016311595,1431
0.0015502294,1432
0.0014720564,1433
0.0015437056,1434
0.0012490886,1435
0.012047252,1436
0.0338746,1437
0.035295703,1438
0.027711147,1439
0.021647586,1440
0.017304784,1441
0.013533285,1442
0.0071772216,1443
0.0030291493,1444
0.0020935398,1445
0.0032111004,1446
0.0048963698,1447
0.0050039534,1448
0.010009105,1449
0.011830606,1450
0.02186074,1451
0.021836212,1452
0.021653024,1453
0.016164439,1454
0.014415449,1455
0.012535444,1456
0.012018022,1457
0.009536153,1458
0.010441666,1459
0.023028417,1460
0.03726321,1461
0.03314383,1462
0.026267327,1463
0.019132229,1464
0.015224545,1465
0.011913589,1466
0.0101620415,1467
0.008681921,1468
0.010695361,1469
0.039161205,1470
0.08308337,1471
0.06679792,1472
0.05461937,1473
0.051001098,1474
0.047208082,1475
0.034073338,1476
0.030948337,1477
0.020853756,1478
0.017622558,1479
0.020176847,1480
0.01817119,1481
0.017124109,1482
0.014591116,1483
0.013845356,1484
0.030300446,1485
0.04551562,1486
0.03185315,1487
0.025894515,1488
0.018427102,1489
0.011556277,1490
0.014622352,1491
0.016111908,1492
0.010766783,1493
0.011606583,1494
0.011229339,1495
0.008452734,1496
0.010686064,1497
0.011284745,1498
0.015563962,1499
0.02432909,1500
0.027151136,1501
0.02579512,1502
0.024138112,1503
0.022107147,1504
0.022107093,1505
0.023429178,1506
0.023210874,1507
0.020681959,1508
0.017628383,1509
0.016226264,1510
0.015149379,1511
0.014250463,1512
0.014610177,1513
0.0136627015,1514
0.011443898,1515
0.008904261,1516
0.008268964,1517
0.0071864384,1518
0.0060640224,1519
0.006182606,1520
0.00444678,1521
0.0044413004,1522
0.0040599722,1523
0.0037220397,1524
0.0039493083,1525
0.0035300772,1526
0.0038257877,1527
0.0037090909,1528
0.0034097326,1529
0.0035464722,1530
0.0040240525,1531
0.016233627,1532
0.021473562,1533
0.020047387,1534
0.018285327,1535
0.018636767,1536
0.01634104,1537
0.016457463,1538
0.016758025,1539
0.01579009,1540
0.012897461,1541
0.010764074,1542
0.0087684,1543
0.008342708,1544
0.008638097,1545
0.0077089006,1546
0.0062493333,1547
0.0050744815,1548
0.0051562055,1549
0.005507709,1550
0.0056676995,1551
0.005427728,1552
0.005209496,1553
0.016026044,1554
0.030511688,1555
0.030365277,1556
0.030476954,1557
0.02764194,1558
0.023549685,1559
0.023931267,1560
0.023111396,1561
0.02083783,1562
0.018633433,1563
0.0156019945,1564
0.011877898,1565
0.01037191,1566
0.010745619,1567
0.011051434,1568
0.009993198,1569
0.008028984,1570
0.0071952925,1571
0.0069067823,1572
0.006864522,1573
0.0069004744,1574
0.006536495,1575
0.006526549,1576
0.0061978996,1577
0.017441167,1578
0.028251335,1579
0.024392257,1580
0.023784421,1581
0.023483891,1582
0.019861268,1583
0.018753417,1584
0.01902209,1585
0.018034412,1586
0.015520046,1587
0.01383226,1588
0.012917246,1589
0.0120478,1590
0.011209706,1591
0.011636854,1592
0.009183772,1593
0.0070534563,1594
0.0057296427,1595
0.00501384,1596
0.0041443342,1597
0.0039785113,1598
0.004009214,1599
0.003695828,1600
0.0032553424,1601
0.0034357428,1602
0.0034655745,1603
0.0037550647,1604
0.017980374,1605
0.028299432,1606
0.02116137,1607
0.016427547,1608
0.011339388,1609
0.0057716756,1610
0.008147608,1611
0.010035176,1612
0.007493947,1613
0.007968392,1614
0.008356757,1615
0.006954513,1616
0.006878483,1617
0.007099147,1618
0.0072318176,1619
0.007208759,1620
0.0059092846,1621
0.0054795113,1622
0.0055797407,1623
0.005318548,1624
0.011753054,1625
0.01860737,1626
0.017741105,1627
0.015774999,1628
0.014922257,1629
0.013618814,1630
0.013368569,1631
0.01438573,1632
0.013691868,1633
0.010909332,1634
0.00892327,1635
0.007267618,1636
0.0069813617,1637
0.01111584,1638
0.01637645,1639
0.016862182,1640
0.017161194,1641
0.017465433,1642
0.016065562,1643
0.015471688,1644
0.013211393,1645
0.009499383,1646
0.008865386,1647
0.012947233,1648
0.03897383,1649
0.039435122,1650
0.03669903,1651
0.034146864,1652
0.033582434,1653
0.0346121,1654
0.029062934,1655
0.026440797,1656
0.024040049,1657
0.021534866,1658
0.02017561,1659
0.01884276,1660
0.016995091,1661
0.0153477015,1662
0.024840297,1663
0.02130973,1664
0.01979733,1665
0.01970278,1666
0.016745867,1667
0.013068734,1668
0.013211715,1669
0.013686844,1670
0.010671078,1671
0.00953311,1672
0.011451169,1673
0.011570264,1674
0.009974178,1675
0.012589789,1676
0.010918134,1677
0.009276221,1678
0.009146611,1679
0.007867649,1680
0.006245524,1681
0.0061707576,1682
0.005353555,1683
0.0060550557,1684
0.0050219297,1685
0.0033873725,1686
0.003762018,1687
0.0024800994,1688
0.0024285456,1689
0.0023335873,1690
0.0028256937,1691
0.005288376,1692
0.0067479,1693
0.0066628885,1694
0.007100945,1695
0.006887686,1696
0.0067875534,1697
0.0069112442,1698
0.00648626,1699
0.0055278316,1700
0.005374015,1701
0.0045139985,1702
0.004058607,1703
0.0032830767,1704
0.0027180102,1705
0.002594673,1706
0.0029262605,1707
0.002958788,1708
0.0030916692,1709
0.003205649,1710
0.0032256758,1711
0.003374579,1712
0.003314125,1713
0.0030660287,1714
0.0029694077,1715
0.0027531176,1716
0.004963135,1717
0.00590665,1718
0.005550556,1719
0.005012587,1720
0.005331069,1721
0.005571135,1722
0.0053060227,1723
0.0049560335,1724
0.0046517686,1725
0.004567995,1726
0.004464719,1727
0.0042720456,1728
0.004254429,1729
0.004138362,1730
0.0034314347,1731
0.0027370406,1732
0.0030888838,1733
0.003176312,1734
0.00296949,1735
0.0028958346,1736
0.0024520052,1737
0.002230659,1738
0.0023988474,1739
0.001967038,1740
0.0018837127,1741
0.0022832684,1742
0.0020535155,1743
0.001797622,1744
0.0020485364,1745
0.0021616272,1746
0.0017929835,1747
0.0017889567,1748
0.00200733,1749
0.0018352416,1750
0.0019276371,1751
0.0020661962,1752
0.0019535068,1753
0.0019895874,1754
0.0032165544,1755
0.004390674,1756
0.0042571165,1757
0.0038523178,1758
0.010196315,1759
0.012396333,1760
0.011396485,1761
0.010243874,1762
0.0075445534,1763
0.0058713607,1764
0.005609401,1765
0.0058761914,1766
0.004043002,1767
0.004630075,1768
0.0036601052,1769
0.0031608865,1770
0.0033046748,1771
0.0031363023,1772
0.003443344,1773
0.0031614802,1774
0.0032734177,1775
0.0028523952,1776
0.0025553992,1777
0.0023857553,1778
0.002263509,1779
0.0021197158,1780
0.0031186966,1781
0.003324884,1782
0.0035307973,1783
0.0064532384,1784
0.022032289,1785
0.03655926,1786
0.028998265,1787
0.022986084,1788
0.018028844,1789
0.013933156,1790
0.00957683,1791
0.0041163997,1792
0.0025307524,1793
0.0032565338,1794
0.0042114276,1795
0.004967785,1796
0.00829823,1797
0.013153924,1798
0.020746551,1799
0.022024797,1800
0.021285113,1801
0.017598491,1802
0.016989378,1803
0.014631834,1804
0.014791405,1805
0.012416833,1806
0.01723297,1807
0.033009082,1808
0.031462,1809
0.026103305,1810
0.020835813,1811
0.016464358,1812
0.012853234,1813
0.0101989545,1814
0.008689195,1815
0.008310334,1816
0.028525611,1817
0.07775049,1818
0.08206182,1819
0.061719876,1820
0.048960615,1821
0.03961588,1822
0.03232976,1823
0.018231148,1824
0.0102185225,1825
0.038089283,1826
0.043767646,1827
0.041012686,1828
0.03795989,1829
0.02744533,1830
0.020631826,1831
0.023518503,1832
0.02191782,1833
0.032130975,1834
0.04462761,1835
0.032397665,1836
0.025645034,1837
0.019183727,1838
0.013725217,1839
0.015970241,1840
0.018357651,1841
0.014745081,1842
0.013738857,1843
0.016399328,1844
0.02568698,1845
0.024387153,1846
0.023527376,1847
0.022768112,1848
0.020356733,1849
0.021227183,1850
0.021552263,1851
0.02175766,1852
0.017998276,1853
0.016055958,1854
0.01475671,1855
0.011029097,1856
0.011116538,1857
0.010937885,1858
0.009935581,1859
0.008673492,1860
0.007924325,1861
0.008211157,1862
0.008454932,1863
0.008941236,1864
0.067899995,1865
0.074467465,1866
0.05515085,1867
0.0304629,1868
0.018689455,1869
0.0139091145,1870
0.015491925,1871
0.01485233,1872
0.015053602,1873
0.01873892,1874
0.013587284,1875
0.010916927,1876
0.009134199,1877
0.008080092,1878
0.0070044533,1879
0.0061770612,1880
0.0065131225,1881
0.00620343,1882
0.0060083014,1883
0.008051104,1884
0.03306741,1885
0.017259244,1886
0.008977702,1887
0.012250604,1888
0.008289707,1889
0.0120184915,1890
0.017359994,1891
0.018423237,1892
0.015139642,1893
0.009341404,1894
0.019615646,1895
0.020873776,1896
0.025918141,1897
0.040984426,1898
0.026881697,1899
0.015404506,1900
0.015337492,1901
0.022066172,1902
0.017325314,1903
0.025593456,1904
0.020426465,1905
0.046355333,1906
0.1681572,1907
0.111698985,1908
0.04437765,1909
0.018810524,1910
0.049730826,1911
0.05634676,1912
0.06664972,1913
0.06906538,1914
0.058454722,1915
0.059155043,1916
0.03996781,1917
0.02564616,1918
0.020012768,1919
0.017019168,1920
0.02815466,1921
0.07908298,1922
0.07880883,1923
0.06036545,1924
0.04782311,1925
0.041686706,1926
0.03504819,1927
0.02656932,1928
0.028697288,1929
0.024679454,1930
0.019937707,1931
0.024879774,1932
0.024422469,1933
0.024620133,1934
0.034127302,1935
0.044781648,1936
0.030779371,1937
0.024339866,1938
0.018706664,1939
0.017648306,1940
0.024815824,1941
0.031500787,1942
0.04167485,1943
0.033264477,1944
0.02605116,1945
0.017464766,1946
0.018018514,1947
0.016375965,1948
0.013444956,1949
0.021075659,1950
0.028182596,1951
0.027837444,1952
0.026988797,1953
0.017794378,1954
0.0154789295,1955
0.024019428,1956
0.02907316,1957
0.031205105,1958
0.03302334,1959
0.028016288,1960
0.023855092,1961
0.021060923,1962
0.04030523,1963
0.07765323,1964
0.067096844,1965
0.055595577,1966
0.03957795,1967
0.03976992,1968
0.027717927,1969
0.034091003,1970
0.033130597,1971
0.029912846,1972
0.029131377,1973
0.025954086,1974
0.020929188,1975
0.02009535,1976
0.028150981,1977
0.038831837,1978
0.03713451,1979
0.02938072,1980
0.022436354,1981
0.016900582,1982
0.016546052,1983
0.014035142,1984
0.012227419,1985
0.016140858,1986
0.023176512,1987
0.02209777,1988
0.0166557,1989
0.013360756,1990
0.011032591,1991
0.0109706335,1992
0.013089028,1993
0.013320586,1994
0.02096033,1995
0.022659406,1996
0.021927034,1997
0.019308886,1998
0.019003242,1999
0.017552303,2000
0.017274735,2001
0.016764905,2002
0.01676479,2003
0.027105045,2004
0.025066612,2005
0.022775484,2006
0.021225784,2007
0.019749546,2008
0.019459296,2009
0.01626601,2010
0.014915433,2011
0.014049778,2012
0.0135633815,2013
0.01296214,2014
0.011026106,2015
0.016926045,2016
0.012653552,2017
0.014775068,2018
0.009986189,2019
0.009334695,2020
0.008469132,2021
0.007708385,2022
0.008069504,2023
0.00796588,2024
0.0064302133,2025
0.007222089,2026
0.008647848,2027
0.0071664616,2028
0.0075750733,2029
0.006985539,2030
0.0060915546,2031
0.0055532902,2032
0.0050161663,2033
0.0048536547,2034
0.004310016,2035
0.0033835478,2036
0.003986557,2037
0.0035664905,2038
0.0024766808,2039
0.002763196,2040
0.0022785075,2041
0.0023134956,2042
0.0021520844,2043
0.0019386988,2044
0.0028992963,2045
0.004596345,2046
0.005952947,2047
0.0056470023,2048
0.005899955,2049
0.0060864203,2050
0.0057143983,2051
0.0057928315,2052
0.0055177608,2053
0.004854482,2054
0.0045399102,2055
0.0040610963,2056
0.0035552345,2057
0.0028734307,2058
0.0028832208,2059
0.002327259,2060
0.002855403,2061
0.002901554,2062
0.0026819378,2063
0.0029732082,2064
0.0029265343,2065
0.0029014836,2066
0.0028776184,2067
0.0025161966,2068
0.0026555536,2069
0.0023777985,2070
0.0021335077,2071
0.0021437726,2072
0.002289671,2073
0.0055788537,2074
0.005910199,2075
0.0063271862,2076
0.005650146,2077
0.0051391,2078
0.006152847,2079
0.0058174618,2080
0.0052165617,2081
0.0048477906,2082
0.0049875285,2083
0.0052205124,2084
0.004786494,2085
0.004708202,2086
0.0044957795,2087
0.004466389,2088
0.0037735617,2089
0.0035744854,2090
0.0041343365,2091
0.0038996001,2092
0.003014892,2093
0.0030024555,2094
0.003139186,2095
0.0024484622,2096
0.0026172053,2097
0.0025747793,2098
0.0023900932,2099
0.0022245222,2100
0.0021718065,2101
0.0021577966,2102
0.00198887,2103
0.0020346714,2104
0.0018822585,2105
0.0025504127,2106
0.006873399,2107
0.01038572,2108
0.009943837,2109
0.009022881,2110
0.007371483,2111
0.0049237725,2112
0.00472323,2113
0.005264928,2114
0.0038077352,2115
0.004044007,2116
0.003434415,2117
0.0032234925,2118
0.0029281878,2119
0.0029581338,2120
0.0032524487,2121
0.003243823,2122
0.002866246,2123
0.0024983988,2124
0.0023687256,2125
0.0020304315,2126
0.0018740428,2127
0.001670021,2128
0.0018025659,2129
0.0021058714,2130
0.0025620996,2131
0.0028291917,2132
0.0027853805,2133
0.0025315438,2134
0.002637961,2135
0.0033255317,2136
0.0034873185,2137
0.0031444004,2138
0.0030140686,2139
0.0030542982,2140
0.0026962026,2141
0.0024805847,2142
0.0024214378,2143
0.0024402537,2144
0.0025151763,2145
0.0023535325,2146
0.0024484384,2147
0.0026190502,2148
0.0023276154,2149
0.0027312033,2150
0.0053299046,2151
0.006059172,2152
0.006209161,2153
0.011392703,2154
0.015528549,2155
0.014195469,2156
0.013242654,2157
0.0114835305,2158
0.0077272006,2159
0.007600095,2160
0.008622317,2161
0.005665037,2162
0.0060609155,2163
0.004672996,2164
0.0041395454,2165
0.0037594617,2166
0.0040569683,2167
0.004436579,2168
0.0039745043,2169
0.004148555,2170
0.0034701184,2171
0.0031567598,2172
0.00302272,2173
0.0024978132,2174
0.005279786,2175
0.031962104,2176
0.030254828,2177
0.02627784,2178
0.022958845,2179
0.0145079335,2180
0.01328504,2181
0.014183795,2182
0.011724525,2183
0.009032486,2184
0.009503858,2185
0.0069021913,2186
0.006566866,2187
0.0063254135,2188
0.0067245523,2189
0.006681057,2190
0.0069540283,2191
0.0070640915,2192
0.0048601176,2193
0.003641863,2194
0.0032666468,2195
0.0030840037,2196
0.0028930344,2197
0.0034815967,2198
0.00501979,2199
0.014955853,2200
0.04196319,2201
0.042542323,2202
0.039163545,2203
0.034213617,2204
0.02080984,2205
0.016044104,2206
0.019303288,2207
0.01347637,2208
0.014370331,2209
0.0150500415,2210
0.011099932,2211
0.009796217,2212
0.009896657,2213
0.009235957,2214
0.00817545,2215
0.0066792127,2216
0.0071520433,2217
0.0068830117,2218
0.007056257,2219
0.006018591,2220
0.0057897954,2221
0.005905698,2222
0.0060319663,2223
0.0076365382,2224
0.009415282,2225
0.008707612,2226
0.008849139,2227
0.008848536,2228
0.008812759,2229
0.008644053,2230
0.0076480326,2231
0.007625232,2232
0.0070219547,2233
0.0072574257,2234
0.006553741,2235
0.007336177,2236
0.0077915685,2237
0.008491213,2238
0.0082192235,2239
0.008301515,2240
0.008267233,2241
0.008128038,2242
0.0075303526,2243
0.006819836,2244
0.0063437927,2245
0.0060031493,2246
0.0063245716,2247
0.0050648144,2248
0.0055256067,2249
0.023848433,2250
0.03821011,2251
0.036515556,2252
0.032208156,2253
0.03170223,2254
0.023988787,2255
0.01926874,2256
0.013632874,2257
0.014818799,2258
0.015679687,2259
0.014923724,2260
0.013482614,2261
0.01303685,2262
0.011845929,2263
0.011962922,2264
0.009410591,2265
0.008640583,2266
0.008896559,2267
0.009421017,2268
0.010108885,2269
0.009644118,2270
0.009385932,2271
0.009231486,2272
0.008983882,2273
0.008557175,2274
0.008567858,2275
0.0076218843,2276
0.0077632666,2277
0.008193213,2278
0.0064552296,2279
0.007939956,2280
0.009774658,2281
0.010718235,2282
0.011735003,2283
0.012268806,2284
0.0105223125,2285
0.008339965,2286
0.0101588145,2287
0.0130302925,2288
0.012225458,2289
0.011627492,2290
0.012624802,2291
0.014355025,2292
0.018993424,2293
0.023678327,2294
0.02751612,2295
0.024046682,2296
0.027167995,2297
0.022944381,2298
0.021756941,2299
0.025529353,2300
0.027533334,2301
0.025135303,2302
0.030390272,2303
0.044930007,2304
0.054533478,2305
0.05023687,2306
0.049200535,2307
0.04312138,2308
0.03055796,2309
0.030660173,2310
0.026713828,2311
0.03229189,2312
0.029525977,2313
0.03400398,2314
0.03459815,2315
0.034892675,2316
0.030480873,2317
0.027928567,2318
0.028005704,2319
0.023108546,2320
0.019151567,2321
0.017663319,2322
0.023530347,2323
0.036752995,2324
0.047494568,2325
0.033386674,2326
0.029093437,2327
0.019753253,2328
0.01378228,2329
0.015083034,2330
0.013848419,2331
0.00923573,2332
0.009093042,2333
0.009257943,2334
0.008532399,2335
0.008320933,2336
0.0073505403,2337
0.011791706,2338
0.010775078,2339
0.0099618705,2340
0.011201788,2341
0.0109793255,2342
0.010569469,2343
0.0093982415,2344
0.009086593,2345
0.0091031315,2346
0.013997572,2347
0.026918514,2348
0.029564828,2349
0.029786777,2350
0.026602471,2351
0.024503801,2352
0.022846412,2353
0.023187036,2354
0.022313694,2355
0.020071374,2356
0.024706315,2357
0.037097376,2358
0.032650106,2359
0.034828007,2360
0.031123837,2361
0.026034229,2362
0.029328812,2363
0.033636224,2364
0.029575802,2365
0.028292198,2366
0.02348101,2367
0.019373044,2368
0.017083379,2369
0.015166487,2370
0.014467278,2371
0.013058484,2372
0.009728343,2373
0.0076297726,2374
0.009113984,2375
0.00890226,2376
0.010046284,2377
0.009621808,2378
0.009293565,2379
0.009839187,2380
0.009142018,2381
0.009019664,2382
0.008240928,2383
0.00807643,2384
0.007139947,2385
0.008687247,2386
0.008838205,2387
0.008108706,2388
0.008210102,2389
0.006620364,2390
0.0064550494,2391
0.0062782373,2392
0.006259808,2393
0.0059776846,2394
0.0067403764,2395
0.010579729,2396
0.010878668,2397
0.010010197,2398
0.009221396,2399
0.008808845,2400
0.008836047,2401
0.008682926,2402
0.0074480874,2403
0.0076278388,2404
0.0066860365,2405
0.0072171297,2406
0.02190845,2407
0.025407782,2408
0.023376744,2409
0.018533507,2410
0.016478583,2411
0.016547455,2412
0.017060371,2413
0.0155887045,2414
0.017410092,2415
0.017000902,2416
0.015116977,2417
0.013544297,2418
0.013674212,2419
0.01627086,2420
0.013112922,2421
0.013738969,2422
0.013889936,2423
0.012178881,2424
0.011124641,2425
0.012283002,2426
0.01948762,2427
0.025778558,2428
0.021143768,2429
0.024121456,2430
0.029508026,2431
0.026365614,2432
0.031604905,2433
0.03030066,2434
0.026132926,2435
0.029768208,2436
0.02702374,2437
0.023796618,2438
0.024440713,2439
0.024422158,2440
0.023352532,2441
0.021084571,2442
0.018780436,2443
0.013044176,2444
0.010494507,2445
0.009407228,2446
0.008645741,2447
0.0084616775,2448
0.007495622,2449
0.007368205,2450
0.0077283876,2451
0.008934032,2452
0.018560167,2453
0.029674483,2454
0.02559808,2455
0.021949742,2456
0.016947854,2457
0.017749341,2458
0.016840557,2459
0.017101346,2460
0.01791744,2461
0.017994063,2462
0.01702203,2463
0.014862294,2464
0.014767014,2465
0.014823191,2466
0.014283557,2467
0.029917367,2468
0.038376372,2469
0.035962358,2470
0.032610428,2471
0.032324553,2472
0.028734885,2473
0.030075474,2474
0.029938906,2475
0.028608922,2476
0.024609659,2477
0.062061585,2478
0.08927847,2479
0.07748584,2480
0.07500606,2481
0.073918074,2482
0.06910339,2483
0.060600623,2484
0.06404438,2485
0.084214635,2486
0.08025444,2487
0.06731839,2488
0.059416573,2489
0.05594489,2490
0.050451115,2491
0.039881036,2492
0.06279016,2493
0.07829173,2494
0.07703038,2495
0.064815044,2496
0.05646564,2497
0.04304697,2498
0.037325837,2499
0.042811442,2500
0.07537722,2501
0.17081922,2502
0.15029852,2503
0.11357771,2504
0.09280525,2505
0.07743201,2506
0.06005639,2507
0.033898573,2508
0.026980923,2509
0.023475831,2510
0.026968576,2511
0.026348205,2512
0.025613824,2513
0.02180708,2514
0.023623468,2515
0.025181245,2516
0.02629595,2517
0.02902644,2518
0.035428327,2519
0.048570134,2520
0.053140305,2521
0.045380026,2522
0.03704602,2523
0.031962294,2524
0.023035938,2525
0.021588055,2526
0.017420566,2527
0.01679366,2528
0.022428727,2529
0.022754854,2530
0.027465617,2531
0.020807095,2532
0.022009648,2533
0.016642705,2534
0.019845435,2535
0.017300695,2536
0.016617343,2537
0.014904486,2538
0.015347941,2539
0.0148347225,2540
0.014941474,2541
0.0146397585,2542
0.0154967895,2543
0.01712749,2544
0.021068208,2545
0.025195695,2546
0.024021236,2547
0.023451712,2548
0.022815358,2549
0.024525901,2550
0.02269597,2551
0.021736313,2552
0.021449244,2553
0.0221085,2554
0.02014999,2555
0.01783524,2556
0.018101228,2557
0.017942684,2558
0.017256858,2559
0.017282782,2560
0.019446932,2561
0.029374264,2562
0.06069123,2563
0.060027115,2564
0.05355331,2565
0.04660574,2566
0.03208043,2567
0.028406708,2568
0.031908065,2569
0.026472237,2570
0.024980163,2571
0.02529497,2572
0.025157264,2573
0.04472775,2574
0.04998166,2575
0.03524504,2576
0.033315692,2577
0.02639129,2578
0.025281362,2579
0.029111695,2580
0.03951442,2581
0.03641772,2582
0.03567625,2583
0.03007133,2584
0.02867501,2585
0.027499355,2586
0.02827562,2587
0.030331967,2588
0.02893697,2589
0.027224595,2590
0.025406795,2591
0.02563935,2592
0.032608185,2593
0.059951086,2594
0.06130735,2595
0.051892683,2596
0.045956098,2597
0.0367572,2598
0.03915973,2599
0.039526578,2600
0.03295006,2601
0.029700868,2602
0.030730134,2603
0.02959323,2604
0.027325762,2605
0.030406054,2606
0.028796451,2607
0.023993935,2608
0.021712106,2609
0.02203409,2610
0.020140072,2611
0.017809728,2612
0.017232679,2613
0.0199813,2614
0.02210315,2615
0.019449359,2616
0.016757239,2617
0.016623788,2618
0.0191631,2619
0.016929798,2620
0.015507419,2621
0.019619156,2622
0.025234478,2623
0.023645982,2624
0.023407497,2625
0.021790162,2626
0.022731852,2627
0.02025785,2628
0.020431217,2629
0.018792339,2630
0.019137828,2631
0.0482567,2632
0.074575886,2633
0.06015281,2634
0.054968983,2635
0.054941945,2636
0.055267498,2637
0.047112767,2638
0.044680852,2639
0.038739666,2640
0.03884293,2641
0.036310166,2642
0.030867107,2643
0.03025377,2644
0.02618947,2645
0.023750534,2646
0.02233361,2647
0.038302936,2648
0.041597832,2649
0.037951533,2650
0.032564785,2651
0.02992362,2652
0.029828671,2653
0.029282777,2654
0.029854352,2655
0.028138557,2656
0.024364552,2657
0.026506804,2658
0.030682987,2659
0.030032828,2660
0.026507445,2661
0.023235694,2662
0.021407438,2663
0.04767171,2664
0.07499464,2665
0.04666839,2666
0.036777224,2667
0.023482649,2668
0.02066364,2669
0.03002701,2670
0.02624396,2671
0.03827222,2672
0.032531824,2673
0.0256036,2674
0.024441512,2675
0.02251451,2676
0.02122104,2677
0.018743325,2678
0.01747032,2679
0.016383016,2680
0.01604194,2681
0.014205373,2682
0.01444286,2683
0.014726939,2684
0.020418918,2685
0.024672912,2686
0.023413608,2687
0.023682266,2688
0.02625385,2689
0.028166743,2690
0.024469655,2691
0.037782144,2692
0.044438466,2693
0.050946124,2694
0.05771453,2695
0.04531394,2696
0.04214191,2697
0.037315592,2698
0.03476159,2699
0.035672273,2700
0.032001816,2701
0.03407323,2702
0.03616273,2703
0.037167165,2704
0.0374941,2705
0.046932552,2706
0.064188816,2707
0.05968708,2708
0.05381903,2709
0.04507022,2710
0.03408622,2711
0.032879878,2712
0.038700365,2713
0.030406296,2714
0.032622807,2715
0.032578662,2716
0.049287602,2717
0.070915654,2718
0.049222134,2719
0.03963678,2720
0.027269943,2721
0.022490803,2722
0.03000778,2723
0.042443935,2724
0.035428517,2725
0.033170365,2726
0.03109966,2727
0.027989198,2728
0.028337149,2729
0.026931318,2730
0.028114472,2731
0.029276341,2732
0.029548721,2733
0.028344635,2734
0.046478543,2735
0.056702238,2736
0.053452916,2737
0.046509966,2738
0.039994508,2739
0.0330183,2740
0.038126417,2741
0.03493848,2742
0.029002313,2743
0.029226294,2744
0.030179504,2745
0.029517641,2746
0.027092604,2747
0.029587958,2748
0.026713086,2749
0.024232175,2750
0.023384135,2751
0.023510948,2752
0.020944165,2753
0.018041722,2754
0.01990399,2755
0.022490676,2756
0.019532798,2757
0.019259771,2758
0.018749902,2759
0.01894264,2760
0.018740173,2761
0.019418277,2762
0.018130932,2763
0.024420675,2764
0.03515617,2765
0.03235794,2766
0.028324453,2767
0.029033944,2768
0.028319102,2769
0.025434943,2770
0.02542861,2771
0.027009597,2772
0.06851503,2773
0.08351864,2774
0.07815165,2775
0.07204226,2776
0.066173606,2777
0.067258276,2778
0.056996603,2779
0.052755855,2780
0.056634914,2781
0.04900751,2782
0.045570277,2783
0.04478269,2784
0.038556606,2785
0.034810297,2786
0.03680955,2787
0.0632288,2788
0.056135263,2789
0.05568474,2790
0.04911672,2791
0.04067304,2792
0.04664358,2793
0.04416081,2794
0.038327254,2795
0.040420964,2796
0.033048235,2797
0.032785572,2798
0.033146836,2799
0.032864686,2800
0.034368917,2801
0.031337187,2802
0.028197,2803
0.02821597,2804
0.031494364,2805
0.24232884,2806
0.22416505,2807
0.104749344,2808
0.043784857,2809
0.06604699,2810
0.09045145,2811
0.11297184,2812
0.108169734,2813
0.07430693,2814
0.03804364,2815
0.024259698,2816
0.02980179,2817
0.027252654,2818
0.015724994,2819
0.020777287,2820
0.0254447,2821
0.030941214,2822
0.034921154,2823
0.03530481,2824
0.0253156,2825
0.024057757,2826
0.01800789,2827
0.020952849,2828
0.021221198,2829
0.022739295,2830
0.020507567,2831
0.021312676,2832
0.017640844,2833
0.018183053,2834
0.01893886,2835
0.018640447,2836
0.019638536,2837
0.015366584,2838
0.026491297,2839
0.15921551,2840
0.16935511,2841
0.12233717,2842
0.08840477,2843
0.072573446,2844
0.060049053,2845
0.04031431,2846
0.029818742,2847
0.028269637,2848
0.0226097,2849
0.03159797,2850
0.029442549,2851
0.022665001,2852
0.020483812,2853
0.031124823,2854
0.025964145,2855
0.021864053,2856
0.026252044,2857
0.026871836,2858
0.02187895,2859
0.018233575,2860
0.021585576,2861
0.024141384,2862
0.020897672,2863
0.015135366,2864
0.012706208,2865
0.019795503,2866
0.025824465,2867
0.037127748,2868
0.040887784,2869
0.037285324,2870
0.03217247,2871
0.030068973,2872
0.026063709,2873
0.02566742,2874
0.023040932,2875
0.022856623,2876
0.025639057,2877
0.02774798,2878
0.026695117,2879
0.02287482,2880
0.047260173,2881
0.051668942,2882
0.046973232,2883
0.04158029,2884
0.03324908,2885
0.02638003,2886
0.025109917,2887
0.025583396,2888
0.019445611,2889
0.02167464,2890
0.017457897,2891
0.015519376,2892
0.014802093,2893
0.017939756,2894
0.028254773,2895
0.026615439,2896
0.025928749,2897
0.021909703,2898
0.022346202,2899
0.022952022,2900
0.0212944,2901
0.020298485,2902
0.020166261,2903
0.019739674,2904
0.021907587,2905
0.021349099,2906
0.018384555,2907
0.018499393,2908
0.016498921,2909
0.012796524,2910
0.01253157,2911
0.023551317,2912
0.030828437,2913
0.02495192,2914
0.027365314,2915
0.024560476,2916
0.02418049,2917
0.020041184,2918
0.018937407,2919
0.018664587,2920
0.015501161,2921
0.014754107,2922
0.012926823,2923
0.011757276,2924
0.011814115,2925
0.009491167,2926
0.009205065,2927
0.009561204,2928
0.007329352,2929
0.0077789254,2930
0.0074145114,2931
0.0058653466,2932
0.005087271,2933
0.004763671,2934
0.0048610433,2935
0.004886147,2936
0.004523743,2937
0.0043535307,2938
0.0045543476,2939
0.004467985,2940
0.004276077,2941
0.0036940393,2942
0.0035989203,2943
0.0034946979,2944
0.0036878705,2945
0.0033982603,2946
0.0031776978,2947
0.0031601095,2948
0.0030390515,2949
0.00296597,2950
0.0030281034,2951
0.0029096447,2952
0.0029649916,2953
0.0029177133,2954
0.0033043625,2955
0.0038237097,2956
0.003957912,2957
0.0038013547,2958
0.003938895,2959
0.003792048,2960
0.0036517587,2961
0.003411692,2962
0.0031009149,2963
0.0031813693,2964
0.0029874167,2965
0.0030090741,2966
0.0028454496,2967
0.0026367684,2968
0.004115648,2969
0.0061202557,2970
0.0058921613,2971
0.0057779476,2972
0.0054854397,2973
0.0053960946,2974
0.00483399,2975
0.0050852085,2976
0.004870331,2977
0.0050392887,2978
0.0043655657,2979
0.0040848157,2980
0.004864359,2981
0.010275733,2982
0.011425457,2983
0.011538829,2984
0.009849894,2985
0.009551664,2986
0.0093414765,2987
0.0096779615,2988
0.009705993,2989
0.00970922,2990
0.008394212,2991
0.008043516,2992
0.007934325,2993
0.008330043,2994
0.008519802,2995
0.008268778,2996
0.0077707423,2997
0.007785836,2998
0.008176973,2999
0.009491264,3000
0.009703027,3001
0.008995146,3002
0.008131516,3003
0.008278361,3004
0.008169079,3005
0.0072035342,3006
0.0066932305,3007
0.0066248113,3008
0.0063586733,3009
0.0055545494,3010
0.004953853,3011
0.004779856,3012
0.0046466426,3013
0.0041962704,3014
0.003977476,3015
0.003872834,3016
0.0038122267,3017
0.0054538567,3018
0.010483724,3019
0.010907229,3020
0.011379868,3021
0.009012322,3022
0.010843819,3023
0.011930312,3024
0.01145809,3025
0.010999407,3026
0.010174397,3027
0.009646139,3028
0.010543568,3029
0.009280733,3030
0.0085791275,3031
0.0076702484,3032
0.0071465364,3033
0.006160675,3034
0.0058917487,3035
0.005584875,3036
0.0054090414,3037
0.004949178,3038
0.0044570165,3039
0.0044944934,3040
0.004546332,3041
0.0041751694,3042
0.0037971344,3043
0.0038414714,3044
0.0032502268,3045
0.0030453096,3046
0.003263433,3047
0.0028520487,3048
0.0027389363,3049
0.0028978216,3050
0.0025615839,3051
0.0024592355,3052
0.0039351336,3053
0.0061755213,3054
0.007487973,3055
0.007345574,3056
0.0076110717,3057
0.007513593,3058
0.007439277,3059
0.007315107,3060
0.0067695677,3061
0.0061227023,3062
0.005524981,3063
0.005053164,3064
0.0041079363,3065
0.004517109,3066
0.003971708,3067
0.0037496882,3068
0.003681543,3069
0.00399798,3070
0.003973997,3071
0.0042876303,3072
0.004026057,3073
0.0039326344,3074
0.004310097,3075
0.0035512652,3076
0.0037564947,3077
0.0035922872,3078
0.004395981,3079
0.0079047475,3080
0.007095603,3081
0.0066244397,3082
0.0071975584,3083
0.0064975345,3084
0.005895042,3085
0.006209158,3086
0.0059857043,3087
0.0051162383,3088
0.005077921,3089
0.0049100886,3090
0.004307551,3091
0.00382146,3092
0.0034913234,3093
0.0031641934,3094
0.00267953,3095
0.0025065946,3096
0.0024120694,3097
0.0022567902,3098
0.0020107485,3099
0.0022586845,3100
0.002970426,3101
0.0029895753,3102
0.0030588526,3103
0.0031572117,3104
0.0031125897,3105
0.0028487877,3106
0.0031305563,3107
0.0029918307,3108
0.0025036032,3109
0.0026658475,3110
0.0025307478,3111
0.0023795469,3112
0.0027723068,3113
0.0027757583,3114
0.0025681816,3115
0.0027589647,3116
0.0029417237,3117
0.002606477,3118
0.0027472528,3119
0.0026992464,3120
0.002354512,3121
0.0026796628,3122
0.002414084,3123
0.0030424101,3124
0.004278052,3125
0.0039199623,3126
0.0037632943,3127
0.0038744223,3128
0.0036777805,3129
0.0032492843,3130
0.0035721073,3131
0.0033759857,3132
0.0035861956,3133
0.0036272407,3134
0.0035076695,3135
0.0035827956,3136
0.0034795008,3137
0.0037171785,3138
0.0030694127,3139
0.0036785621,3140
0.003730605,3141
0.0028556,3142
0.0026604256,3143
0.0023039246,3144
0.0023222028,3145
0.0021809887,3146
0.0020290918,3147
0.0018596486,3148
0.0019102849,3149
0.0020722994,3150
0.0026667262,3151
0.0032570257,3152
0.0029056447,3153
0.002517751,3154
0.002226003,3155
0.002060369,3156
0.0022641378,3157
0.0021151046,3158
0.001819453,3159
0.002220708,3160
0.0021248942,3161
0.001966467,3162
0.002084365,3163
0.002004089,3164
0.0020945955,3165
0.0019883013,3166
0.0030069996,3167
0.002724089,3168
0.0031411073,3169
0.0033491035,3170
0.0029165242,3171
0.0031294439,3172
0.0034943568,3173
0.0031229018,3174
0.0030989184,3175
0.003252292,3176
0.0026162784,3177
0.0028951853,3178
0.0028038067,3179
0.0025669304,3180
0.0025457463,3181
0.0025536087,3182
0.0026240146,3183
0.0023228745,3184
0.002595253,3185
0.0027724216,3186
0.0034108106,3187
0.0036479915,3188
0.0033051101,3189
0.0029286921,3190
0.00360664,3191
0.0027810254,3192
0.0030636513,3193
0.0028878476,3194
0.0028469174,3195
0.0025933736,3196
0.002410725,3197
0.0020669817,3198
0.0025007415,3199
0.0023649866,3200
0.0018455355,3201
0.0023278794,3202
0.0020495746,3203
0.0019225029,3204
0.002023108,3205
0.0019182351,3206
0.0017744236,3207
0.002036982,3208
0.0016851915,3209
0.002019744,3210
0.0016859897,3211
0.001965406,3212
0.0014855895,3213
0.0018244764,3214
0.0017625658,3215
0.0056468993,3216
0.010768414,3217
0.0096660135,3218
0.0086927,3219
0.008707355,3220
0.007394891,3221
0.0073330365,3222
0.0076447953,3223
0.0073800967,3224
0.006884264,3225
0.006034204,3226
0.0055622985,3227
0.004470186,3228
0.004284547,3229
0.003914904,3230
0.003402934,3231
0.002970848,3232
0.002695368,3233
0.0023990257,3234
0.0023266536,3235
0.0024521549,3236
0.0023385582,3237
0.0023314168,3238
0.002102719,3239
0.0022528544,3240
0.0022854512,3241
0.0026107258,3242
0.002789533,3243
0.0026837406,3244
0.0023829406,3245
0.0023089873,3246
0.0019354809,3247
0.0024343312,3248
0.0022834481,3249
0.0023529155,3250
0.0024073059,3251
0.0019322033,3252
0.0022744802,3253
0.0023700565,3254
0.0023106828,3255
0.0023478298,3256
0.0021252139,3257
0.0018772386,3258
0.0017998581,3259
0.0021719472,3260
0.0024074765,3261
0.0021214786,3262
0.0021306458,3263
0.0017888416,3264
0.0017040031,3265
0.001541191,3266
0.001758161,3267
0.0036800099,3268
0.00390707,3269
0.0041036033,3270
0.0037728245,3271
0.003637025,3272
0.0032659664,3273
0.0031669359,3274
0.0032373006,3275
0.0033264637,3276
0.0031758694,3277
0.0032546269,3278
0.0033292547,3279
0.003000929,3280
0.0033580307,3281
0.0035430454,3282
0.0035074917,3283
0.0033131447,3284
0.0030286137,3285
0.0031837584,3286
0.003020162,3287
0.0027998234,3288
0.003040352,3289
0.0031194726,3290
0.0033363982,3291
0.0035454307,3292
0.0027761527,3293
0.0026763396,3294
0.0026817345,3295
0.0030654387,3296
0.003237965,3297
0.0030269946,3298
0.0026897916,3299
0.0027633843,3300
0.006183337,3301
0.006236451,3302
0.0070336754,3303
0.0057790587,3304
0.0041959533,3305
0.004255448,3306
0.0045953225,3307
0.004386898,3308
0.0051115514,3309
0.0043569477,3310
0.003767756,3311
0.0034136942,3312
0.003978093,3313
0.0040252847,3314
0.003789847,3315
0.0040631806,3316
0.004695983,3317
0.0039549666,3318
0.004265162,3319
0.0038116283,3320
0.0041402807,3321
0.0042095957,3322
0.00419002,3323
0.004191277,3324
0.0036680151,3325
0.0036366542,3326
0.00318071,3327
0.0034862312,3328
0.0030780383,3329
0.003087754,3330
0.0033828008,3331
0.0033182793,3332
0.0030303607,3333
0.0026380285,3334
0.0031289924,3335
0.0030976231,3336
0.0029559305,3337
0.0025531824,3338
0.0028449106,3339
0.0043927263,3340
0.0042302324,3341
0.004303887,3342
0.0042267586,3343
0.0042446097,3344
0.0042682732,3345
0.0038226568,3346
0.0042616557,3347
0.003956228,3348
0.0035270518,3349
0.0036831656,3350
0.003407693,3351
0.0039613964,3352
0.0033859198,3353
0.0040473365,3354
0.0034294322,3355
0.003682229,3356
0.0032593047,3357
0.003681229,3358
0.00307613,3359
0.0034730483,3360
0.004077445,3361
0.0034643908,3362
0.0043088505,3363
0.0035476682,3364
0.004161791,3365
0.0032455602,3366
0.004152298,3367
0.0028408025,3368
0.003422683,3369
0.0033701116,3370
0.0031609633,3371
0.0029728948,3372
0.003008165,3373
0.0033571692,3374
0.0024757932,3375
0.004487603,3376
0.011778186,3377
0.015815914,3378
0.017009769,3379
0.017713467,3380
0.016508665,3381
0.015182736,3382
0.015116053,3383
0.012026441,3384
0.0107137775,3385
0.009622927,3386
0.009624451,3387
0.010148288,3388
0.010542095,3389
0.010584785,3390
0.009066282,3391
0.008365303,3392
0.007228234,3393
0.006615127,3394
0.0056950636,3395
0.009137073,3396
0.012533151,3397
0.012296528,3398
0.011791907,3399
0.011899782,3400
0.0106568085,3401
0.010667754,3402
0.010232958,3403
0.010292219,3404
0.009087806,3405
0.008379686,3406
0.00777328,3407
0.0066667213,3408
0.006529961,3409
0.010446276,3410
0.020924937,3411
0.02499166,3412
0.025429435,3413
0.02516735,3414
0.02303793,3415
0.021676037,3416
0.019673014,3417
0.016544806,3418
0.013589769,3419
0.012417489,3420
0.013100476,3421
0.013939682,3422
0.014661465,3423
0.013786511,3424
0.012111566,3425
0.010818888,3426
0.009484834,3427
0.007492873,3428
0.0063086194,3429
0.0058585643,3430
0.0069413763,3431
0.019457912,3432
0.040036444,3433
0.034612544,3434
0.03404087,3435
0.03343358,3436
0.0326717,3437
0.031936277,3438
0.027717218,3439
0.0256684,3440
0.024793614,3441
0.022135878,3442
0.020497901,3443
0.019801559,3444
0.018769873,3445
0.015893396,3446
0.014907901,3447
0.014092641,3448
0.012711264,3449
0.01349443,3450
0.013810455,3451
0.012652534,3452
0.010362408,3453
0.00960218,3454
0.01348031,3455
0.01376507,3456
0.014172931,3457
0.01172767,3458
0.010840356,3459
0.012230962,3460
0.010082825,3461
0.011139908,3462
0.009838025,3463
0.009738268,3464
0.0110030845,3465
0.010207019,3466
0.010814547,3467
0.009811768,3468
0.008712293,3469
0.009021251,3470
0.008056384,3471
0.009150435,3472
0.008272491,3473
0.007975662,3474
0.0071595823,3475
0.0060296487,3476
0.0068411296,3477
0.0058402605,3478
0.005366408,3479
0.005261181,3480
0.005363739,3481
0.01126519,3482
0.009344399,3483
0.011655727,3484
0.010560475,3485
0.008964349,3486
0.009667247,3487
0.007295203,3488
0.00745668,3489
0.00615715,3490
0.005600326,3491
0.004451349,3492
0.004741637,3493
0.0046203993,3494
0.0042731105,3495
0.00449356,3496
0.004035988,3497
0.0044904216,3498
0.005377256,3499
0.005406971,3500
0.0054617655,3501
0.0050641242,3502
0.005501355,3503
0.004654048,3504
0.0045180335,3505
0.0049610087,3506
0.004659737,3507
0.004727348,3508
0.004086648,3509
0.0041946303,3510
0.004552118,3511
0.004478336,3512
0.0040989574,3513
0.004279476,3514
0.0037136406,3515
0.004103242,3516
0.0038191008,3517
0.004060509,3518
0.003322497,3519
0.0036627534,3520
0.003500873,3521
0.0038476433,3522
0.003757471,3523
0.003920687,3524
0.0036726522,3525
0.0032753067,3526
0.003480954,3527
0.003938907,3528
0.0037946883,3529
0.0032127658,3530
0.0034470067,3531
0.0034737391,3532
0.003133821,3533
0.0030021542,3534
0.003572928,3535
0.0035592872,3536
0.0038175427,3537
0.008309119,3538
0.008995765,3539
0.00942362,3540
0.008408348,3541
0.0078112944,3542
0.009265803,3543
0.008801346,3544
0.009606429,3545
0.0083074,3546
0.0069984323,3547
0.0072621997,3548
0.0063544125,3549
0.007425059,3550
0.007063759,3551
0.0061738915,3552
0.005902242,3553
0.0053918012,3554
0.0058974996,3555
0.0063578887,3556
0.007095246,3557
0.0062610735,3558
0.0052783224,3559
0.005916202,3560
0.005031602,3561
0.00505578,3562
0.0051363697,3563
0.0047701932,3564
0.012621792,3565
0.051440544,3566
0.05596524,3567
0.04890696,3568
0.048804387,3569
0.04583707,3570
0.04729858,3571
0.04089412,3572
0.036166802,3573
0.03275191,3574
0.029760864,3575
0.025188409,3576
0.025259694,3577
0.02311775,3578
0.020343319,3579
0.018811401,3580
0.018877517,3581
0.016519194,3582
0.018142074,3583
0.015490568,3584
0.015526145,3585
0.014234314,3586
0.012405228,3587
0.01134484,3588
0.01257811,3589
0.013054456,3590
0.012625375,3591
0.012102528,3592
0.0121069625,3593
0.012711614,3594
0.010624144,3595
0.009662846,3596
0.008029938,3597
0.0103849415,3598
0.01019968,3599
0.011371456,3600
0.011296281,3601
0.011439557,3602
0.010553719,3603
0.009888117,3604
0.009706403,3605
0.009206486,3606
0.009368279,3607
0.009969526,3608
0.03009997,3609
0.04740942,3610
0.04576845,3611
0.0357369,3612
0.035824038,3613
0.030153211,3614
0.030490136,3615
0.030227745,3616
0.028633986,3617
0.02838851,3618
0.02823874,3619
0.028725218,3620
0.029633855,3621
0.028537836,3622
0.023631549,3623
0.022170939,3624
0.021724159,3625
0.019158486,3626
0.017352197,3627
0.014831125,3628
0.016253661,3629
0.016322736,3630
0.016281374,3631
0.029171573,3632
0.03163024,3633
0.033040147,3634
0.03136035,3635
0.03383593,3636
0.03328196,3637
0.032618087,3638
0.028388677,3639
0.026233397,3640
0.022997351,3641
0.020656144,3642
0.021799989,3643
0.024182692,3644
0.027047822,3645
0.023714306,3646
0.019146834,3647
0.01799806,3648
0.016659375,3649
0.01472588,3650
0.012426908,3651
0.010880496,3652
0.011483571,3653
0.008810284,3654
0.011913158,3655
0.009948198,3656
0.011688819,3657
0.008165336,3658
0.010928113,3659
0.007941482,3660
0.010576582,3661
0.0078058327,3662
0.010843176,3663
0.008530498,3664
0.012107901,3665
0.010446086,3666
0.009261222,3667
0.009578688,3668
0.008955925,3669
0.009579835,3670
0.0100339,3671
0.009447562,3672
0.009874246,3673
0.025200628,3674
0.034796078,3675
0.030814786,3676
0.026915211,3677
0.024662146,3678
0.021700578,3679
0.020247864,3680
0.023225233,3681
0.021844454,3682
0.021456439,3683
0.018614497,3684
0.030364396,3685
0.051593795,3686
0.047678635,3687
0.035541628,3688
0.029833216,3689
0.023221526,3690
0.02293941,3691
0.02436576,3692
0.022651715,3693
0.01965381,3694
0.021020116,3695
0.02194784,3696
0.01595255,3697
0.02286899,3698
0.018562445,3699
0.025158975,3700
0.022226308,3701
0.019179298,3702
0.019627165,3703
0.012796159,3704
0.01269726,3705
0.012544601,3706
0.0104019195,3707
0.009225549,3708
0.008576871,3709
0.0075794123,3710
0.007189656,3711
0.0067412886,3712
0.0073923683,3713
0.0068602483,3714
0.007231012,3715
0.0068125366,3716
0.0061107823,3717
0.0063342922,3718
0.005827263,3719
0.005359876,3720
0.0053410614,3721
0.0054611475,3722
0.012382391,3723
0.020513574,3724
0.022492442,3725
0.01886381,3726
0.017581347,3727
0.015000554,3728
0.0150093,3729
0.013995522,3730
0.013803307,3731
0.01697335,3732
0.015349551,3733
0.013646276,3734
0.0111867115,3735
0.008909008,3736
0.008705813,3737
0.008034544,3738
0.0067448434,3739
0.006470329,3740
0.0059230137,3741
0.00511276,3742
0.005072474,3743
0.0048454106,3744
0.0045532887,3745
0.004240486,3746
0.0040769964,3747
0.0072881165,3748
0.014408848,3749
0.015124929,3750
0.014756012,3751
0.013255599,3752
0.01257787,3753
0.012182322,3754
0.01305719,3755
0.013190125,3756
0.01203088,3757
0.010164134,3758
0.008949145,3759
0.0076626227,3760
0.0067417864,3761
0.0071194363,3762
0.006378335,3763
0.0058741057,3764
0.0046223835,3765
0.004052895,3766
0.0038835432,3767
0.0037354182,3768
0.0033990855,3769
0.0031780782,3770
0.002778425,3771
0.0029017779,3772
0.0031100227,3773
0.0027185793,3774
0.0033343497,3775
0.0031833616,3776
0.003652456,3777
0.0036254155,3778
0.0032812858,3779
0.0035807102,3780
0.0032236392,3781
0.0034819455,3782
0.0032269305,3783
0.0025412904,3784
0.0027713983,3785
0.002879875,3786
0.0026264698,3787
0.0041198824,3788
0.004178132,3789
0.0044498234,3790
0.0041817226,3791
0.0043618614,3792
0.0039207195,3793
0.004189029,3794
0.003973984,3795
0.004305386,3796
0.003940135,3797
0.0041440045,3798
0.004356245,3799
0.004264455,3800
0.0047711353,3801
0.0037833948,3802
0.003361848,3803
0.003519817,3804
0.0034045645,3805
0.003413103,3806
0.0033795552,3807
0.0034055384,3808
0.003305978,3809
0.0032393541,3810
0.0031577332,3811
0.0028659643,3812
0.0029949364,3813
0.0030242063,3814
0.0026845003,3815
0.0022704068,3816
0.0027718437,3817
0.002600053,3818
0.0022941388,3819
0.0020570988,3820
0.0018890253,3821
0.002229357,3822
0.0022214325,3823
0.0017450559,3824
0.0019904077,3825
0.001989395,3826
0.0020490282,3827
0.001898364,3828
0.0019107612,3829
0.0018414799,3830
0.0020456838,3831
0.002142291,3832
0.0018168235,3833
0.0018782895,3834
0.0016960044,3835
0.0020621738,3836
0.0064830687,3837
0.009296679,3838
0.007880569,3839
0.007186665,3840
0.007815733,3841
0.00670223,3842
0.0073640537,3843
0.007297868,3844
0.0067599085,3845
0.005589656,3846
0.0045888578,3847
0.0041982876,3848
0.0037243096,3849
0.003102876,3850
0.0030371984,3851
0.002519223,3852
0.0019340424,3853
0.0019995668,3854
0.001988195,3855
0.0020228105,3856
0.0022299716,3857
0.0031457793,3858
0.002903842,3859
0.0033580118,3860
0.0032298847,3861
0.002672414,3862
0.0027733669,3863
0.0025211102,3864
0.002917487,3865
0.0025789787,3866
0.0028679862,3867
0.0024682183,3868
0.0024441553,3869
0.0027526303,3870
0.0030587476,3871
0.0031446146,3872
0.0028256,3873
0.00300315,3874
0.002711613,3875
0.002430595,3876
0.0023988672,3877
0.0025420303,3878
0.002615566,3879
0.0022245029,3880
0.0025044729,3881
0.0023004883,3882
0.0025301394,3883
0.0023039475,3884
0.0024561193,3885
0.002193527,3886
0.0021693676,3887
0.0019193228,3888
0.0017334657,3889
0.0016417535,3890
0.0015545549,3891
0.0018053809,3892
0.002413788,3893
0.0022267387,3894
0.0022634803,3895
0.0021436363,3896
0.002265268,3897
0.0023828668,3898
0.002033889,3899
0.0019381822,3900
0.0021095527,3901
0.002144724,3902
0.0026027851,3903
0.0031534059,3904
0.0032327163,3905
0.0029933513,3906
0.0026683186,3907
0.0025853948,3908
0.0028353937,3909
0.0025677388,3910
0.0024694803,3911
0.0024124638,3912
0.0025017622,3913
0.0034893588,3914
0.0057773245,3915
0.0051614936,3916
0.0043066754,3917
0.0034758162,3918
0.003413686,3919
0.0037304517,3920
0.0030865343,3921
0.0035291535,3922
0.0034468723,3923
0.0029540847,3924
0.0027662022,3925
0.0025858125,3926
0.0027601896,3927
0.0025936868,3928
0.0024556255,3929
0.0031212764,3930
0.0024504291,3931
0.0029045234,3932
0.0029909872,3933
0.0030873807,3934
0.0031801302,3935
0.00281427,3936
0.0029867424,3937
0.0023169592,3938
0.0022435677,3939
0.0022924864,3940
0.0022738678,3941
0.0027115475,3942
0.0026412269,3943
0.0026058352,3944
0.0030590903,3945
0.002687722,3946
0.0027922823,3947
0.0024592385,3948
0.0027239767,3949
0.0025921592,3950
0.0023060888,3951
0.0019106471,3952
0.0024130803,3953
0.0022951213,3954
0.002487617,3955
0.0039277873,3956
0.003933393,3957
0.004184089,3958
0.0035452012,3959
0.004315621,3960
0.0033942102,3961
0.003785014,3962
0.003594992,3963
0.0034888645,3964
0.0034143233,3965
0.0028660651,3966
0.0032517503,3967
0.0029091334,3968
0.003104531,3969
0.002590699,3970
0.0027674958,3971
0.0026747412,3972
0.002720552,3973
0.003036788,3974
0.0027849255,3975
0.002742657,3976
0.0029800914,3977
0.002495499,3978
0.002952346,3979
0.002547739,3980
0.0027478514,3981
0.0021074882,3982
0.0026676587,3983
0.0023423699,3984
0.002390129,3985
0.0022860987,3986
0.0020605964,3987
0.0023134581,3988
0.0018669128,3989
0.0022382291,3990
0.0021642451,3991
0.0021235202,3992
0.0022652207,3993
0.0021819351,3994
0.002124701,3995
0.0020308946,3996
0.0020214354,3997
0.0015562156,3998
0.0017779155,3999
0.0015639846,4000
0.0016232794,4001
0.0016250364,4002
0.0016693984,4003
0.0016982799,4004
0.0013475342,4005
0.0017456263,4006
0.0012868305,4007
0.0013953142,4008
0.0015029,4009
0.0013827488,4010
0.001384931,4011
0.0014980414,4012
0.0013096203,4013
0.0012394836,4014
0.0014632484,4015
0.0013003389,4016
0.0013939437,4017
0.0012095289,4018
0.0011088373,4019
0.0028396135,4020
0.00791133,4021
0.0095281545,4022
0.008024168,4023
0.0074159675,4024
0.0067229294,4025
0.0055426527,4026
0.0046795974,4027
0.004189038,4028
0.004188431,4029
0.0043621217,4030
0.004079303,4031
0.004077884,4032
0.0037939444,4033
0.0036424457,4034
0.0032642027,4035
0.0025406578,4036
0.0023868056,4037
0.0026562756,4038
0.0026935013,4039
0.0029843177,4040
0.0028896844,4041
0.0027901812,4042
0.002605321,4043
0.002360815,4044
0.002390917,4045
0.002195943,4046
0.002346296,4047
0.002235242,4048
0.0020812259,4049
0.004620349,4050
0.0052332045,4051
0.00518487,4052
0.0048067183,4053
0.0039501865,4054
0.0040911166,4055
0.004085418,4056
0.0037649202,4057
0.004613662,4058
0.004080322,4059
0.0039852476,4060
0.0038622015,4061
0.0032837912,4062
0.0034614357,4063
0.0030639975,4064
0.0035471239,4065
0.0031543102,4066
0.0028235426,4067
0.0073858127,4068
0.016958138,4069
0.019169265,4070
0.016754474,4071
0.016091777,4072
0.013581973,4073
0.009535636,4074
0.0072104703,4075
0.00601203,4076
0.0053176945,4077
0.004975522,4078
0.0047934097,4079
0.0041585844,4080
0.004629618,4081
0.0052986797,4082
0.005742937,4083
0.0052838894,4084
0.005163823,4085
0.0050700037,4086
0.005008555,4087
0.004806834,4088
0.0046224818,4089
0.0043237177,4090
0.0046341033,4091
0.0094397245,4092
0.014804029,4093
0.014281745,4094
0.014415487,4095
0.014739352,4096
0.013959313,4097
0.013591726,4098
0.013754708,4099
0.014538273,4100
0.013566691,4101
0.012261191,4102
0.012126611,4103
0.012299981,4104
0.012436485,4105
0.010446263,4106
0.010309445,4107
0.008978034,4108
0.008830182,4109
0.008102368,4110
0.0077201747,4111
0.0071578925,4112
0.00713231,4113
0.0080196215,4114
0.017112857,4115
0.017311448,4116
0.018374497,4117
0.016509095,4118
0.017554782,4119
0.0160094,4120
0.01270092,4121
0.012660812,4122
0.0126484465,4123
0.01260859,4124
0.0100915,4125
0.00908487,4126
0.009358013,4127
0.007870917,4128
0.006790604,4129
0.0069171786,4130
0.007440879,4131
0.0059200567,4132
0.006325124,4133
0.0056723002,4134
0.0047357883,4135
0.003985954,4136
0.0036118897,4137
0.004022283,4138
0.003563877,4139
0.0035883589,4140
0.0033792465,4141
0.004709904,4142
0.0045890072,4143
0.003991136,4144
0.004050022,4145
0.003840465,4146
0.0038943717,4147
0.0032320207,4148
0.0036675457,4149
0.0034697095,4150
0.003709188,4151
0.003229665,4152
0.0038279758,4153
0.0036899666,4154
0.0037944606,4155
0.0033322398,4156
0.0033428967,4157
0.0032312258,4158
0.0028294087,4159
0.003032801,4160
0.002582792,4161
0.0031614616,4162
0.0025934624,4163
0.0046029156,4164
0.005995444,4165
0.005091941,4166
0.005190738,4167
0.005227797,4168
0.005072143,4169
0.004600866,4170
0.0046717343,4171
0.004577956,4172
0.0048057465,4173
0.004438361,4174
0.0048996396,4175
0.005060848,4176
0.00488844,4177
0.0046196044,4178
0.004200586,4179
0.0043833056,4180
0.0044896742,4181
0.0047550253,4182
0.004570168,4183
0.004598713,4184
0.0048325397,4185
0.0041255667,4186
0.0045529674,4187
0.0044939173,4188
0.0039936034,4189
0.0039414074,4190
0.0045017237,4191
0.005896444,4192
0.0061182096,4193
0.006052929,4194
0.017155802,4195
0.025201753,4196
0.023080116,4197
0.02159342,4198
0.019245608,4199
0.015463704,4200
0.013614097,4201
0.010459919,4202
0.010788603,4203
0.010543573,4204
0.009540193,4205
0.008910724,4206
0.008988993,4207
0.007997698,4208
0.0073354975,4209
0.005621698,4210
0.0055647907,4211
0.005961211,4212
0.006675185,4213
0.0071438355,4214
0.0075260503,4215
0.017326057,4216
0.017146025,4217
0.016264923,4218
0.012762044,4219
0.011003917,4220
0.013179206,4221
0.011937468,4222
0.011796408,4223
0.0133918105,4224
0.012111947,4225
0.011824528,4226
0.010669818,4227
0.010064295,4228
0.02558109,4229
0.054754347,4230
0.055009063,4231
0.046067726,4232
0.045699447,4233
0.037424732,4234
0.026327366,4235
0.020872774,4236
0.018503912,4237
0.017063553,4238
0.016987994,4239
0.0142506985,4240
0.013434148,4241
0.013597742,4242
0.012562289,4243
0.0113202855,4244
0.010750516,4245
0.00932549,4246
0.0100778155,4247
0.01169544,4248
0.021520516,4249
0.030340249,4250
0.032256447,4251
0.029541763,4252
0.029345784,4253
0.026785692,4254
0.027394421,4255
0.025987787,4256
0.02776081,4257
0.025275735,4258
0.022899713,4259
0.022843644,4260
0.022037832,4261
0.023754498,4262
0.021733433,4263
0.021802941,4264
0.019754732,4265
0.020217726,4266
0.018137133,4267
0.017595632,4268
0.01691076,4269
0.0153699,4270
0.014144299,4271
0.013185549,4272
0.013986117,4273
0.020911297,4274
0.016883,4275
0.018231133,4276
0.015642338,4277
0.014416729,4278
0.016593385,4279
0.014673563,4280
0.015372475,4281
0.014352741,4282
0.012106184,4283
0.014159965,4284
0.013492029,4285
0.011296227,4286
0.012917096,4287
0.009910491,4288
0.009739857,4289
0.010416276,4290
0.010874838,4291
0.009936568,4292
0.010351154,4293
0.008826581,4294
0.0086751,4295
0.008581307,4296
0.00797632,4297
0.0075002443,4298
0.006103088,4299
0.0062866765,4300
0.0078802155,4301
0.010294366,4302
0.011216486,4303
0.011257043,4304
0.011068395,4305
0.011241629,4306
0.011856307,4307
0.011289948,4308
0.010377117,4309
0.009905853,4310
0.011917677,4311
0.013318057,4312
0.011226219,4313
0.011614325,4314
0.011507623,4315
0.0118017355,4316
0.012449139,4317
0.011315077,4318
0.010777059,4319
0.013309838,4320
0.013977996,4321
0.015432077,4322
0.016232302,4323
0.0133434255,4324
0.015276175,4325
0.015717527,4326
0.0132784555,4327
0.014057528,4328
0.0132351825,4329
0.015026278,4330
0.014696675,4331
0.017624473,4332
0.01638692,4333
0.016344551,4334
0.014403011,4335
0.014871891,4336
0.015419986,4337
0.01536405,4338
0.014201362,4339
0.050295006,4340
0.07708853,4341
0.07569159,4342
0.07159114,4343
0.072282575,4344
0.07114446,4345
0.067946166,4346
0.060859453,4347
0.056315977,4348
0.052374836,4349
0.046141878,4350
0.041434716,4351
0.038976856,4352
0.035820343,4353
0.031214412,4354
0.02494173,4355
0.026561366,4356
0.027670788,4357
0.025068618,4358
0.02424962,4359
0.02374741,4360
0.020841403,4361
0.018102875,4362
0.017500952,4363
0.017446287,4364
0.018573707,4365
0.020795766,4366
0.018923797,4367
0.01955757,4368
0.018997144,4369
0.0151846735,4370
0.015211985,4371
0.0154030705,4372
0.014826625,4373
0.014719436,4374
0.015574811,4375
0.018465715,4376
0.018502481,4377
0.018362215,4378
0.01694454,4379
0.016782885,4380
0.015472151,4381
0.016895233,4382
0.016141161,4383
0.013977801,4384
0.017508786,4385
0.015386949,4386
0.019871587,4387
0.017318413,4388
0.01560259,4389
0.017635351,4390
0.015746402,4391
0.015729794,4392
0.014693466,4393
0.013820512,4394
0.014211042,4395
0.014919951,4396
0.018404769,4397
0.016596522,4398
0.017721655,4399
0.014987254,4400
0.015433562,4401
0.014281727,4402
0.01304035,4403
0.01438385,4404
0.0133489035,4405
0.013343574,4406
0.013015493,4407
0.012065365,4408
0.012191407,4409
0.026919387,4410
0.03410059,4411
0.03193164,4412
0.028604275,4413
0.027214069,4414
0.02293533,4415
0.024261849,4416
0.0232528,4417
0.022243861,4418
0.0206779,4419
0.021006279,4420
0.020361997,4421
0.020834975,4422
0.020048589,4423
0.017164366,4424
0.016919564,4425
0.016706418,4426
0.014729746,4427
0.014035025,4428
0.013085997,4429
0.013208597,4430
0.012393434,4431
0.011293756,4432
0.009206772,4433
0.009076953,4434
0.008139198,4435
0.0076785358,4436
0.009041762,4437
0.011957977,4438
0.012692364,4439
0.01275303,4440
0.010971182,4441
0.011229895,4442
0.011697195,4443
0.011510131,4444
0.011275564,4445
0.010413249,4446
0.009790556,4447
0.011997841,4448
0.011794346,4449
0.012029559,4450
0.011634714,4451
0.012549991,4452
0.011659999,4453
0.010888998,4454
0.011837958,4455
0.010857234,4456
0.010549938,4457
0.011446416,4458
0.012549985,4459
0.013618467,4460
0.013368156,4461
0.014335905,4462
0.013101357,4463
0.013197872,4464
0.01230085,4465
0.0118892845,4466
0.011806811,4467
0.012188151,4468
0.011319693,4469
0.011647032,4470
0.010871189,4471
0.010907148,4472
0.010935945,4473
0.009936669,4474
0.009795568,4475
0.009317803,4476
0.009762791,4477
0.008571523,4478
0.008801159,4479
0.008429847,4480
0.008437125,4481
0.00813707,4482
0.007015844,4483
0.0067529157,4484
0.00646506,4485
0.0067115715,4486
0.0061743474,4487
0.005872308,4488
0.004959524,4489
0.008562304,4490
0.0096817585,4491
0.009711722,4492
0.009394461,4493
0.009501902,4494
0.009549134,4495
0.0101245195,4496
0.009561133,4497
0.008602044,4498
0.0067315595,4499
0.005919949,4500
0.005393517,4501
0.0053424514,4502
0.005515634,4503
0.0052854023,4504
0.0047435653,4505
0.003006279,4506
0.0023408518,4507
0.0023481,4508
0.0025583277,4509
0.002747956,4510
0.0027687887,4511
0.0023259756,4512
0.0023779685,4513
0.0023697016,4514
0.0024842743,4515
0.0024676481,4516
0.0022566314,4517
0.002361565,4518
0.0020895996,4519
0.0021534266,4520
0.002354305,4521
0.0018601515,4522
0.002609824,4523
0.0022120797,4524
0.0023265064,4525
0.0025235447,4526
0.0025895173,4527
0.0024420659,4528
0.0022612095,4529
0.002376474,4530
0.0020940176,4531
0.0022830334,4532
0.0022302503,4533
0.0025836404,4534
0.0025021173,4535
0.0024136764,4536
0.0025149027,4537
0.0023773317,4538
0.0024778082,4539
0.0024173297,4540
0.0021116454,4541
0.0022091889,4542
0.0019408908,4543
0.0021629715,4544
0.0022027602,4545
0.002358237,4546
0.002361819,4547
0.002123078,4548
0.0018330393,4549
0.0017388108,4550
0.0019344883,4551
0.0017609923,4552
0.0016137912,4553
0.0014369541,4554
0.0015202526,4555
0.0021844232,4556
0.0024553079,4557
0.002680188,4558
0.0025281482,4559
0.0025050452,4560
0.002396019,4561
0.00230376,4562
0.0025160743,4563
0.0024020441,4564
0.0025520022,4565
0.0056508346,4566
0.006912855,4567
0.005858785,4568
0.0051318635,4569
0.00443176,4570
0.005249753,4571
0.004903279,4572
0.004559839,4573
0.0040857866,4574
0.0039711464,4575
0.0034863632,4576
0.0036386577,4577
0.003354543,4578
0.0034119475,4579
0.0036943755,4580
0.0045670276,4581
0.0042364597,4582
0.0036879757,4583
0.004072453,4584
0.003922382,4585
0.0045342264,4586
0.0042696097,4587
0.004250543,4588
0.0040397965,4589
0.0038486472,4590
0.0045684907,4591
0.0037228896,4592
0.0035749446,4593
0.0034982355,4594
0.0034986658,4595
0.0030935295,4596
0.003063142,4597
0.0029644019,4598
0.0027542233,4599
0.003015048,4600
0.0028154566,4601
0.004270546,4602
0.0050795,4603
0.005089678,4604
0.0047513354,4605
0.005686551,4606
0.0046741203,4607
0.005008442,4608
0.00431833,4609
0.0048695393,4610
0.0040965653,4611
0.0039026807,4612
0.0038782672,4613
0.004148618,4614
0.004549985,4615
0.004047639,4616
0.0042271814,4617
0.003957673,4618
0.0038217679,4619
0.0045582033,4620
0.0035723292,4621
0.004395045,4622
0.0036083108,4623
0.0043309703,4624
0.0029781777,4625
0.0043368116,4626
0.003982112,4627
0.003941676,4628
0.0040737693,4629
0.0033861909,4630
0.0042058886,4631
0.0035971398,4632
0.0040875413,4633
0.0036782147,4634
0.0029656126,4635
0.003713054,4636
0.0037509443,4637
0.005354415,4638
0.005612096,4639
0.006359317,4640
0.006785136,4641
0.006695419,4642
0.0060826815,4643
0.006391471,4644
0.0053783567,4645
0.00490995,4646
0.0048036235,4647
0.0047184792,4648
0.004114497,4649
0.0050991955,4650
0.005105998,4651
0.004363688,4652
0.003828927,4653
0.003005756,4654
0.003099352,4655
0.0030966275,4656
0.006848459,4657
0.01201863,4658
0.011746867,4659
0.010233568,4660
0.009256257,4661
0.009054,4662
0.0080703115,4663
0.008862392,4664
0.008369166,4665
0.008341298,4666
0.0077360957,4667
0.0071992506,4668
0.0066768844,4669
0.0061872443,4670
0.0052560256,4671
0.009052708,4672
0.012720657,4673
0.014913536,4674
0.016687097,4675
0.01798948,4676
0.016035225,4677
0.014810862,4678
0.014793288,4679
0.012171263,4680
0.011230233,4681
0.010440068,4682
0.010273309,4683
0.010691142,4684
0.011876622,4685
0.01073808,4686
0.007459781,4687
0.007690628,4688
0.0070814663,4689
0.006610475,4690
0.0061116223,4691
0.0064235907,4692
0.022913685,4693
0.03282715,4694
0.029770589,4695
0.029496545,4696
0.02833784,4697
0.028669521,4698
0.024846602,4699
0.02197282,4700
0.02033663,4701
0.018800141,4702
0.017850157,4703
0.017404001,4704
0.016027527,4705
0.014573562,4706
0.012321801,4707
0.0116459755,4708
0.010756422,4709
0.011541392,4710
0.013097338,4711
0.012128475,4712
0.010574991,4713
0.009203238,4714
0.0074974247,4715
0.0072106863,4716
0.008742893,4717
0.0077928556,4718
0.0056936513,4719
0.007325293,4720
0.007227714,4721
0.007164333,4722
0.006980629,4723
0.005417559,4724
0.0066475915,4725
0.0057990416,4726
0.006126323,4727
0.0057383575,4728
0.0049273977,4729
0.005504402,4730
0.004675076,4731
0.0056715794,4732
0.005043703,4733
0.0043188254,4734
0.004964696,4735
0.0039386,4736
0.0037568768,4737
0.0040734475,4738
0.003132014,4739
0.0035222694,4740
0.003707692,4741
0.0033092778,4742
0.006245353,4743
0.00658398,4744
0.0070216693,4745
0.0069313045,4746
0.005322224,4747
0.005633947,4748
0.003677584,4749
0.0037219438,4750
0.00324792,4751
0.004050678,4752
0.0035079105,4753
0.0041023414,4754
0.0037456257,4755
0.0040916977,4756
0.00417521,4757
0.0051200045,4758
0.005005393,4759
0.005399089,4760
0.004994895,4761
0.005197077,4762
0.005225672,4763
0.0049130656,4764
0.0052481773,4765
0.0046078283,4766
0.0046495395,4767
0.004179696,4768
0.0035479544,4769
0.0045303944,4770
0.004223293,4771
0.003915522,4772
0.004674464,4773
0.0032181032,4774
0.0042825467,4775
0.0033144671,4776
0.003985737,4777
0.0034742753,4778
0.0036222772,4779
0.0038871318,4780
0.0046341037,4781
0.0046199886,4782
0.004463458,4783
0.0045207585,4784
0.004015432,4785
0.0042039095,4786
0.0045330417,4787
0.0048081265,4788
0.003914329,4789
0.004456563,4790
0.003909999,4791
0.003839671,4792
0.0035732852,4793
0.0038235001,4794
0.0041096313,4795
0.00999821,4796
0.012788587,4797
0.012268078,4798
0.012969882,4799
0.011443503,4800
0.01147362,4801
0.013816727,4802
0.012160607,4803
0.012054308,4804
0.009991217,4805
0.010589888,4806
0.011356751,4807
0.009448992,4808
0.009977697,4809
0.008489968,4810
0.007985692,4811
0.008852753,4812
0.008758169,4813
0.008712898,4814
0.00703105,4815
0.0074615586,4816
0.006168567,4817
0.006113751,4818
0.0056052795,4819
0.014742662,4820
0.049915615,4821
0.04680865,4822
0.042348403,4823
0.04261999,4824
0.040524058,4825
0.041829042,4826
0.036413603,4827
0.032177325,4828
0.02920371,4829
0.02569407,4830
0.021136263,4831
0.019582761,4832
0.018476032,4833
0.016977333,4834
0.017102038,4835
0.015168603,4836
0.014714269,4837
0.013657766,4838
0.0127905095,4839
0.011624454,4840
0.010733819,4841
0.0103650745,4842
0.008753893,4843
0.010572106,4844
0.011173151,4845
0.009132584,4846
0.010924259,4847
0.009872773,4848
0.010992824,4849
0.009185074,4850
0.009468,4851
0.008284663,4852
0.010299128,4853
0.009933045,4854
0.012256215,4855
0.0113132605,4856
0.012719741,4857
0.010639297,4858
0.010300905,4859
0.011488735,4860
0.010205955,4861
0.010256738,4862
0.008426416,4863
0.009767819,4864
0.010332361,4865
0.027826548,4866
0.045583684,4867
0.044545304,4868
0.03851587,4869
0.034972847,4870
0.027229367,4871
0.028869404,4872
0.029170444,4873
0.02486056,4874
0.02388524,4875
0.022559853,4876
0.022814745,4877
0.022807878,4878
0.023037251,4879
0.020903205,4880
0.018531082,4881
0.017964076,4882
0.016110305,4883
0.01375122,4884
0.011653668,4885
0.011820708,4886
0.0124960095,4887
0.010726924,4888
0.010386117,4889
0.009667313,4890
0.011120215,4891
0.0244503,4892
0.027291114,4893
0.030306773,4894
0.027505223,4895
0.030523773,4896
0.027983012,4897
0.026098017,4898
0.023974134,4899
0.019984003,4900
0.016420329,4901
0.014795589,4902
0.016963592,4903
0.018755311,4904
0.019537883,4905
0.019459661,4906
0.015464723,4907
0.014470063,4908
0.013475749,4909
0.0126683535,4910
0.011119667,4911
0.01032388,4912
0.011413765,4913
0.013111111,4914
0.009737847,4915
0.011822512,4916
0.010546005,4917
0.011509192,4918
0.010168286,4919
0.01111156,4920
0.010440487,4921
0.012042987,4922
0.013405724,4923
0.013661077,4924
0.012276595,4925
0.01238572,4926
0.011476161,4927
0.010804267,4928
0.011384643,4929
0.010221164,4930
0.00918272,4931
0.011206395,4932
0.012960336,4933
0.026677746,4934
0.04484944,4935
0.049203943,4936
0.043807436,4937
0.043746665,4938
0.03868026,4939
0.0393205,4940
0.04021417,4941
0.040287282,4942
0.032971423,4943
0.029107962,4944
0.02930937,4945
0.041730493,4946
0.05079608,4947
0.039758522,4948
0.037280794,4949
0.02885543,4950
0.025667235,4951
0.026165204,4952
0.026269363,4953
0.01945477,4954
0.020464318,4955
0.018203367,4956
0.018340632,4957
0.019964544,4958
0.029471973,4959
0.0346582,4960
0.03200168,4961
0.028439889,4962
0.028166838,4963
0.018597454,4964
0.019010777,4965
0.021291172,4966
0.016731255,4967
0.01643625,4968
0.014176056,4969
0.014663413,4970
0.01277159,4971
0.01193609,4972
0.012212607,4973
0.010585811,4974
0.01055851,4975
0.011231234,4976
0.008867283,4977
0.009102928,4978
0.008215343,4979
0.007516324,4980
0.007599539,4981
0.007498857,4982
0.016916962,4983
0.025903303,4984
0.028787415,4985
0.024029214,4986
0.02098378,4987
0.020465188,4988
0.019352913,4989
0.018117774,4990
0.018326879,4991
0.020841042,4992
0.020448973,4993
0.01872357,4994
0.015356517,4995
0.01245985,4996
0.011702803,4997
0.010926045,4998
0.0132007655,4999
0.019024387,5000
0.02480084,5001
0.02362711,5002
0.020519415,5003
0.019023465,5004
0.017479979,5005
0.018081289,5006
0.0165728,5007
0.016385676,5008
0.016405832,5009
0.0144296205,5010
0.013163443,5011
0.009946512,5012
0.01238171,5013
0.014617517,5014
0.011543154,5015
0.011604397,5016
0.010997071,5017
0.011098683,5018
0.010278632,5019
0.009990033,5020
0.008391903,5021
0.0073420717,5022
0.0059281862,5023
0.006379859,5024
0.00572017,5025
0.005217635,5026
0.0049631703,5027
0.0039911126,5028
0.0041736322,5029
0.004203041,5030
0.0046056756,5031
0.0043820385,5032
0.0040350393,5033
0.0035672241,5034
0.0038053135,5035
0.004263022,5036
0.0041929693,5037
0.0038802857,5038
0.0036048575,5039
0.0036181689,5040
0.0032635552,5041
0.0051082764,5042
0.004837786,5043
0.004626089,5044
0.004477368,5045
0.003848673,5046
0.003983832,5047
0.0038462172,5048
0.0039796378,5049
0.004261126,5050
0.0039229784,5051
0.0038453073,5052
0.0039403867,5053
0.0035966586,5054
0.004171819,5055
0.0040722815,5056
0.004012332,5057
0.0040197102,5058
0.0037482243,5059
0.0037800134,5060
0.0035732195,5061
0.003734127,5062
0.0039363555,5063
0.004810625,5064
0.0049325214,5065
0.0052110213,5066
0.0041760616,5067
0.004247025,5068
0.0042581083,5069
0.0035778796,5070
0.0035695469,5071
0.0030762847,5072
0.0030658885,5073
0.0035279274,5074
0.003782981,5075
0.0037825583,5076
0.0038387533,5077
0.0033564346,5078
0.0032024304,5079
0.00318079,5080
0.003314184,5081
0.003021993,5082
0.0030980974,5083
0.0031777148,5084
0.0029629648,5085
0.0029296128,5086
0.0026607765,5087
0.0027781455,5088
0.0030019546,5089
0.0034103233,5090
0.010547308,5091
0.013716021,5092
0.012321613,5093
0.010856131,5094
0.011831312,5095
0.010614867,5096
0.011312901,5097
0.011173478,5098
0.011029705,5099
0.008835192,5100
0.007815319,5101
0.0067049637,5102
0.005827297,5103
0.0060032685,5104
0.005324087,5105
0.0047813114,5106
0.0040802388,5107
0.0034139706,5108
0.0037462157,5109
0.0034851648,5110
0.003575458,5111
0.0027618425,5112
0.0028583086,5113
0.002823667,5114
0.0033439419,5115
0.0030132974,5116
0.0029156613,5117
0.0032958165,5118
0.0038792568,5119
0.0033651006,5120
0.0038572876,5121
0.0031311745,5122
0.003457496,5123
0.0034414337,5124
0.0033956782,5125
0.003383104,5126
0.0027142758,5127
0.0026306899,5128
0.0027048537,5129
0.0039299703,5130
0.0043304292,5131
0.0047922335,5132
0.0046302523,5133
0.0043130373,5134
0.0040756315,5135
0.0036488997,5136
0.0038198272,5137
0.0041955286,5138
0.003938257,5139
0.004104489,5140
0.0038163818,5141
0.0034879849,5142
0.0037642133,5143
0.0039141127,5144
0.0040657674,5145
0.003972723,5146
0.0041222703,5147
0.0036616037,5148
0.0034440358,5149
0.0031220498,5150
0.003125105,5151
0.003956262,5152
0.003959978,5153
0.0037395703,5154
0.0033705535,5155
0.0029742187,5156
0.0031475439,5157
0.0030629293,5158
0.0029907895,5159
0.0028681508,5160
0.00347516,5161
0.0065377387,5162
0.0063477033,5163
0.005880666,5164
0.005046443,5165
0.004072802,5166
0.0047500054,5167
0.004560373,5168
0.0043658256,5169
0.004634094,5170
0.004572012,5171
0.004224739,5172
0.004068861,5173
0.0039410945,5174
0.003758401,5175
0.0038925866,5176
0.004185769,5177
0.0039904537,5178
0.0036776208,5179
0.0041898964,5180
0.004138254,5181
0.0038110125,5182
0.0038001603,5183
0.0037110073,5184
0.0033651493,5185
0.0031258455,5186
0.0030681605,5187
0.0025856728,5188
0.002793814,5189
0.0037622415,5190
0.0033929339,5191
0.0035502769,5192
0.003061368,5193
0.003106262,5194
0.003216907,5195
0.0031090959,5196
0.0033293243,5197
0.0028307948,5198
0.0025218062,5199
0.0027717617,5200
0.0025241948,5201
0.0024284916,5202
0.0026194623,5203
0.003355294,5204
0.003467411,5205
0.0028418219,5206
0.003395957,5207
0.002944543,5208
0.0032183833,5209
0.0029092939,5210
0.0030635747,5211
0.0029990876,5212
0.0026741978,5213
0.0030912987,5214
0.0023499853,5215
0.0031047384,5216
0.0025327043,5217
0.002981788,5218
0.0023388404,5219
0.0032634104,5220
0.0028228764,5221
0.0035042253,5222
0.0034013519,5223
0.0031164158,5224
0.0034479517,5225
0.0024371757,5226
0.0032374298,5227
0.002535266,5228
0.002820247,5229
0.0025792094,5230
0.002329779,5231
0.0028376593,5232
0.002507091,5233
0.0024967387,5234
0.002121237,5235
0.0024632453,5236
0.0021377238,5237
0.00219671,5238
0.0023379505,5239
0.0021307883,5240
0.0023434763,5241
0.0020030334,5242
0.0022253636,5243
0.0018971221,5244
0.0020216398,5245
0.0021060563,5246
0.0017769445,5247
0.0020329216,5248
0.0018055001,5249
0.0020196086,5250
0.0017562081,5251
0.0019218202,5252
0.0016611494,5253
0.0023044443,5254
0.0019626657,5255
0.0017050205,5256
0.0023948497,5257
0.0017027905,5258
0.0023796891,5259
0.00156776,5260
0.0020549204,5261
0.0019913868,5262
0.0018917652,5263
0.0021880995,5264
0.0017718333,5265
0.0021514767,5266
0.0020228398,5267
0.002156741,5268
0.0023888228,5269
0.002588397,5270
0.006399416,5271
0.008498765,5272
0.007546749,5273
0.006777088,5274
0.0057258913,5275
0.004772,5276
0.004178074,5277
0.0037089728,5278
0.003293627,5279
0.0034906117,5280
0.0033284198,5281
0.0031046283,5282
0.0029395944,5283
0.002857656,5284
0.002530894,5285
0.0024378102,5286
0.0023002212,5287
0.0024782775,5288
0.0027003502,5289
0.002729339,5290
0.002874214,5291
0.002547086,5292
0.0024795327,5293
0.0024859405,5294
0.006520002,5295
0.0062584025,5296
0.0051131113,5297
0.005126995,5298
0.0042477874,5299
0.0046160184,5300
0.0050092083,5301
0.0044903914,5302
0.0048896326,5303
0.004939311,5304
0.0039564827,5305
0.004109301,5306
0.0038801918,5307
0.0037599953,5308
0.0059383395,5309
0.010621275,5310
0.012949575,5311
0.013301667,5312
0.01210884,5313
0.011870988,5314
0.010670426,5315
0.009732113,5316
0.0077483347,5317
0.008724539,5318
0.007947951,5319
0.0078513,5320
0.0077831945,5321
0.007959362,5322
0.0073204236,5323
0.007222936,5324
0.006799126,5325
0.0056566717,5326
0.006728167,5327
0.0066034333,5328
0.00659735,5329
0.0066553387,5330
0.005887233,5331
0.010362891,5332
0.011712559,5333
0.012491935,5334
0.011019291,5335
0.0102933245,5336
0.0108328685,5337
0.009778186,5338
0.009044875,5339
0.009274396,5340
0.009465133,5341
0.009360372,5342
0.009222011,5343
0.008566502,5344
0.009562121,5345
0.009438575,5346
0.008138517,5347
0.007404046,5348
0.0077457125,5349
0.0073405653,5350
0.007158145,5351
0.006871082,5352
0.006970877,5353
0.01275347,5354
0.015502125,5355
0.016004493,5356
0.01673055,5357
0.01645028,5358
0.015012551,5359
0.012541671,5360
0.012802187,5361
0.010184383,5362
0.0106922025,5363
0.008884691,5364
0.008368246,5365
0.0076885438,5366
0.006848168,5367
0.006651461,5368
0.006719878,5369
0.0066039492,5370
0.0050475374,5371
0.0053083594,5372
0.003947801,5373
0.0037086357,5374
0.0031252557,5375
0.0028785644,5376
0.0033112962,5377
0.003001782,5378
0.003416552,5379
0.0033125912,5380
0.0048267148,5381
0.004279455,5382
0.0043303934,5383
0.0043081376,5384
0.004923334,5385
0.0049741357,5386
0.004456259,5387
0.0049428567,5388
0.0045965794,5389
0.0046047308,5390
0.004796323,5391
0.006820446,5392
0.007037756,5393
0.0063865203,5394
0.006216522,5395
0.006248436,5396
0.005662272,5397
0.005123512,5398
0.0059976513,5399
0.005217394,5400
0.004669307,5401
0.004881878,5402
0.0051128245,5403
0.005447221,5404
0.005076816,5405
0.0046400055,5406
0.0043111513,5407
0.0044176374,5408
0.004297107,5409
0.004323189,5410
0.00428921,5411
0.004635157,5412
0.004473474,5413
0.004177334,5414
0.0043889023,5415
0.0044923313,5416
0.0044696555,5417
0.004024835,5418
0.003913016,5419
0.004113242,5420
0.0039441423,5421
0.0034761624,5422
0.0036366952,5423
0.0036914346,5424
0.0036701523,5425
0.0034174793,5426
0.00330446,5427
0.0039185407,5428
0.0030237713,5429
0.0034707098,5430
0.0037069074,5431
0.0031968344,5432
0.0028475267,5433
0.00284209,5434
0.0032391665,5435
0.008950564,5436
0.013332593,5437
0.012702669,5438
0.01201588,5439
0.010582625,5440
0.008091396,5441
0.006430983,5442
0.0047275233,5443
0.0043721986,5444
0.0039352323,5445
0.0032082517,5446
0.0029272619,5447
0.0028528634,5448
0.0022952848,5449
0.0020932078,5450
0.0020530007,5451
0.0017722442,5452
0.002054515,5453
0.002236525,5454
0.002258162,5455
0.002387527,5456
0.0026232852,5457
0.0025250495,5458
0.0036597508,5459
0.006981112,5460
0.005928948,5461
0.004927006,5462
0.0048162853,5463
0.0037574146,5464
0.0050463737,5465
0.004903994,5466
0.00451157,5467
0.0056438744,5468
0.005040606,5469
0.0047496343,5470
0.005021976,5471
0.0043114256,5472
0.003968616,5473
0.004035108,5474
0.008359522,5475
0.017653638,5476
0.026662499,5477
0.023036234,5478
0.019262841,5479
0.017049212,5480
0.012846218,5481
0.010577077,5482
0.008108591,5483
0.0076042255,5484
0.0076564057,5485
0.008953653,5486
0.007826243,5487
0.0076780324,5488
0.007861139,5489
0.0072594536,5490
0.0066468753,5491
0.006483504,5492
0.006054974,5493
0.0058833836,5494
0.0061233975,5495
0.0060323766,5496
0.012698161,5497
0.019663205,5498
0.019466905,5499
0.019839676,5500
0.019022666,5501
0.018695895,5502
0.018589221,5503
0.01802817,5504
0.019449186,5505
0.016496744,5506
0.016759573,5507
0.016122717,5508
0.015740175,5509
0.015584882,5510
0.014602169,5511
0.012450247,5512
0.011999747,5513
0.011495314,5514
0.010061712,5515
0.010613245,5516
0.008972305,5517
0.008692344,5518
0.008305836,5519
0.008080515,5520
0.007824567,5521
0.0074552423,5522
0.0073898383,5523
0.009909204,5524
0.015964018,5525
0.033435233,5526
0.035324886,5527
0.032210615,5528
0.025219586,5529
0.025537716,5530
0.024915302,5531
0.023903357,5532
0.024074372,5533
0.02133437,5534
0.022790954,5535
0.02160564,5536
0.022957768,5537
0.020350914,5538
0.020728935,5539
0.018175485,5540
0.01627203,5541
0.015543692,5542
0.016076684,5543
0.015891893,5544
0.014521426,5545
0.014242168,5546
0.014254382,5547
0.01474362,5548
0.014132039,5549
0.012671806,5550
0.011324701,5551
0.011428844,5552
0.011164886,5553
0.009728978,5554
0.009111678,5555
0.011157014,5556
0.014068484,5557
0.014951978,5558
0.015066733,5559
0.015051593,5560
0.014972051,5561
0.014303804,5562
0.015488908,5563
0.013833422,5564
0.0124562355,5565
0.01321017,5566
0.014706962,5567
0.015317185,5568
0.016733058,5569
0.013844638,5570
0.013837773,5571
0.017346928,5572
0.014365443,5573
0.014754305,5574
0.017551137,5575
0.013435451,5576
0.015439723,5577
0.017241668,5578
0.01626128,5579
0.016029151,5580
0.016653663,5581
0.016887203,5582
0.016973335,5583
0.014706945,5584
0.013938863,5585
0.01756745,5586
0.017578643,5587
0.016007468,5588
0.017452959,5589
0.017477699,5590
0.015530141,5591
0.01608889,5592
0.015025124,5593
0.01559801,5594
0.015435987,5595
0.02058318,5596
0.07342069,5597
0.06855747,5598
0.06466637,5599
0.06700494,5600
0.062028818,5601
0.058633883,5602
0.05346929,5603
0.04969588,5604
0.047753654,5605
0.042439375,5606
0.036581002,5607
0.034426153,5608
0.032790564,5609
0.03063679,5610
0.0264191,5611
0.02329634,5612
0.023836952,5613
0.023157697,5614
0.021386929,5615
0.021314543,5616
0.02019389,5617
0.018366607,5618
0.016977046,5619
0.017366393,5620
0.018928552,5621
0.016358007,5622
0.019248031,5623
0.018802758,5624
0.018077472,5625
0.01379161,5626
0.013990791,5627
0.015243863,5628
0.016025037,5629
0.0152289085,5630
0.01773605,5631
0.016194938,5632
0.015821287,5633
0.017046032,5634
0.016602447,5635
0.0167503,5636
0.013357336,5637
0.014866342,5638
0.014185401,5639
0.017786605,5640
0.015790807,5641
0.016066039,5642
0.01747743,5643
0.014851092,5644
0.016222445,5645
0.015189376,5646
0.013695086,5647
0.01454145,5648
0.013832572,5649
0.018275853,5650
0.018661985,5651
0.022112476,5652
0.020698994,5653
0.018016227,5654
0.01855786,5655
0.014823637,5656
0.017543703,5657
0.015866863,5658
0.014080966,5659
0.014609125,5660
0.012684197,5661
0.013773316,5662
0.013059566,5663
0.023387989,5664
0.042726196,5665
0.042893052,5666
0.0370626,5667
0.030041803,5668
0.027719261,5669
0.028459651,5670
0.02714101,5671
0.024609126,5672
0.023673391,5673
0.02288685,5674
0.021300847,5675
0.021511348,5676
0.020590983,5677
0.019720139,5678
0.017601825,5679
0.017288666,5680
0.015384259,5681
0.015237267,5682
0.013125875,5683
0.013788613,5684
0.0118037155,5685
0.0113256015,5686
0.010134073,5687
0.009701382,5688
0.009233436,5689
0.009346092,5690
0.00947684,5691
0.011045509,5692
0.013146686,5693
0.013748809,5694
0.013775473,5695
0.012673503,5696
0.013355754,5697
0.0128105935,5698
0.012857341,5699
0.011165713,5700
0.01244199,5701
0.01390178,5702
0.013732024,5703
0.014394798,5704
0.013137442,5705
0.013137544,5706
0.01307773,5707
0.013903442,5708
0.012415729,5709
0.011155516,5710
0.013288123,5711
0.014007577,5712
0.013000734,5713
0.01151211,5714
0.012093345,5715
0.010600004,5716
0.010736164,5717
0.011353812,5718
0.009620797,5719
0.010283235,5720
0.01462653,5721
0.017407127,5722
0.015232798,5723
0.013868089,5724
0.012802426,5725
0.010119696,5726
0.010140213,5727
0.009030613,5728
0.010763003,5729
0.0100987945,5730
0.011680653,5731
0.011540444,5732
0.010872382,5733
0.0105751995,5734
0.009235562,5735
0.022538051,5736
0.03200805,5737
0.034930687,5738
0.032161474,5739
0.034673575,5740
0.031262837,5741
0.030608945,5742
0.029155433,5743
0.024899,5744
0.020089125,5745
0.018041702,5746
0.018601332,5747
0.02319095,5748
0.024468914,5749
0.023240214,5750
0.01960455,5751
0.018488634,5752
0.015387564,5753
0.014429718,5754
0.013885095,5755
0.015359822,5756
0.013424394,5757
0.012980299,5758
0.013070856,5759
0.012482525,5760
0.012092229,5761
0.0104970075,5762
0.010488826,5763
0.013304632,5764
0.014641078,5765
0.015043214,5766
0.015246005,5767
0.015714478,5768
0.014071789,5769
0.014207683,5770
0.013481714,5771
0.01380688,5772
0.013242568,5773
0.014447219,5774
0.016862841,5775
0.017631387,5776
0.015969116,5777
0.014171212,5778
0.015286639,5779
0.014139983,5780
0.013542446,5781
0.012193085,5782
0.011658072,5783
0.011873183,5784
0.012477012,5785
0.012312508,5786
0.01190525,5787
0.011619154,5788
0.010225872,5789
0.01043241,5790
0.010421787,5791
0.01039205,5792
0.016757853,5793
0.016182868,5794
0.014712707,5795
0.014899963,5796
0.015768252,5797
0.015477457,5798
0.015283032,5799
0.012407143,5800
0.014217329,5801
0.03962044,5802
0.052657157,5803
0.041743737,5804
0.04024743,5805
0.037260164,5806
0.030285819,5807
0.031517833,5808
0.030974953,5809
0.028143246,5810
0.027300019,5811
0.025077747,5812
0.022478575,5813
0.019928064,5814
0.018312905,5815
0.020866413,5816
0.018784273,5817
0.016237678,5818
0.01894363,5819
0.016919414,5820
0.017576596,5821
0.017721213,5822
0.017032573,5823
0.017220309,5824
0.015365574,5825
0.016013231,5826
0.016767409,5827
0.015770527,5828
0.016214969,5829
0.014258624,5830
0.013645357,5831
0.012589458,5832
0.011764385,5833
0.012195761,5834
0.012603108,5835
0.013317471,5836
0.012777386,5837
0.013220914,5838
0.0126759615,5839
0.012275419,5840
0.013452504,5841
0.011004865,5842
0.011485623,5843
0.01180989,5844
0.0129657285,5845
0.017564705,5846
0.014026877,5847
0.015369095,5848
0.0143625345,5849
0.015222295,5850
0.015614883,5851
0.0151171,5852
0.014233534,5853
0.013509448,5854
0.017456204,5855
0.016724616,5856
0.01717809,5857
0.016496254,5858
0.01754433,5859
0.0156187955,5860
0.0145632895,5861
0.014238195,5862
0.01400092,5863
0.0142632425,5864
0.0162175,5865
0.012940444,5866
0.013986652,5867
0.024286967,5868
0.04472457,5869
0.052934017,5870
0.035223916,5871
0.03446982,5872
0.02354072,5873
0.018619291,5874
0.021471664,5875
0.018618599,5876
0.0130397985,5877
0.012993394,5878
0.011094874,5879
0.011087064,5880
0.010168465,5881
0.009966597,5882
0.010452992,5883
0.011322653,5884
0.012774332,5885
0.0118956035,5886
0.012211645,5887
0.010833635,5888
0.0121829305,5889
0.010120676,5890
0.010100782,5891
0.009251804,5892
0.00823759,5893
0.007561076,5894
0.03902095,5895
0.052637715,5896
0.05010417,5897
0.047526445,5898
0.045120012,5899
0.04037106,5900
0.040218353,5901
0.04407255,5902
0.042565946,5903
0.03630479,5904
0.030351862,5905
0.029238842,5906
0.022799348,5907
0.02375037,5908
0.023388522,5909
0.03980474,5910
0.064333186,5911
0.05103705,5912
0.0445685,5913
0.03644147,5914
0.031855147,5915
0.030723207,5916
0.03328044,5917
0.024947692,5918
0.027939638,5919
0.051868018,5920
0.05477963,5921
0.061557192,5922
0.053923164,5923
0.052398063,5924
0.046285197,5925
0.04891619,5926
0.054933973,5927
0.089643456,5928
0.1022503,5929
0.097407654,5930
0.086039566,5931
0.07587234,5932
0.05678544,5933
0.055947453,5934
0.046824157,5935
0.038043767,5936
0.063679226,5937
0.051249918,5938
0.05234375,5939
0.061189305,5940
0.047640234,5941
0.046707667,5942
0.04376693,5943
0.035122257,5944
0.035795975,5945
0.036584422,5946
0.02426145,5947
0.021803176,5948
0.01968038,5949
0.01975709,5950
0.018488312,5951
0.017888725,5952
0.019164694,5953
0.019335885,5954
0.020381715,5955
0.02288278,5956
0.019638967,5957
0.017225586,5958
0.016037466,5959
0.020522779,5960
0.035680104,5961
0.034981787,5962
0.034926396,5963
0.03479567,5964
0.033774294,5965
0.02990156,5966
0.030659378,5967
0.027202677,5968
0.0231427,5969
0.020549279,5970
0.020217288,5971
0.023059024,5972
0.024464674,5973
0.024970625,5974
0.022763388,5975
0.017389305,5976
0.015863089,5977
0.017097134,5978
0.04744613,5979
0.06881629,5980
0.07538715,5981
0.068929404,5982
0.059105232,5983
0.051558584,5984
0.052780174,5985
0.053919572,5986
0.05477767,5987
0.056203313,5988
0.056788452,5989
0.05089826,5990
0.046573605,5991
0.03564936,5992
0.03285071,5993
0.030781621,5994
0.027628288,5995
0.022407243,5996
0.023176294,5997
0.020880546,5998
0.02027075,5999
0.016567826,6000
0.021264115,6001
0.020521522,6002
0.017652659,6003
0.015665036,6004
0.013442043,6005
0.013319898,6006
0.013744438,6007
0.014498494,6008
0.015833272,6009
0.014609075,6010
0.013726427,6011
0.012656625,6012
0.012596418,6013
0.015506294,6014
0.01657724,6015
0.016744917,6016
0.016880143,6017
0.016342767,6018
0.016335996,6019
0.015705187,6020
0.015656294,6021
0.0141889835,6022
0.013021981,6023
0.06296454,6024
0.06469727,6025
0.057767875,6026
0.059869885,6027
0.045596946,6028
0.040140834,6029
0.03915268,6030
0.03571491,6031
0.026552234,6032
0.026393909,6033
0.020070586,6034
0.020390952,6035
0.018696764,6036
0.02158876,6037
0.02284656,6038
0.021560913,6039
0.03732427,6040
0.052328836,6041
0.054474305,6042
0.043389525,6043
0.03486872,6044
0.02981489,6045
0.028569618,6046
0.032766063,6047
0.034631297,6048
0.04517108,6049
0.049313538,6050
0.05529272,6051
0.06110527,6052
0.04621557,6053
0.03992481,6054
0.033902653,6055
0.028146815,6056
0.031301886,6057
0.037812475,6058
0.040707648,6059
0.043029252,6060
0.03997919,6061
0.040299047,6062
0.036098238,6063
0.033440504,6064
0.03323972,6065
0.029193219,6066
0.029323429,6067
0.027992638,6068
0.027591076,6069
0.02662511,6070
0.037839256,6071
0.03587934,6072
0.033726227,6073
0.029101036,6074
0.027765576,6075
0.02727074,6076
0.029901957,6077
0.02727733,6078
0.026736083,6079
0.021741424,6080
0.017209943,6081
0.0142278485,6082
0.013167784,6083
0.014537396,6084
0.012334526,6085
0.011980674,6086
0.012855377,6087
0.013905166,6088
0.015794702,6089
0.016487572,6090
0.01583602,6091
0.014214149,6092
0.013650025,6093
0.01632657,6094
0.026956763,6095
0.040262647,6096
0.029478084,6097
0.02416441,6098
0.01866303,6099
0.016178159,6100
0.015735514,6101
0.016904937,6102
0.014172751,6103
0.01643213,6104
0.015653294,6105
0.014760085,6106
0.015729267,6107
0.014508194,6108
0.014781272,6109
0.0125180045,6110
0.012291414,6111
0.023283742,6112
0.029871715,6113
0.029228838,6114
0.025204407,6115
0.02617738,6116
0.023653653,6117
0.024826689,6118
0.021867957,6119
0.021176409,6120
0.01553754,6121
0.019086473,6122
0.018780198,6123
0.025537912,6124
0.028016282,6125
0.027017266,6126
0.025636336,6127
0.023660947,6128
0.022473646,6129
0.018141815,6130
0.020631174,6131
0.03177393,6132
0.031620145,6133
0.029409181,6134
0.031000258,6135
0.02572836,6136
0.025211956,6137
0.025102064,6138
0.023233742,6139
0.020618174,6140
0.018327275,6141
0.013926267,6142
0.015088599,6143
0.02686482,6144
0.031267155,6145
0.029045774,6146
0.031093393,6147
0.026230033,6148
0.025972188,6149
0.025979675,6150
0.019514503,6151
0.018172318,6152
0.016448798,6153
0.01708804,6154
0.018638087,6155
0.018231355,6156
0.017553978,6157
0.015948664,6158
0.01389394,6159
0.013570387,6160
0.011575508,6161
0.009709445,6162
0.008994929,6163
0.00898102,6164
0.008350685,6165
0.008705433,6166
0.0085368985,6167
0.007974562,6168
0.00797552,6169
0.008063504,6170
0.008051999,6171
0.0070700403,6172
0.007322345,6173
0.007494366,6174
0.0066790935,6175
0.009335706,6176
0.009621379,6177
0.009442118,6178
0.010672146,6179
0.008435418,6180
0.0093004415,6181
0.008037931,6182
0.0087536685,6183
0.008755655,6184
0.0083849905,6185
0.009483139,6186
0.009123022,6187
0.01020981,6188
0.008873449,6189
0.008379536,6190
0.008354111,6191
0.008442235,6192
0.009365695,6193
0.010644327,6194
0.009717943,6195
0.010958909,6196
0.009882154,6197
0.01001499,6198
0.010858577,6199
0.009776489,6200
0.010356993,6201
0.008977679,6202
0.008573266,6203
0.008624056,6204
0.008134802,6205
0.0064502065,6206
0.0061323177,6207
0.0049639214,6208
0.0041054,6209
0.004075624,6210
0.004168969,6211
0.004029604,6212
0.0043013413,6213
0.0032453393,6214
0.0031105254,6215
0.002781772,6216
0.0028326523,6217
0.002583578,6218
0.0031317906,6219
0.0033073074,6220
0.0026211317,6221
0.0026861462,6222
0.0023189473,6223
0.002289525,6224
0.0021663283,6225
0.002044426,6226
0.002158032,6227
0.0031770996,6228
0.0036030018,6229
0.0035428295,6230
0.0036672873,6231
0.003321914,6232
0.0037046517,6233
0.0038955444,6234
0.003942449,6235
0.0036753726,6236
0.0033060138,6237
0.0032923406,6238
0.0044693537,6239
0.003996087,6240
0.004673741,6241
0.004263585,6242
0.004511111,6243
0.0038854515,6244
0.0037006794,6245
0.0039631915,6246
0.004025842,6247
0.0036684605,6248
0.0034713636,6249
0.0035974025,6250
0.0066337558,6251
0.006979916,6252
0.0059933565,6253
0.005776361,6254
0.004356001,6255
0.005420722,6256
0.005547088,6257
0.0049788305,6258
0.005042762,6259
0.0046488564,6260
0.0036420247,6261
0.0036757598,6262
0.0035253947,6263
0.004083968,6264
0.0037191072,6265
0.0035918378,6266
0.0037936873,6267
0.0026910582,6268
0.0034194777,6269
0.003778942,6270
0.003924865,6271
0.0037751857,6272
0.0038202822,6273
0.0035954078,6274
0.0033155303,6275
0.003198892,6276
0.0033177643,6277
0.0030227639,6278
0.0029487729,6279
0.0025518877,6280
0.0024825223,6281
0.0021989774,6282
0.002389646,6283
0.0024662782,6284
0.0026295537,6285
0.0024539158,6286
0.003891118,6287
0.008444485,6288
0.009312416,6289
0.009884575,6290
0.009422435,6291
0.009169693,6292
0.008483201,6293
0.009258647,6294
0.008471447,6295
0.0076511316,6296
0.006572537,6297
0.0059015057,6298
0.0053801485,6299
0.0050584935,6300
0.0044208188,6301
0.003929865,6302
0.0035483497,6303
0.0025347315,6304
0.0028822017,6305
0.0023395356,6306
0.0024012956,6307
0.0026031686,6308
0.0026947048,6309
0.0028409509,6310
0.0027071175,6311
0.0024732463,6312
0.0021426557,6313
0.0021695015,6314
0.0024477742,6315
0.0021475116,6316
0.0023347612,6317
0.0021068656,6318
0.0027282634,6319
0.003907015,6320
0.0035461462,6321
0.0032469004,6322
0.0029362643,6323
0.0029039616,6324
0.003358825,6325
0.003046679,6326
0.0030299502,6327
0.003060243,6328
0.0028701874,6329
0.003286358,6330
0.004055858,6331
0.00411337,6332
0.0045685587,6333
0.004655698,6334
0.00422818,6335
0.004012898,6336
0.0035170126,6337
0.0036351846,6338
0.0031119818,6339
0.0034096965,6340
0.004501858,6341
0.0035288811,6342
0.0036686535,6343
0.0036629,6344
0.003309514,6345
0.0031899083,6346
0.0029994338,6347
0.002920855,6348
0.0028318414,6349
0.0034053386,6350
0.0039727245,6351
0.0037626587,6352
0.004857901,6353
0.0043749963,6354
0.0042468607,6355
0.0042416006,6356
0.0038815099,6357
0.004112642,6358
0.003870398,6359
0.0031140787,6360
0.0030857779,6361
0.0087780105,6362
0.00855108,6363
0.006553854,6364
0.006025862,6365
0.0053979256,6366
0.0060022036,6367
0.005864672,6368
0.0049694064,6369
0.0054050307,6370
0.004825467,6371
0.00444214,6372
0.004406894,6373
0.0043836753,6374
0.0047884556,6375
0.004436841,6376
0.0043183663,6377
0.004528618,6378
0.0035996733,6379
0.0041626375,6380
0.00422798,6381
0.00437819,6382
0.0045850296,6383
0.00459213,6384
0.0042189234,6385
0.0036591575,6386
0.0038278897,6387
0.0035463097,6388
0.0039953436,6389
0.003694267,6390
0.0037693367,6391
0.0035233456,6392
0.0037280137,6393
0.0032904083,6394
0.0034598545,6395
0.003332662,6396
0.003174617,6397
0.0035456251,6398
0.003233686,6399
0.002546695,6400
0.00281264,6401
0.0027032204,6402
0.0026622082,6403
0.0028058593,6404
0.0029882477,6405
0.0030264284,6406
0.0027061412,6407
0.0025958351,6408
0.0028723332,6409
0.0025367145,6410
0.0026858002,6411
0.0024878068,6412
0.0025371711,6413
0.0024830457,6414
0.0026857469,6415
0.0022835329,6416
0.0024112174,6417
0.003569089,6418
0.0035304406,6419
0.0031542773,6420
0.0035527635,6421
0.0033490923,6422
0.0034326802,6423
0.0030691782,6424
0.0025077849,6425
0.0031373692,6426
0.0026835012,6427
0.0027211404,6428
0.0024870094,6429
0.0025958926,6430
0.0027463797,6431
0.0024655524,6432
0.0025632277,6433
0.0020386195,6434
0.0023665754,6435
0.0019889888,6436
0.0022129903,6437
0.001869398,6438
0.001666837,6439
0.0019531162,6440
0.0019976757,6441
0.0019257161,6442
0.0015057687,6443
0.0018483655,6444
0.0017567544,6445
0.001785237,6446
0.0017188317,6447
0.0017548581,6448
0.0017693413,6449
0.0017158141,6450
0.0017414687,6451
0.0016919775,6452
0.0016329244,6453
0.0015847471,6454
0.001797147,6455
0.0017004247,6456
0.0014218064,6457
0.0018359101,6458
0.0014724311,6459
0.0018574502,6460
0.0015523141,6461
0.0015597038,6462
0.0014840629,6463
0.0014702649,6464
0.0017398119,6465
0.0013701684,6466
0.0013928877,6467
0.0015896314,6468
0.0013411867,6469
0.0014024981,6470
0.00124715,6471
0.0013417086,6472
0.0012795314,6473
0.0015849381,6474
0.005921655,6475
0.009785091,6476
0.009268653,6477
0.008458699,6478
0.0076297014,6479
0.005811902,6480
0.004561804,6481
0.0033104082,6482
0.0031697578,6483
0.0031247945,6484
0.0026110054,6485
0.0025237596,6486
0.0026499217,6487
0.0024280515,6488
0.0020812855,6489
0.0015700193,6490
0.0016338989,6491
0.0015283893,6492
0.0016092556,6493
0.0018041311,6494
0.0017951509,6495
0.0018214872,6496
0.0017428141,6497
0.0018141193,6498
0.002019153,6499
0.0018840844,6500
0.0018535331,6501
0.0019098712,6502
0.0018723453,6503
0.0042283693,6504
0.0043854197,6505
0.004353377,6506
0.0035655869,6507
0.003007927,6508
0.0035652313,6509
0.002906778,6510
0.0028903612,6511
0.0032129046,6512
0.003259666,6513
0.0029327308,6514
0.002959948,6515
0.0027944157,6516
0.0028373916,6517
0.002668889,6518
0.0060677323,6519
0.014051194,6520
0.015533781,6521
0.013588812,6522
0.011423865,6523
0.008799718,6524
0.0073777353,6525
0.005262485,6526
0.004782059,6527
0.0048606456,6528
0.005066153,6529
0.0055131866,6530
0.0058902446,6531
0.006145793,6532
0.005495766,6533
0.0058964565,6534
0.005578192,6535
0.0056666387,6536
0.0054046633,6537
0.00542735,6538
0.0056405966,6539
0.005663507,6540
0.00653764,6541
0.007305689,6542
0.008443075,6543
0.008454782,6544
0.008010357,6545
0.008537464,6546
0.00740665,6547
0.006230971,6548
0.0067139864,6549
0.0058285138,6550
0.0055869846,6551
0.0053033037,6552
0.0062894975,6553
0.0054081953,6554
0.005935403,6555
0.006143035,6556
0.0054372386,6557
0.0052257185,6558
0.0045828726,6559
0.005461951,6560
0.004448439,6561
0.0048475596,6562
0.0038233278,6563
0.008170879,6564
0.009371024,6565
0.009968498,6566
0.009737813,6567
0.010045928,6568
0.008950393,6569
0.007416176,6570
0.007364912,6571
0.007366449,6572
0.006548843,6573
0.005718083,6574
0.005779368,6575
0.0050709005,6576
0.004365662,6577
0.0042125946,6578
0.004666164,6579
0.0041959775,6580
0.0041389205,6581
0.004119867,6582
0.0034886533,6583
0.0025666128,6584
0.002411246,6585
0.0025450408,6586
0.0024366318,6587
0.0027100022,6588
0.003294406,6589
0.0049463413,6590
0.004204988,6591
0.004237652,6592
0.0044110753,6593
0.0041915267,6594
0.003994477,6595
0.0039265123,6596
0.003906574,6597
0.0039706323,6598
0.0040530344,6599
0.0044634575,6600
0.004244873,6601
0.0044183885,6602
0.0040363455,6603
0.0037826106,6604
0.004078276,6605
0.0035327713,6606
0.0034515234,6607
0.0036204227,6608
0.003607933,6609
0.003413995,6610
0.0035255728,6611
0.0041749463,6612
0.0035928313,6613
0.0035831272,6614
0.0039165546,6615
0.0039376537,6616
0.003928755,6617
0.0038348306,6618
0.0041016373,6619
0.0039060623,6620
0.003732216,6621
0.0033176607,6622
0.0027794645,6623
0.0028527512,6624
0.0028069916,6625
0.002757313,6626
0.0025361946,6627
0.0030666245,6628
0.0028873512,6629
0.0024457623,6630
0.003011806,6631
0.0026630654,6632
0.002516276,6633
0.0025292593,6634
0.0025283063,6635
0.0026720776,6636
0.0024114368,6637
0.0030201473,6638
0.0026809247,6639
0.002570872,6640
0.0024477264,6641
0.0022789862,6642
0.002116213,6643
0.0043985187,6644
0.008627934,6645
0.009423952,6646
0.008470328,6647
0.0074873883,6648
0.006623262,6649
0.0053042336,6650
0.0039740554,6651
0.0036733444,6652
0.0034052222,6653
0.003127823,6654
0.002682232,6655
0.0026266356,6656
0.0024036092,6657
0.0022543138,6658
0.0016597627,6659
0.001669416,6660
0.0016632628,6661
0.0018706607,6662
0.0022355255,6663
0.0021645848,6664
0.0020873712,6665
0.002215933,6666
0.0058498583,6667
0.005981923,6668
0.005068525,6669
0.0043201316,6670
0.0035434545,6671
0.00430285,6672
0.004278752,6673
0.004256332,6674
0.0042730714,6675
0.0045533124,6676
0.0040695993,6677
0.0037396862,6678
0.0037891725,6679
0.0047007487,6680
0.013456811,6681
0.016705438,6682
0.015603244,6683
0.015226109,6684
0.013828791,6685
0.011748749,6686
0.0094890045,6687
0.0069234427,6688
0.0077173808,6689
0.007952817,6690
0.0075936094,6691
0.008080317,6692
0.0077671013,6693
0.0066078436,6694
0.0067412225,6695
0.0061211004,6696
0.005618361,6697
0.0058153737,6698
0.006451445,6699
0.0067289504,6700
0.008910925,6701
0.010948136,6702
0.0131744575,6703
0.012746529,6704
0.013538001,6705
0.012903341,6706
0.012784624,6707
0.013141873,6708
0.013759144,6709
0.013519695,6710
0.013665231,6711
0.012174736,6712
0.012219566,6713
0.012698831,6714
0.01182671,6715
0.01051725,6716
0.011025509,6717
0.00935156,6718
0.009326462,6719
0.009286488,6720
0.008015819,6721
0.008391106,6722
0.007764501,6723
0.0073362575,6724
0.0089126555,6725
0.0059489636,6726
0.0068233213,6727
0.0056746514,6728
0.0058587305,6729
0.007608884,6730
0.006622395,6731
0.00552595,6732
0.0057206405,6733
0.004954412,6734
0.005762231,6735
0.005035949,6736
0.0049453713,6737
0.0049437294,6738
0.0036923252,6739
0.0043400163,6740
0.0053433985,6741
0.005130928,6742
0.004924832,6743
0.0048922203,6744
0.0040969606,6745
0.004239849,6746
0.0037155563,6747
0.004140925,6748
0.0036560483,6749
0.0036186166,6750
0.0032477954,6751
0.0044072825,6752
0.0039997413,6753
0.0044114585,6754
0.004688378,6755
0.0050342623,6756
0.004669843,6757
0.0045534535,6758
0.0043425434,6759
0.0044373856,6760
0.0049830624,6761
0.004785592,6762
0.005477351,6763
0.0050193504,6764
0.004176312,6765
0.004611968,6766
0.004232715,6767
0.004878103,6768
0.0048589436,6769
0.0039940123,6770
0.00477341,6771
0.004255158,6772
0.0037994336,6773
0.0037728832,6774
0.0044564637,6775
0.0039159283,6776
0.0042035473,6777
0.0045470274,6778
0.004189637,6779
0.0056019095,6780
0.0061065354,6781
0.005767163,6782
0.005415932,6783
0.00551695,6784
0.0058240136,6785
0.0057107327,6786
0.005023529,6787
0.004613506,6788
0.004581859,6789
0.00459568,6790
0.0043359105,6791
0.0050144843,6792
0.015250528,6793
0.035529144,6794
0.03227035,6795
0.030267147,6796
0.029863855,6797
0.028107915,6798
0.029274033,6799
0.026398135,6800
0.023996973,6801
0.022071563,6802
0.019070197,6803
0.01721116,6804
0.01480074,6805
0.014163332,6806
0.012934289,6807
0.01241149,6808
0.01322458,6809
0.012758273,6810
0.011424171,6811
0.011171313,6812
0.009592007,6813
0.0077443365,6814
0.00783858,6815
0.0071496107,6816
0.00747693,6817
0.007714476,6818
0.00847818,6819
0.0067351926,6820
0.0061881673,6821
0.005908176,6822
0.005918866,6823
0.006002244,6824
0.0058503393,6825
0.0050910106,6826
0.004741925,6827
0.006275447,6828
0.006759331,6829
0.0077623185,6830
0.0069920947,6831
0.0069096787,6832
0.0072214846,6833
0.0066641187,6834
0.0077578477,6835
0.0062955525,6836
0.0059338463,6837
0.007575017,6838
0.007776719,6839
0.008452268,6840
0.009024066,6841
0.007364058,6842
0.008521977,6843
0.0070261876,6844
0.0070688766,6845
0.0074564638,6846
0.006315981,6847
0.007847401,6848
0.007059661,6849
0.00794674,6850
0.0083129695,6851
0.007915556,6852
0.00836803,6853
0.006257836,6854
0.007815481,6855
0.0074322913,6856
0.0066405223,6857
0.007832226,6858
0.0061862995,6859
0.0075539467,6860
0.006410723,6861
0.0062032184,6862
0.006605982,6863
0.005818469,6864
0.006094627,6865
0.005636545,6866
0.006715066,6867
0.0067827124,6868
0.018888725,6869
0.030364912,6870
0.030763486,6871
0.024786798,6872
0.021523258,6873
0.019408084,6874
0.019241218,6875
0.020538956,6876
0.017708251,6877
0.01653304,6878
0.015496408,6879
0.015774172,6880
0.015723407,6881
0.01539049,6882
0.013783387,6883
0.011936662,6884
0.0120037515,6885
0.009662582,6886
0.008133833,6887
0.0089042755,6888
0.009177243,6889
0.0084322365,6890
0.009242622,6891
0.008028708,6892
0.0076066586,6893
0.0070033614,6894
0.0067707417,6895
0.0074827075,6896
0.0071560936,6897
0.0076376833,6898
0.007536903,6899
0.00869283,6900
0.008308046,6901
0.008127372,6902
0.007366422,6903
0.007890846,6904
0.008230619,6905
0.0068989443,6906
0.007499489,6907
0.0071067703,6908
0.0068225916,6909
0.0105086565,6910
0.010800898,6911
0.011940148,6912
0.010735324,6913
0.010751831,6914
0.009377754,6915
0.009137227,6916
0.00928398,6917
0.009121886,6918
0.010167085,6919
0.012248839,6920
0.012208749,6921
0.01021855,6922
0.009827309,6923
0.007981113,6924
0.009085018,6925
0.008987476,6926
0.008991771,6927
0.009078962,6928
0.012443922,6929
0.017839145,6930
0.019653177,6931
0.017986376,6932
0.015506779,6933
0.013819911,6934
0.01306902,6935
0.013064656,6936
0.011870043,6937
0.01175125,6938
0.01613956,6939
0.02171388,6940
0.025933882,6941
0.031945445,6942
0.04339597,6943
0.0483175,6944
0.04506328,6945
0.04410319,6946
0.041261714,6947
0.040910725,6948
0.035360724,6949
0.030502446,6950
0.027893802,6951
0.026272228,6952
0.026803536,6953
0.027079873,6954
0.027896425,6955
0.024630962,6956
0.02189663,6957
0.020332118,6958
0.018999787,6959
0.017003996,6960
0.014259937,6961
0.015538854,6962
0.015266789,6963
0.015214641,6964
0.014561747,6965
0.0135590695,6966
0.013576009,6967
0.012641929,6968
0.013129477,6969
0.014729009,6970
0.01434004,6971
0.015375716,6972
0.014898629,6973
0.014300422,6974
0.013858564,6975
0.012549771,6976
0.012427537,6977
0.012068014,6978
0.013356155,6979
0.016198533,6980
0.01502522,6981
0.014033893,6982
0.014601256,6983
0.014612333,6984
0.014576667,6985
0.012644071,6986
0.012100913,6987
0.014177676,6988
0.015579493,6989
0.017648676,6990
0.016321722,6991
0.01616805,6992
0.015480067,6993
0.014393166,6994
0.015134333,6995
0.015685031,6996
0.022580968,6997
0.02450462,6998
0.023899548,6999
0.021783412,7000
0.02226303,7001
0.02131099,7002
0.02188953,7003
0.020822112,7004
0.02957587,7005
0.053248797,7006
0.06054998,7007
0.060913157,7008
0.05183149,7009
0.046159547,7010
0.046885055,7011
0.044850502,7012
0.041361924,7013
0.04326994,7014
0.03506031,7015
0.030750528,7016
0.026837962,7017
0.023195446,7018
0.024045067,7019
0.021377806,7020
0.021132858,7021
0.020036312,7022
0.019603817,7023
0.019362232,7024
0.020522699,7025
0.018716417,7026
0.018841581,7027
0.02170341,7028
0.021317014,7029
0.019727845,7030
0.020223688,7031
0.017342303,7032
0.018645931,7033
0.016447062,7034
0.017148113,7035
0.018390354,7036
0.018220792,7037
0.016944155,7038
0.016935134,7039
0.017053433,7040
0.017009916,7041
0.017764326,7042
0.017899847,7043
0.017475586,7044
0.027195664,7045
0.02460724,7046
0.026549773,7047
0.024570111,7048
0.024481496,7049
0.022247907,7050
0.021461897,7051
0.018648066,7052
0.024407873,7053
0.027986879,7054
0.028719584,7055
0.028334307,7056
0.027491279,7057
0.027572867,7058
0.027925067,7059
0.027381508,7060
0.02537017,7061
0.026701322,7062
0.025379496,7063
0.031982653,7064
0.04896961,7065
0.059784647,7066
0.043702517,7067
0.04376841,7068
0.031856917,7069
0.02091981,7070
0.025112078,7071
0.021486592,7072
0.015033087,7073
0.015042802,7074
0.014889437,7075
0.013402366,7076
0.013745263,7077
0.014377215,7078
0.01841939,7079
0.01701326,7080
0.01586577,7081
0.0143774785,7082
0.014965666,7083
0.014207601,7084
0.013569583,7085
0.014126959,7086
0.013748143,7087
0.011171009,7088
0.012627891,7089
0.022710185,7090
0.04962486,7091
0.051543266,7092
0.052156907,7093
0.046647213,7094
0.04529985,7095
0.04031997,7096
0.043290455,7097
0.040982623,7098
0.037169274,7099
0.03150844,7100
0.030321112,7101
0.0256035,7102
0.02368676,7103
0.04065464,7104
0.04918161,7105
0.03933421,7106
0.038049374,7107
0.03378834,7108
0.031761967,7109
0.026189331,7110
0.029659342,7111
0.019898146,7112
0.03729482,7113
0.06368105,7114
0.0744276,7115
0.066784546,7116
0.05217168,7117
0.045359336,7118
0.0391491,7119
0.041084934,7120
0.064564124,7121
0.093264215,7122
0.09132639,7123
0.09266891,7124
0.07333343,7125
0.05765522,7126
0.04948245,7127
0.04664147,7128
0.035071015,7129
0.03900914,7130
0.07321299,7131
0.06626715,7132
0.05861788,7133
0.047498263,7134
0.037290916,7135
0.030994998,7136
0.041959886,7137
0.034332253,7138
0.024737172,7139
0.027420448,7140
0.02234778,7141
0.02182234,7142
0.022117892,7143
0.020935303,7144
0.019947698,7145
0.02083404,7146
0.020208843,7147
0.015538669,7148
0.014471355,7149
0.014169302,7150
0.013496718,7151
0.019563995,7152
0.046690375,7153
0.054110557,7154
0.056759756,7155
0.0556394,7156
0.055895787,7157
0.050977338,7158
0.04965893,7159
0.03973515,7160
0.035055447,7161
0.030509802,7162
0.030012123,7163
0.03206955,7164
0.035705164,7165
0.037211508,7166
0.031245615,7167
0.029219264,7168
0.022450915,7169
0.032425668,7170
0.063819475,7171
0.08701441,7172
0.083407946,7173
0.06776732,7174
0.054558117,7175
0.04681748,7176
0.04661172,7177
0.04132026,7178
0.04334639,7179
0.051727537,7180
0.050854895,7181
0.04925777,7182
0.038565703,7183
0.033038635,7184
0.03364686,7185
0.030988386,7186
0.027306242,7187
0.026423575,7188
0.024434112,7189
0.024626175,7190
0.026850158,7191
0.025775082,7192
0.022578867,7193
0.021188416,7194
0.018580666,7195
0.020149918,7196
0.018419826,7197
0.017860783,7198
0.015730953,7199
0.017542437,7200
0.022505436,7201
0.0244154,7202
0.02479153,7203
0.022616528,7204
0.019662602,7205
0.019936355,7206
0.019885302,7207
0.01904608,7208
0.019161008,7209
0.017011605,7210
0.051141538,7211
0.074932456,7212
0.07549005,7213
0.060275353,7214
0.050214343,7215
0.036320493,7216
0.029273499,7217
0.036986727,7218
0.028884033,7219
0.030483682,7220
0.028568568,7221
0.025221715,7222
0.024532003,7223
0.025088945,7224
0.023183882,7225
0.021021046,7226
0.032731768,7227
0.06229646,7228
0.07264907,7229
0.068999946,7230
0.054378588,7231
0.051181715,7232
0.043753993,7233
0.043629706,7234
0.04330978,7235
0.04618473,7236
0.051349953,7237
0.05884013,7238
0.065003864,7239
0.05504748,7240
0.045289677,7241
0.038944114,7242
0.03454899,7243
0.029744739,7244
0.031625766,7245
0.029815925,7246
0.04499823,7247
0.050574303,7248
0.036896743,7249
0.042946965,7250
0.03674156,7251
0.040853314,7252
0.031983156,7253
0.038166527,7254
0.027164096,7255
0.030361528,7256
0.022350775,7257
0.033204824,7258
0.032518193,7259
0.026720323,7260
0.025711179,7261
0.028046079,7262
0.029500796,7263
0.030838292,7264
0.02780678,7265
0.024500014,7266
0.023034738,7267
0.021507468,7268
0.018395567,7269
0.018252768,7270
0.016342882,7271
0.015287404,7272
0.012559655,7273
0.014558245,7274
0.016251668,7275
0.017252654,7276
0.017680129,7277
0.01582085,7278
0.0119116865,7279
0.022481026,7280
0.031835523,7281
0.029262522,7282
0.024047138,7283
0.020818008,7284
0.01774839,7285
0.017511554,7286
0.019424686,7287
0.018138641,7288
0.011350647,7289
0.014291914,7290
0.01243316,7291
0.011914028,7292
0.011403298,7293
0.01141259,7294
0.011244184,7295
0.010469119,7296
0.01170858,7297
0.010902752,7298
0.011035755,7299
0.01778679,7300
0.021625761,7301
0.016873002,7302
0.01827798,7303
0.014098818,7304
0.016133072,7305
0.012381068,7306
0.016068287,7307
0.012337621,7308
0.015037584,7309
0.009361153,7310
0.014901286,7311
0.014942869,7312
0.021720272,7313
0.022815427,7314
0.022919465,7315
0.023396578,7316
0.021571912,7317
0.020212347,7318
0.017045703,7319
0.021688072,7320
0.028320618,7321
0.033186644,7322
0.033287242,7323
0.030165354,7324
0.029160896,7325
0.026488742,7326
0.027522204,7327
0.024099747,7328
0.022321334,7329
0.0212275,7330
0.019112255,7331
0.019519582,7332
0.012218039,7333
0.010526485,7334
0.008762528,7335
0.010257177,7336
0.010187035,7337
0.009396962,7338
0.008453127,7339
0.009090154,7340
0.008678397,7341
0.0073064463,7342
0.007311081,7343
0.006407417,7344
0.007265509,7345
0.0073255417,7346
0.0067536575,7347
0.0067631714,7348
0.006098501,7349
0.0061088726,7350
0.0055316654,7351
0.004741367,7352
0.0045895213,7353
0.0050313165,7354
0.004027305,7355
0.004377744,7356
0.0035481006,7357
0.00395116,7358
0.0051597957,7359
0.0045053414,7360
0.005174847,7361
0.0051778774,7362
0.005249265,7363
0.0052720373,7364
0.004592832,7365
0.0044280174,7366
0.0046168077,7367
0.0046287905,7368
0.004726416,7369
0.0051157004,7370
0.0040623373,7371
0.0044321115,7372
0.004583261,7373
0.004923931,7374
0.004170366,7375
0.004921915,7376
0.0045318794,7377
0.005276237,7378
0.0049098046,7379
0.004912613,7380
0.00495405,7381
0.00516893,7382
0.005248393,7383
0.0049673207,7384
0.0048484285,7385
0.005226599,7386
0.006411022,7387
0.006452527,7388
0.0064804596,7389
0.0066425554,7390
0.006075014,7391
0.0061692707,7392
0.0057787853,7393
0.005021599,7394
0.005105275,7395
0.004982439,7396
0.0060512885,7397
0.0054604113,7398
0.0048460746,7399
0.0046230475,7400
0.003531785,7401
0.004115753,7402
0.004429965,7403
0.0036505018,7404
0.004485715,7405
0.00346606,7406
0.0030960168,7407
0.0028583999,7408
0.002951061,7409
0.0031363335,7410
0.003104699,7411
0.0034429322,7412
0.002663695,7413
0.0029679455,7414
0.002288652,7415
0.0026535685,7416
0.0022228267,7417
0.0024932786,7418
0.00304382,7419
0.0032386482,7420
0.0037552866,7421
0.0031806792,7422
0.003480356,7423
0.0034566205,7424
0.0038619936,7425
0.0037860048,7426
0.0037559841,7427
0.0035605847,7428
0.0029623439,7429
0.003661631,7430
0.0045405226,7431
0.0037733973,7432
0.004281134,7433
0.0037619853,7434
0.0036857352,7435
0.0036417043,7436
0.0037938212,7437
0.003697732,7438
0.003626634,7439
0.004020058,7440
0.0073901913,7441
0.006408142,7442
0.0064036185,7443
0.0056207567,7444
0.004651672,7445
0.00550641,7446
0.005122827,7447
0.0047815535,7448
0.004576171,7449
0.004338397,7450
0.0038770158,7451
0.0036455737,7452
0.0040481966,7453
0.0042063226,7454
0.0036306232,7455
0.0040093902,7456
0.0036850818,7457
0.00285636,7458
0.0035908015,7459
0.003786941,7460
0.0041963416,7461
0.004507353,7462
0.004106353,7463
0.0037427912,7464
0.0037313907,7465
0.0040020584,7466
0.0037320608,7467
0.0037308743,7468
0.0036873596,7469
0.0029375681,7470
0.0026900417,7471
0.002931539,7472
0.0027450598,7473
0.0028008737,7474
0.0029615075,7475
0.0032337888,7476
0.0029879129,7477
0.0024090358,7478
0.0023107855,7479
0.0023214298,7480
0.0021784331,7481
0.0020351403,7482
0.0023448507,7483
0.0021670116,7484
0.0019517622,7485
0.0036954556,7486
0.011855019,7487
0.015052972,7488
0.01512443,7489
0.013621783,7490
0.013067384,7491
0.012348058,7492
0.012815774,7493
0.012337605,7494
0.01234926,7495
0.010499969,7496
0.009744502,7497
0.008371065,7498
0.007217304,7499
0.006594476,7500
0.006504141,7501
0.0057268487,7502
0.004297074,7503
0.0038491613,7504
0.002894388,7505
0.0026771831,7506
0.0024084265,7507
0.0023755596,7508
0.001843621,7509
0.0024537528,7510
0.0022628566,7511
0.002323518,7512
0.0022177373,7513
0.001845118,7514
0.0019764309,7515
0.0017375421,7516
0.0015827463,7517
0.0018279683,7518
0.0015307365,7519
0.0017168242,7520
0.0018269339,7521
0.0022506565,7522
0.002436164,7523
0.0022392927,7524
0.0024237342,7525
0.002578918,7526
0.002584875,7527
0.0022702967,7528
0.00239754,7529
0.0019391037,7530
0.0016940621,7531
0.0026200295,7532
0.0037309192,7533
0.0040842984,7534
0.0040035807,7535
0.004105059,7536
0.0038624068,7537
0.0033974203,7538
0.0033304708,7539
0.00361944,7540
0.0034134185,7541
0.003607935,7542
0.003580702,7543
0.0034488165,7544
0.0034951265,7545
0.0032715015,7546
0.0031826287,7547
0.002933727,7548
0.0029748601,7549
0.0028027412,7550
0.003007816,7551
0.0034023398,7552
0.0035283163,7553
0.0043389676,7554
0.0038205897,7555
0.0037732227,7556
0.0035708852,7557
0.0032279594,7558
0.0037011947,7559
0.0030971577,7560
0.0028947967,7561
0.002462942,7562
0.0059632785,7563
0.006646523,7564
0.0067028506,7565
0.0055696783,7566
0.0042059077,7567
0.0037683863,7568
0.004997795,7569
0.0044610063,7570
0.004723628,7571
0.004055067,7572
0.0034342853,7573
0.0035743038,7574
0.0033626517,7575
0.003460186,7576
0.0032438713,7577
0.003651695,7578
0.0038945938,7579
0.0034962154,7580
0.0031386842,7581
0.0030871478,7582
0.0031054053,7583
0.0031894948,7584
0.0030566442,7585
0.003043563,7586
0.0027501232,7587
0.0026518356,7588
0.0031326746,7589
0.0027885418,7590
0.0028469237,7591
0.002610688,7592
0.0027327007,7593
0.0028350493,7594
0.0026779005,7595
0.0025252015,7596
0.0026074706,7597
0.002389727,7598
0.002429091,7599
0.0023996073,7600
0.002057094,7601
0.0027732635,7602
0.0037363353,7603
0.0032028921,7604
0.003691075,7605
0.003005563,7606
0.0033397507,7607
0.0033789936,7608
0.0027761376,7609
0.0033497738,7610
0.0026671758,7611
0.0030053374,7612
0.002450933,7613
0.0030749394,7614
0.002404182,7615
0.002712859,7616
0.0024361575,7617
0.0023549541,7618
0.0027415925,7619
0.0025278698,7620
0.002312794,7621
0.0025515344,7622
0.002516546,7623
0.0024915726,7624
0.0021272684,7625
0.0023063642,7626
0.0022725216,7627
0.0021943266,7628
0.0021804878,7629
0.0019261902,7630
0.0022151656,7631
0.0019597686,7632
0.0021205503,7633
0.0016119893,7634
0.0021184015,7635
0.0020182605,7636
0.002028019,7637
0.002227053,7638
0.0018418119,7639
0.0022683367,7640
0.001572591,7641
0.0020622527,7642
0.0014556074,7643
0.0017598448,7644
0.0014605181,7645
0.0015457716,7646
0.0014827588,7647
0.0014012444,7648
0.0015889686,7649
0.0012273586,7650
0.0017375586,7651
0.0010510052,7652
0.0014254078,7653
0.0013067767,7654
0.0012415745,7655
0.0013359212,7656
0.0012809625,7657
0.0012330062,7658
0.0010020286,7659
0.001307693,7660
0.0013406526,7661
0.0013898567,7662
0.0017044361,7663
0.0017528828,7664
0.0033006177,7665
0.007072901,7666
0.0078058066,7667
0.0067853387,7668
0.0059083323,7669
0.0050413883,7670
0.0035512864,7671
0.0027936164,7672
0.002528422,7673
0.0025230674,7674
0.002522989,7675
0.002309615,7676
0.0025118378,7677
0.002901526,7678
0.0025851128,7679
0.0021198613,7680
0.0017808052,7681
0.0017394824,7682
0.001690636,7683
0.0017078943,7684
0.0016075015,7685
0.0015913018,7686
0.0015495572,7687
0.001360674,7688
0.0012484671,7689
0.002188635,7690
0.0056116898,7691
0.0050147455,7692
0.0042250548,7693
0.0027463979,7694
0.0030255765,7695
0.0035058286,7696
0.0034561544,7697
0.003816613,7698
0.0039788056,7699
0.0041881683,7700
0.003981055,7701
0.0034334315,7702
0.002916647,7703
0.002752446,7704
0.006818289,7705
0.012570744,7706
0.014106174,7707
0.012556894,7708
0.012020663,7709
0.01074508,7710
0.009115214,7711
0.00696924,7712
0.006988517,7713
0.006110641,7714
0.0063295327,7715
0.006060033,7716
0.006296358,7717
0.0057717483,7718
0.0055445973,7719
0.005145801,7720
0.0047657844,7721
0.004778674,7722
0.0041487603,7723
0.004657167,7724
0.0053692064,7725
0.008691648,7726
0.011417183,7727
0.011694375,7728
0.012128863,7729
0.012157795,7730
0.011560171,7731
0.012623623,7732
0.013857626,7733
0.013216226,7734
0.01304286,7735
0.013139237,7736
0.012133044,7737
0.012610708,7738
0.012181431,7739
0.011517718,7740
0.011397492,7741
0.010849484,7742
0.010337139,7743
0.009851003,7744
0.009368395,7745
0.008300411,7746
0.008070133,7747
0.0070920503,7748
0.0059879855,7749
0.00927754,7750
0.011468931,7751
0.011760453,7752
0.011305928,7753
0.01100969,7754
0.010461993,7755
0.009265739,7756
0.008362337,7757
0.007776348,7758
0.007173777,7759
0.0059837434,7760
0.0057322234,7761
0.0052877376,7762
0.004655874,7763
0.0041467366,7764
0.004501546,7765
0.004276975,7766
0.0038168568,7767
0.0034202836,7768
0.0026135158,7769
0.0023456488,7770
0.001947919,7771
0.0018403993,7772
0.0020489383,7773
0.0023682688,7774
0.0024370197,7775
0.003583823,7776
0.003262676,7777
0.0032485574,7778
0.003359084,7779
0.003430724,7780
0.0033799198,7781
0.0027608625,7782
0.0031096712,7783
0.0028758,7784
0.0047064824,7785
0.0065678065,7786
0.006111477,7787
0.0061880895,7788
0.0069330325,7789
0.005933882,7790
0.005933736,7791
0.0058651716,7792
0.005680369,7793
0.005178349,7794
0.0046729166,7795
0.0049181697,7796
0.005015858,7797
0.00480614,7798
0.004494154,7799
0.0040915087,7800
0.0041854274,7801
0.0041817734,7802
0.004043319,7803
0.004407118,7804
0.004227447,7805
0.0041846503,7806
0.0044719116,7807
0.004185752,7808
0.0038983915,7809
0.0037737447,7810
0.0043307524,7811
0.0043414906,7812
0.0035989524,7813
0.003931575,7814
0.00367811,7815
0.003051124,7816
0.0031543353,7817
0.003320637,7818
0.0031373107,7819
0.0030174137,7820
0.0036705777,7821
0.0037318165,7822
0.0035615852,7823
0.003773805,7824
0.0063828877,7825
0.014835767,7826
0.015355734,7827
0.014077041,7828
0.012621847,7829
0.009714004,7830
0.0073609273,7831
0.005813049,7832
0.004886406,7833
0.0050266422,7834
0.0045035807,7835
0.0041562817,7836
0.0036523738,7837
0.0036972386,7838
0.0030071826,7839
0.0025192632,7840
0.002542705,7841
0.002751797,7842
0.002749083,7843
0.0029892952,7844
0.0031373352,7845
0.0047361786,7846
0.0072711837,7847
0.006275712,7848
0.0055316724,7849
0.005101978,7850
0.0041183103,7851
0.0048975786,7852
0.0051403046,7853
0.0050555053,7854
0.005881971,7855
0.0050622425,7856
0.0046900893,7857
0.004486959,7858
0.0038686825,7859
0.0036966365,7860
0.007673712,7861
0.013131813,7862
0.015297774,7863
0.012527231,7864
0.01184589,7865
0.0115219075,7866
0.010587979,7867
0.0102447,7868
0.008542879,7869
0.009017901,7870
0.009641617,7871
0.009711119,7872
0.0091444515,7873
0.009673764,7874
0.009482799,7875
0.00922303,7876
0.008890443,7877
0.008299604,7878
0.008580485,7879
0.008486586,7880
0.00830079,7881
0.007749208,7882
0.013398787,7883
0.018942954,7884
0.019661037,7885
0.018377924,7886
0.019212728,7887
0.017345607,7888
0.018582273,7889
0.019521177,7890
0.019930637,7891
0.019332666,7892
0.019894594,7893
0.020000828,7894
0.01834202,7895
0.020328294,7896
0.017751487,7897
0.017422698,7898
0.017755244,7899
0.01690501,7900
0.015726805,7901
0.015796322,7902
0.015150883,7903
0.014690326,7904
0.014004681,7905
0.012682848,7906
0.013392699,7907
0.012071491,7908
0.011254392,7909
0.01699606,7910
0.02094443,7911
0.01811019,7912
0.017194724,7913
0.01648284,7914
0.015005684,7915
0.019067746,7916
0.017546365,7917
0.0154257575,7918
0.015981922,7919
0.015160152,7920
0.014978568,7921
0.013920787,7922
0.012195488,7923
0.012528531,7924
0.010815341,7925
0.010858184,7926
0.010962513,7927
0.0108787045,7928
0.010144869,7929
0.0092094075,7930
0.008096883,7931
0.007575333,7932
0.0069844206,7933
0.0060225106,7934
0.006449606,7935
0.0055609895,7936
0.0048461244,7937
0.0041889115,7938
0.0039643627,7939
0.0047538457,7940
0.006817869,7941
0.008341587,7942
0.008466673,7943
0.008462647,7944
0.008542646,7945
0.008293082,7946
0.00866663,7947
0.0077435733,7948
0.007388011,7949
0.008273519,7950
0.009426465,7951
0.0072042043,7952
0.008920321,7953
0.0077450797,7954
0.007128544,7955
0.008782273,7956
0.007788756,7957
0.007417733,7958
0.007725631,7959
0.006840718,7960
0.0071583088,7961
0.007207259,7962
0.005561388,7963
0.006394483,7964
0.0073891124,7965
0.006159379,7966
0.007213671,7967
0.006936965,7968
0.005764202,7969
0.008705004,7970
0.011328029,7971
0.011316825,7972
0.011608525,7973
0.010822775,7974
0.010454437,7975
0.009973411,7976
0.009618289,7977
0.009512869,7978
0.0141190775,7979
0.05430722,7980
0.058068123,7981
0.046776216,7982
0.04948107,7983
0.04588317,7984
0.043957103,7985
0.040358774,7986
0.037623156,7987
0.03457242,7988
0.031878818,7989
0.02860376,7990
0.027139064,7991
0.023099892,7992
0.01892431,7993
0.019720042,7994
0.019398103,7995
0.018312545,7996
0.018704945,7997
0.020299256,7998
0.017222427,7999
0.016012853,8000
0.013856451,8001
0.012292189,8002
0.012673609,8003
0.013702385,8004
0.016517663,8005
0.01684245,8006
0.016497895,8007
0.017090248,8008
0.017764216,8009
0.014859527,8010
0.013192499,8011
0.0129105225,8012
0.013690579,8013
0.018672505,8014
0.022242777,8015
0.021545716,8016
0.018119903,8017
0.017849337,8018
0.017922893,8019
0.01884433,8020
0.018547105,8021
0.016449245,8022
0.015868537,8023
0.023032442,8024
0.021816207,8025
0.023734022,8026
0.02186321,8027
0.023809168,8028
0.01939115,8029
0.019544845,8030
0.019807683,8031
0.01736117,8032
0.020817969,8033
0.023210963,8034
0.025750857,8035
0.02611854,8036
0.023576992,8037
0.023845142,8038
0.019448394,8039
0.020979136,8040
0.019404357,8041
0.017605312,8042
0.019495104,8043
0.018180538,8044
0.016157992,8045
0.015764935,8046
0.015599664,8047
0.018463334,8048
0.02273096,8049
0.054253884,8050
0.060116224,8051
0.051479407,8052
0.046544064,8053
0.04034364,8054
0.03691221,8055
0.040208336,8056
0.038576014,8057
0.03819151,8058
0.034935728,8059
0.034110487,8060
0.033313226,8061
0.031496517,8062
0.030770155,8063
0.026185345,8064
0.025791954,8065
0.02401144,8066
0.02339044,8067
0.019818401,8068
0.019661395,8069
0.019545356,8070
0.020131828,8071
0.017742062,8072
0.016340507,8073
0.015192108,8074
0.013750819,8075
0.01445472,8076
0.013323627,8077
0.012691798,8078
0.012938877,8079
0.0120537225,8080
0.012875626,8081
0.013196541,8082
0.013265946,8083
0.012933592,8084
0.011828346,8085
0.011527333,8086
0.015372686,8087
0.016391613,8088
0.017523022,8089
0.017192874,8090
0.014890687,8091
0.014645982,8092
0.012983935,8093
0.013957237,8094
0.01585734,8095
0.014433918,8096
0.016460529,8097
0.022765102,8098
0.022047713,8099
0.02356963,8100
0.019698849,8101
0.018393498,8102
0.018475555,8103
0.016875671,8104
0.01690445,8105
0.014862197,8106
0.0147110205,8107
0.015409994,8108
0.01652098,8109
0.017167415,8110
0.015133965,8111
0.015252177,8112
0.016082179,8113
0.015174395,8114
0.014448847,8115
0.013510757,8116
0.014362648,8117
0.014963443,8118
0.013415721,8119
0.012716629,8120
0.012543865,8121
0.013172745,8122
0.013007474,8123
0.014874545,8124
0.014352224,8125
0.014773415,8126
0.04917588,8127
0.08375189,8128
0.075492874,8129
0.06799198,8130
0.070763014,8131
0.06599896,8132
0.0633252,8133
0.05846286,8134
0.051701285,8135
0.05046422,8136
0.04657916,8137
0.039189998,8138
0.036566667,8139
0.034802236,8140
0.031540792,8141
0.02691922,8142
0.02831895,8143
0.03063665,8144
0.029455286,8145
0.027476303,8146
0.024372038,8147
0.024462253,8148
0.024781242,8149
0.023005791,8150
0.019157052,8151
0.01846774,8152
0.020592596,8153
0.019787876,8154
0.024412546,8155
0.022695977,8156
0.023573412,8157
0.024350096,8158
0.02298766,8159
0.022549339,8160
0.023445297,8161
0.021457195,8162
0.020211311,8163
0.020667333,8164
0.02402571,8165
0.025530709,8166
0.024155883,8167
0.023176469,8168
0.020922635,8169
0.018992547,8170
0.021789806,8171
0.021059847,8172
0.021554798,8173
0.037673,8174
0.045655336,8175
0.05030506,8176
0.050605062,8177
0.048115145,8178
0.049223732,8179
0.04560069,8180
0.04160133,8181
0.035170544,8182
0.031942077,8183
0.052289236,8184
0.062724926,8185
0.05516952,8186
0.05925066,8187
0.061161134,8188
0.048438363,8189
0.045161672,8190
0.04150024,8191
0.03991196,8192
0.033297047,8193
0.029883375,8194
0.034725253,8195
0.03773246,8196
0.05809151,8197
0.06127855,8198
0.058053978,8199
0.053799137,8200
0.05437557,8201
0.05167651,8202
0.045563277,8203
0.03785671,8204
0.03590024,8205
0.035777412,8206
0.039543297,8207
0.03577425,8208
0.03350948,8209
0.03717539,8210
0.0328063,8211
0.03294853,8212
0.031026628,8213
0.02869568,8214
0.030969208,8215
0.032730147,8216
0.029325666,8217
0.025965337,8218
0.027437607,8219
0.025429368,8220
0.026189948,8221
0.024705797,8222
0.022340236,8223
0.025702503,8224
0.02790962,8225
0.026793007,8226
0.0272947,8227
0.027055841,8228
0.027694149,8229
0.022348553,8230
0.024315208,8231
0.024040166,8232
0.041686177,8233
0.06282779,8234
0.056915548,8235
0.050977454,8236
0.041435454,8237
0.037676528,8238
0.035356414,8239
0.03712182,8240
0.031652726,8241
0.03022471,8242
0.030053895,8243
0.02862005,8244
0.028407935,8245
0.027096158,8246
0.025462002,8247
0.025165852,8248
0.023517396,8249
0.02199299,8250
0.021096895,8251
0.018469404,8252
0.015702074,8253
0.01721301,8254
0.025952987,8255
0.05724188,8256
0.07410801,8257
0.07487531,8258
0.060740262,8259
0.055009864,8260
0.044943985,8261
0.046292625,8262
0.046038486,8263
0.047795378,8264
0.05616504,8265
0.052449625,8266
0.04865934,8267
0.039192773,8268
0.032586575,8269
0.031282417,8270
0.026868088,8271
0.022643192,8272
0.023007987,8273
0.020752562,8274
0.017566182,8275
0.019904383,8276
0.01597777,8277
0.016472775,8278
0.015136044,8279
0.018602774,8280
0.018104192,8281
0.017250335,8282
0.016540822,8283
0.013442454,8284
0.014067153,8285
0.013640527,8286
0.013400066,8287
0.014138647,8288
0.012489756,8289
0.015657082,8290
0.050655942,8291
0.07316218,8292
0.06666124,8293
0.058045126,8294
0.04919034,8295
0.037163153,8296
0.03221934,8297
0.038440224,8298
0.025041224,8299
0.028209236,8300
0.024342012,8301
0.02033239,8302
0.020714229,8303
0.019338705,8304
0.04542741,8305
0.055748828,8306
0.05657329,8307
0.049208827,8308
0.04352974,8309
0.040734153,8310
0.03395331,8311
0.03705911,8312
0.03919953,8313
0.058304418,8314
0.08892454,8315
0.08590855,8316
0.076775774,8317
0.0625421,8318
0.048702937,8319
0.042846035,8320
0.044307474,8321
0.0333731,8322
0.03190234,8323
0.031396672,8324
0.052204106,8325
0.06451602,8326
0.06576683,8327
0.05659443,8328
0.04598381,8329
0.0459878,8330
0.04202449,8331
0.038553193,8332
0.040271357,8333
0.0470002,8334
0.045067567,8335
0.038020547,8336
0.034752116,8337
0.030588683,8338
0.031454645,8339
0.029382527,8340
0.024032691,8341
0.024824902,8342
0.02558333,8343
0.025777072,8344
0.024097981,8345
0.023687117,8346
0.024426136,8347
0.0243034,8348
0.02264759,8349
0.01937921,8350
0.020451162,8351
0.019320635,8352
0.018826546,8353
0.020856433,8354
0.021772094,8355
0.024125626,8356
0.024980305,8357
0.022537414,8358
0.020856196,8359
0.01863356,8360
0.021063622,8361
0.018417403,8362
0.01902139,8363
0.022307524,8364
0.023916101,8365
0.021174839,8366
0.019383661,8367
0.018119141,8368
0.018594055,8369
0.018449532,8370
0.017486349,8371
0.018819759,8372
0.022845449,8373
0.0221728,8374
0.02097633,8375
0.01945024,8376
0.016679391,8377
0.017830262,8378
0.017755691,8379
0.016161928,8380
0.015860425,8381
0.03614666,8382
0.06533175,8383
0.05742202,8384
0.053214103,8385
0.05670238,8386
0.056143142,8387
0.051895287,8388
0.04985287,8389
0.04125108,8390
0.037296996,8391
0.033834174,8392
0.033820458,8393
0.036404155,8394
0.03268976,8395
0.02958243,8396
0.028697921,8397
0.028106658,8398
0.030490516,8399
0.029970359,8400
0.028308062,8401
0.026973514,8402
0.02570988,8403
0.023559388,8404
0.02670952,8405
0.024427915,8406
0.02444554,8407
0.02362631,8408
0.020059315,8409
0.020150492,8410
0.021862559,8411
0.022266518,8412
0.02090076,8413
0.024860414,8414
0.026950113,8415
0.027720245,8416
0.027612109,8417
0.02737773,8418
0.027365515,8419
0.025648583,8420
0.02479303,8421
0.021771586,8422
0.022421474,8423
0.02260812,8424
0.023515744,8425
0.021575218,8426
0.023611322,8427
0.037193716,8428
0.038214307,8429
0.041709617,8430
0.040482767,8431
0.03859007,8432
0.038822617,8433
0.036194846,8434
0.032433413,8435
0.02544034,8436
0.024694655,8437
0.02520532,8438
0.026595712,8439
0.032578964,8440
0.05582114,8441
0.059798177,8442
0.053830467,8443
0.049073726,8444
0.039427817,8445
0.042849462,8446
0.042843513,8447
0.043149993,8448
0.04080594,8449
0.029267404,8450
0.02547211,8451
0.03470938,8452
0.042133257,8453
0.042307165,8454
0.040493425,8455
0.036032684,8456
0.032099593,8457
0.031197542,8458
0.03483143,8459
0.02900253,8460
0.021482123,8461
0.019898139,8462
0.023210468,8463
0.02480613,8464
0.024607472,8465
0.023429936,8466
0.022275472,8467
0.019692767,8468
0.02001517,8469
0.018764528,8470
0.027228782,8471
0.039976526,8472
0.04395939,8473
0.04251208,8474
0.043571234,8475
0.033991512,8476
0.027382875,8477
0.03303042,8478
0.032623366,8479
0.034827426,8480
0.029816812,8481
0.027528146,8482
0.028304938,8483
0.027060602,8484
0.02239512,8485
0.023094255,8486
0.03663315,8487
0.065208115,8488
0.061697315,8489
0.054904863,8490
0.05108571,8491
0.04224655,8492
0.04091269,8493
0.043573737,8494
0.03550889,8495
0.034495566,8496
0.033075467,8497
0.032137852,8498
0.034101017,8499
0.030979736,8500
0.029868519,8501
0.028355895,8502
0.027612142,8503
0.023658779,8504
0.022901738,8505
0.021322913,8506
0.01981676,8507
0.019587034,8508
0.024752822,8509
0.051732246,8510
0.06524974,8511
0.06731624,8512
0.05684973,8513
0.05221115,8514
0.04363749,8515
0.046847418,8516
0.045027953,8517
0.04778688,8518
0.056324806,8519
0.053207215,8520
0.048277654,8521
0.04056707,8522
0.031902164,8523
0.03176403,8524
0.027771713,8525
0.023311567,8526
0.02098875,8527
0.046419755,8528
0.06234096,8529
0.059561487,8530
0.052098107,8531
0.044290718,8532
0.03265767,8533
0.02957063,8534
0.03165021,8535
0.023128897,8536
0.023862198,8537
0.021792935,8538
0.019444453,8539
0.021127887,8540
0.043131348,8541
0.054470506,8542
0.057437975,8543
0.04944395,8544
0.044815056,8545
0.041731402,8546
0.042815536,8547
0.040103264,8548
0.04015814,8549
0.06305317,8550
0.0750758,8551
0.08177373,8552
0.06469197,8553
0.056612507,8554
0.04988431,8555
0.03900159,8556
0.04359862,8557
0.034448706,8558
0.03274911,8559
0.050169926,8560
0.06417905,8561
0.060072813,8562
0.05839972,8563
0.05253123,8564
0.04578416,8565
0.045557205,8566
0.045158926,8567
0.04779604,8568
0.08960102,8569
0.07910053,8570
0.078208014,8571
0.06595149,8572
0.047815867,8573
0.048427492,8574
0.044888828,8575
0.041867577,8576
0.03730849,8577
0.03543801,8578
0.0321741,8579
0.04301556,8580
0.055417158,8581
0.050746653,8582
0.044467315,8583
0.03784479,8584
0.03520937,8585
0.038386837,8586
0.034285128,8587
0.034204416,8588
0.03906824,8589
0.03208183,8590
0.033493016,8591
0.027794765,8592
0.024423314,8593
0.025905779,8594
0.023481114,8595
0.021625925,8596
0.019324793,8597
0.019204263,8598
0.019165713,8599
0.01755943,8600
0.01771605,8601
0.017680964,8602
0.016977876,8603
0.017398736,8604
0.016554834,8605
0.016088732,8606
0.015884914,8607
0.017012157,8608
0.019519594,8609
0.02093662,8610
0.021598244,8611
0.018619142,8612
0.018591328,8613
0.018213237,8614
0.017737051,8615
0.018799184,8616
0.016965622,8617
0.018431375,8618
0.019149622,8619
0.017449724,8620
0.017796459,8621
0.015752267,8622
0.01588498,8623
0.014051831,8624
0.014952455,8625
0.014674892,8626
0.020322775,8627
0.021200811,8628
0.021344684,8629
0.021581952,8630
0.019361649,8631
0.017927123,8632
0.019044338,8633
0.018458124,8634
0.018379305,8635
0.017295206,8636
0.017168412,8637
0.016828377,8638
0.05070267,8639
0.061288364,8640
0.048724722,8641
0.04727108,8642
0.039944936,8643
0.036851674,8644
0.036813408,8645
0.029289871,8646
0.03462205,8647
0.027420456,8648
0.026312087,8649
0.029360278,8650
0.031845197,8651
0.029031163,8652
0.022554869,8653
0.021415578,8654
0.01863337,8655
0.018336963,8656
0.016357962,8657
0.015456629,8658
0.016864032,8659
0.01712526,8660
0.01730908,8661
0.016942268,8662
0.01511846,8663
0.014981184,8664
0.015267454,8665
0.01451471,8666
0.015505892,8667
0.022439275,8668
0.025166413,8669
0.025036363,8670
0.020481018,8671
0.017327005,8672
0.014132348,8673
0.012645054,8674
0.01432388,8675
0.015719619,8676
0.021195512,8677
0.041421805,8678
0.056458388,8679
0.047477562,8680
0.034340754,8681
0.028239505,8682
0.019898871,8683
0.019856768,8684
0.020927783,8685
0.019210665,8686
0.020176396,8687
0.019403048,8688
0.022040721,8689
0.06483452,8690
0.06200267,8691
0.06374957,8692
0.05350257,8693
0.04960444,8694
0.042317215,8695
0.041342568,8696
0.03994254,8697
0.057018664,8698
0.083617255,8699
0.08463134,8700
0.07543203,8701
0.06544408,8702
0.057830527,8703
0.059363406,8704
0.056793105,8705
0.053293217,8706
0.06057657,8707
0.07519229,8708
0.07334111,8709
0.07339918,8710
0.065904655,8711
0.060936254,8712
0.05752253,8713
0.053576283,8714
0.04707524,8715
0.049015112,8716
0.043402836,8717
0.040286288,8718
0.034281556,8719
0.03201228,8720
0.03032142,8721
0.029257556,8722
0.024827069,8723
0.023677057,8724
0.021816524,8725
0.02287974,8726
0.021224987,8727
0.0182381,8728
0.020592738,8729
0.020016631,8730
0.018899368,8731
0.016749194,8732
0.014881986,8733
0.016582567,8734
0.016597448,8735
0.015776891,8736
0.014858903,8737
0.0139014255,8738
0.013705689,8739
0.014008154,8740
0.013032097,8741
0.019173348,8742
0.045627277,8743
0.056892842,8744
0.042631533,8745
0.039426252,8746
0.0328419,8747
0.030733919,8748
0.03112928,8749
0.029198194,8750
0.02021791,8751
0.02075089,8752
0.02698701,8753
0.024387214,8754
0.02796152,8755
0.02529489,8756
0.02565796,8757
0.022309622,8758
0.020946419,8759
0.02072469,8760
0.032407388,8761
0.054896437,8762
0.058881003,8763
0.052839927,8764
0.045281183,8765
0.03472469,8766
0.025631532,8767
0.028224457,8768
0.021406999,8769
0.023159735,8770
0.020444876,8771
0.01729934,8772
0.015884953,8773
0.014940474,8774
0.01457733,8775
0.013634844,8776
0.010791649,8777
0.011124704,8778
0.010441883,8779
0.008605559,8780
0.006897652,8781
0.007416243,8782
0.0073393714,8783
0.009405797,8784
0.0073895063,8785
0.009633849,8786
0.00926509,8787
0.00857397,8788
0.008600259,8789
0.0077544395,8790
0.007961146,8791
0.008647207,8792
0.008275164,8793
0.007905787,8794
0.008639612,8795
0.008869621,8796
0.009980609,8797
0.009004223,8798
0.00954077,8799
0.008189585,8800
0.009817107,8801
0.009281649,8802
0.010021677,8803
0.011080937,8804
0.012229705,8805
0.0137886135,8806
0.011997036,8807
0.011420986,8808
0.010356401,8809
0.010261168,8810
0.010191288,8811
0.009643278,8812
0.010119789,8813
0.011659147,8814
0.011030259,8815
0.01043595,8816
0.009966377,8817
0.009272091,8818
0.010695076,8819
0.009684704,8820
0.008787983,8821
0.007712013,8822
0.008506407,8823
0.015252996,8824
0.020146996,8825
0.022898031,8826
0.020839235,8827
0.018475369,8828
0.016481742,8829
0.01704219,8830
0.018050322,8831
0.01895675,8832
0.02193522,8833
0.021100543,8834
0.019065207,8835
0.017893923,8836
0.014993403,8837
0.0139800785,8838
0.012988456,8839
0.010493498,8840
0.009133274,8841
0.0071164374,8842
0.0063049905,8843
0.006002664,8844
0.0065640565,8845
0.0068658814,8846
0.0062818257,8847
0.0056191017,8848
0.005905529,8849
0.0062909084,8850
0.005678668,8851
0.0056187194,8852
0.0056944587,8853
0.0062434487,8854
0.0064359247,8855
0.0062964084,8856
0.0075679007,8857
0.007576435,8858
0.008345659,8859
0.007777662,8860
0.006899044,8861
0.0070354254,8862
0.006732716,8863
0.007162336,8864
0.0075995545,8865
0.007872386,8866
0.0074794795,8867
0.007568063,8868
0.0071104555,8869
0.006167483,8870
0.0063412916,8871
0.0059257117,8872
0.0055703106,8873
0.004857792,8874
0.0049140602,8875
0.005153078,8876
0.005067594,8877
0.005367101,8878
0.0050954185,8879
0.005255665,8880
0.0052765864,8881
0.0048685684,8882
0.00489332,8883
0.00491157,8884
0.004690224,8885
0.005173888,8886
0.004924394,8887
0.0042228606,8888
0.0049734362,8889
0.004421254,8890
0.004216616,8891
0.0043757386,8892
0.004219724,8893
0.0045517087,8894
0.004313383,8895
0.0065521365,8896
0.013084493,8897
0.0153822685,8898
0.016665107,8899
0.015283399,8900
0.014054365,8901
0.014963761,8902
0.013342373,8903
0.013482904,8904
0.013349466,8905
0.011371054,8906
0.0113269845,8907
0.009715704,8908
0.008472857,8909
0.008622835,8910
0.008153109,8911
0.0068735047,8912
0.0065121255,8913
0.005779294,8914
0.004935609,8915
0.0041626557,8916
0.0040879278,8917
0.004171897,8918
0.003766699,8919
0.0031337813,8920
0.0028770228,8921
0.0030996746,8922
0.002649348,8923
0.0028346437,8924
0.002690201,8925
0.002771599,8926
0.0027378728,8927
0.0029450646,8928
0.0025730187,8929
0.002526145,8930
0.002285266,8931
0.002684683,8932
0.00262073,8933
0.002608503,8934
0.0026151023,8935
0.0055754012,8936
0.011677043,8937
0.014533748,8938
0.016539985,8939
0.01611382,8940
0.0155001795,8941
0.014375001,8942
0.013417341,8943
0.011132864,8944
0.009410009,8945
0.009207267,8946
0.008874772,8947
0.0179605,8948
0.020542683,8949
0.019950049,8950
0.021079846,8951
0.019413758,8952
0.019605633,8953
0.016130114,8954
0.014799604,8955
0.015539032,8956
0.01684818,8957
0.018384054,8958
0.016270269,8959
0.014883194,8960
0.013870449,8961
0.013913753,8962
0.013926417,8963
0.013082146,8964
0.013099493,8965
0.010854914,8966
0.011882328,8967
0.016238684,8968
0.015582479,8969
0.01622811,8970
0.015762933,8971
0.015283207,8972
0.01644206,8973
0.015232368,8974
0.014596699,8975
0.013226862,8976
0.014618492,8977
0.012657582,8978
0.012600807,8979
0.011825084,8980
0.011691866,8981
0.009042974,8982
0.008302763,8983
0.008360084,8984
0.0077738785,8985
0.007985207,8986
0.0065446245,8987
0.00584111,8988
0.006526834,8989
0.0064278566,8990
0.006210361,8991
0.0067244256,8992
0.0065169865,8993
0.0067405454,8994
0.0054197204,8995
0.004505622,8996
0.0063161757,8997
0.0068990965,8998
0.0071276724,8999
0.00807225,9000
0.007648759,9001
0.006881514,9002
0.005859997,9003
0.0059691817,9004
0.0067753433,9005
0.0066572255,9006
0.007827261,9007
0.019190032,9008
0.024330119,9009
0.02442654,9010
0.020698033,9011
0.02242466,9012
0.019809522,9013
0.018916735,9014
0.017669132,9015
0.016221847,9016
0.01563531,9017
0.015255327,9018
0.013139056,9019
0.015357409,9020
0.013397824,9021
0.012794834,9022
0.012870753,9023
0.011404349,9024
0.01081744,9025
0.011863306,9026
0.009502201,9027
0.009601429,9028
0.010806121,9029
0.010079389,9030
0.007936419,9031
0.008525856,9032
0.0068350593,9033
0.007954306,9034
0.009281476,9035
0.0068945675,9036
0.008206515,9037
0.0064221704,9038
0.0065918528,9039
0.007618553,9040
0.005225884,9041
0.006813175,9042
0.0053842072,9043
0.0046745786,9044
0.0058921846,9045
0.004814754,9046
0.0057543493,9047
0.0047277003,9048
0.004682643,9049
0.0044189147,9050
0.003351167,9051
0.004072584,9052
0.0032577054,9053
0.0037128096,9054
0.0039133946,9055
0.003367512,9056
0.0036157256,9057
0.0030083947,9058
0.0030568,9059
0.0036829447,9060
0.0027148423,9061
0.0032950453,9062
0.002852998,9063
0.003843964,9064
0.0050761728,9065
0.004428419,9066
0.0047599263,9067
0.0046450677,9068
0.0045317663,9069
0.0044820732,9070
0.004363588,9071
0.004007073,9072
0.0040677465,9073
0.0048496514,9074
0.0049375393,9075
0.003952582,9076
0.0036532239,9077
0.0036054694,9078
0.003369875,9079
0.003216595,9080
0.0032188457,9081
0.0030431228,9082
0.003298982,9083
0.003546614,9084
0.0031218645,9085
0.0038776747,9086
0.0036688913,9087
0.0031987063,9088
0.0029004451,9089
0.00301735,9090
0.0031575195,9091
0.0031905065,9092
0.0030878845,9093
0.0028989788,9094
0.0033679588,9095
0.0028475286,9096
0.00313336,9097
0.0027872052,9098
0.00410445,9099
0.005321944,9100
0.0064444467,9101
0.005489289,9102
0.005716376,9103
0.005203473,9104
0.0052426406,9105
0.0056038992,9106
0.0050574783,9107
0.005156771,9108
0.0052148006,9109
0.0047864527,9110
0.0036130538,9111
0.0038438833,9112
0.0040062373,9113
0.0038812677,9114
0.004206356,9115
0.0038266762,9116
0.0045599085,9117
0.0036196911,9118
0.003707038,9119
0.0032968041,9120
0.0028737497,9121
0.0027445294,9122
0.0026805513,9123
0.0023439804,9124
0.002306362,9125
0.0026218796,9126
0.0034186682,9127
0.0049468414,9128
0.005764031,9129
0.005837706,9130
0.0056742667,9131
0.0056060497,9132
0.005613394,9133
0.0056670094,9134
0.0054989383,9135
0.004902821,9136
0.004991491,9137
0.005507452,9138
0.005309509,9139
0.0051352587,9140
0.0046692337,9141
0.0044948314,9142
0.0045440365,9143
0.004562259,9144
0.004236838,9145
0.004166225,9146
0.0038149143,9147
0.0040473198,9148
0.0027457664,9149
0.0027773054,9150
0.0027531125,9151
0.002938056,9152
0.0031235188,9153
0.0028255256,9154
0.0029415544,9155
0.0029592712,9156
0.002772204,9157
0.0029327767,9158
0.0030084737,9159
0.0030537138,9160
0.0029616836,9161
0.0029773344,9162
0.002849806,9163
0.003266704,9164
0.0027296867,9165
0.002739537,9166
0.0026136104,9167
0.0031058053,9168
0.0030882682,9169
0.0028263587,9170
0.0029361343,9171
0.0025351983,9172
0.0023958902,9173
0.0023116153,9174
0.0020116507,9175
0.0017498975,9176
0.0018794321,9177
0.0023048697,9178
0.002856757,9179
0.0028841174,9180
0.0029370235,9181
0.0028731676,9182
0.0028152338,9183
0.0026605164,9184
0.0026744697,9185
0.0026435887,9186
0.0024636937,9187
0.00319952,9188
0.0046146144,9189
0.0056048096,9190
0.005829313,9191
0.0056152204,9192
0.005508071,9193
0.0050738775,9194
0.0051155514,9195
0.005112422,9196
0.004364497,9197
0.003512055,9198
0.0036985665,9199
0.0032940267,9200
0.0035950562,9201
0.0031405506,9202
0.002760367,9203
0.0026479063,9204
0.0030271006,9205
0.0030325109,9206
0.0030933921,9207
0.003897688,9208
0.0042985794,9209
0.003957481,9210
0.0036440392,9211
0.0033329441,9212
0.0029748387,9213
0.0027866114,9214
0.0026507382,9215
0.0030258,9216
0.0026238966,9217
0.0025746783,9218
0.0029305015,9219
0.003421604,9220
0.0032113036,9221
0.0028820557,9222
0.0025469589,9223
0.0029214409,9224
0.0027733617,9225
0.0025670233,9226
0.002637146,9227
0.002805485,9228
0.0028079154,9229
0.0027386106,9230
0.0021132897,9231
0.002281612,9232
0.0022363397,9233
0.0021656563,9234
0.0023702504,9235
0.0021595964,9236
0.0021473009,9237
0.0023423028,9238
0.003320626,9239
0.0031462242,9240
0.003216036,9241
0.003325883,9242
0.0028395278,9243
0.0030551367,9244
0.0027381494,9245
0.0030728134,9246
0.0032025273,9247
0.0038626525,9248
0.0061051855,9249
0.0065791444,9250
0.0064288112,9251
0.0069106724,9252
0.0064303325,9253
0.006018373,9254
0.00604605,9255
0.0058089746,9256
0.0053031314,9257
0.005205522,9258
0.0048599485,9259
0.005310916,9260
0.0049774987,9261
0.0045103123,9262
0.0040589683,9263
0.004320817,9264
0.004471963,9265
0.004784767,9266
0.0046482203,9267
0.0045225285,9268
0.005288918,9269
0.005171295,9270
0.0050003924,9271
0.004597615,9272
0.0038606978,9273
0.0039147027,9274
0.0037868912,9275
0.003434772,9276
0.003574145,9277
0.003749029,9278
0.004090983,9279
0.0040762536,9280
0.0034063598,9281
0.0033921644,9282
0.003314576,9283
0.003564113,9284
0.0034989682,9285
0.0030598082,9286
0.0031174524,9287
0.0035372856,9288
0.0035557211,9289
0.0028671697,9290
0.002992208,9291
0.003055181,9292
0.0029724524,9293
0.003021457,9294
0.0026968825,9295
0.002971265,9296
0.0031026383,9297
0.0033942447,9298
0.0039066854,9299
0.0036817815,9300
0.004004371,9301
0.0038010662,9302
0.0040014023,9303
0.0036490837,9304
0.0034412923,9305
0.0036918619,9306
0.0033328687,9307
0.003460472,9308
0.0048953467,9309
0.005598591,9310
0.005793044,9311
0.005764499,9312
0.0056302226,9313
0.0061124777,9314
0.005709476,9315
0.0053008157,9316
0.0045031756,9317
0.0045008175,9318
0.0041021355,9319
0.0034585865,9320
0.002977748,9321
0.0028375154,9322
0.0026052333,9323
0.0025608675,9324
0.0025719889,9325
0.0028903915,9326
0.0029908754,9327
0.0028379953,9328
0.0029298859,9329
0.0027751648,9330
0.0028663953,9331
0.002659122,9332
0.0023229646,9333
0.0022265967,9334
0.0018480782,9335
0.0016883933,9336
0.0017589489,9337
0.0018895671,9338
0.0026006273,9339
0.0025531584,9340
0.0029450199,9341
0.0023761964,9342
0.00231097,9343
0.0022983348,9344
0.0021488955,9345
0.002474233,9346
0.001955193,9347
0.0024413213,9348
0.0026842714,9349
0.0025480269,9350
0.0023356562,9351
0.0025735612,9352
0.0026175787,9353
0.0022326987,9354
0.0024535058,9355
0.0025104093,9356
0.0023775178,9357
0.0027606494,9358
0.002996959,9359
0.003143263,9360
0.0029905052,9361
0.0030242796,9362
0.0026334934,9363
0.0027620299,9364
0.0027755802,9365
0.003037916,9366
0.003095148,9367
0.0029997728,9368
0.003398036,9369
0.004273666,9370
0.004829693,9371
0.0048006517,9372
0.0046579796,9373
0.004786824,9374
0.00511847,9375
0.0045460365,9376
0.0043529216,9377
0.004355909,9378
0.0037049365,9379
0.003397051,9380
0.0029406948,9381
0.0027232964,9382
0.0023412164,9383
0.0021383353,9384
0.0019074964,9385
0.0020376104,9386
0.0019247863,9387
0.0020809649,9388
0.0021153935,9389
0.0020876448,9390
0.0024933033,9391
0.003033912,9392
0.0030168707,9393
0.0031419673,9394
0.0028413618,9395
0.0026988487,9396
0.0026838093,9397
0.00262814,9398
0.0025732159,9399
0.0023106614,9400
0.002106563,9401
0.0021370184,9402
0.0021901324,9403
0.0020737972,9404
0.001780331,9405
0.0020397655,9406
0.0017718635,9407
0.0017738063,9408
0.0013366651,9409
0.0013516931,9410
0.001375338,9411
0.00143899,9412
0.0011804932,9413
0.0014351793,9414
0.0015990967,9415
0.0014504507,9416
0.0014684898,9417
0.0013209222,9418
0.0071258955,9419
0.0115842195,9420
0.010502647,9421
0.009600843,9422
0.00903831,9423
0.008747116,9424
0.008558487,9425
0.00834016,9426
0.00802147,9427
0.006193448,9428
0.0050212434,9429
0.004350419,9430
0.003492421,9431
0.0037579688,9432
0.0035921417,9433
0.0027603104,9434
0.002626942,9435
0.0025644407,9436
0.0026390734,9437
0.0029831517,9438
0.0034481809,9439
0.0032920246,9440
0.0029334603,9441
0.0030352687,9442
0.0028386195,9443
0.0028169814,9444
0.0025893424,9445
0.0023301372,9446
0.0022751433,9447
0.0019393322,9448
0.0019168311,9449
0.0018116315,9450
0.0021682943,9451
0.0028073052,9452
0.0035688744,9453
0.0035971513,9454
0.0035281605,9455
0.0036761893,9456
0.0035081457,9457
0.003477918,9458
0.0037700997,9459
0.003095916,9460
0.0028627715,9461
0.0027650588,9462
0.0024110735,9463
0.0022807154,9464
0.0021130175,9465
0.0022949353,9466
0.0023522421,9467
0.0021447917,9468
0.002375569,9469
0.0021504988,9470
0.0022717605,9471
0.0020357897,9472
0.0019194664,9473
0.0023949107,9474
0.0037314596,9475
0.006702773,9476
0.0072736787,9477
0.007944523,9478
0.0077838628,9479
0.0076226904,9480
0.0070157764,9481
0.00612438,9482
0.004747154,9483
0.0038500582,9484
0.004081576,9485
0.0043804836,9486
0.0058359173,9487
0.010845655,9488
0.013217612,9489
0.012949571,9490
0.012490518,9491
0.012673133,9492
0.0107011935,9493
0.01075536,9494
0.010314186,9495
0.009854096,9496
0.008265579,9497
0.0064807073,9498
0.0054987743,9499
0.004883942,9500
0.004311776,9501
0.0055249827,9502
0.006031186,9503
0.0064856675,9504
0.0066986256,9505
0.006836973,9506
0.0071580205,9507
0.006835003,9508
0.005872599,9509
0.0046487907,9510
0.0044852914,9511
0.0041691037,9512
0.004641603,9513
0.004537674,9514
0.0045884615,9515
0.004219677,9516
0.0035440677,9517
0.003099225,9518
0.0024546557,9519
0.002385722,9520
0.0024059997,9521
0.0021973578,9522
0.0023088977,9523
0.0022885597,9524
0.0027181192,9525
0.004106666,9526
0.005202195,9527
0.0046870704,9528
0.004554146,9529
0.00477774,9530
0.004774185,9531
0.004564214,9532
0.0042544757,9533
0.0037798586,9534
0.0037640687,9535
0.003371549,9536
0.0031161364,9537
0.0027468174,9538
0.002643109,9539
0.0024095934,9540
0.00231807,9541
0.0020890282,9542
0.0021601415,9543
0.0021809672,9544
0.0020971727,9545
0.007113547,9546
0.009510065,9547
0.008116709,9548
0.007360801,9549
0.0060784626,9550
0.005473621,9551
0.00546345,9552
0.0050024614,9553
0.005067472,9554
0.0049365466,9555
0.0043797255,9556
0.0045540542,9557
0.004757724,9558
0.004601417,9559
0.0035744456,9560
0.0036509694,9561
0.003293069,9562
0.0032878886,9563
0.002570157,9564
0.0027237523,9565
0.0028711404,9566
0.002815474,9567
0.002741073,9568
0.0027557996,9569
0.0025561186,9570
0.0026565173,9571
0.0024310986,9572
0.0027133564,9573
0.0038414262,9574
0.008077377,9575
0.009656546,9576
0.011005488,9577
0.01001531,9578
0.009276665,9579
0.008505838,9580
0.008777138,9581
0.008159202,9582
0.008514902,9583
0.009258854,9584
0.008742703,9585
0.00771944,9586
0.006537349,9587
0.005289541,9588
0.0050242636,9589
0.004429479,9590
0.0041057114,9591
0.003625883,9592
0.003269171,9593
0.0030575315,9594
0.002802409,9595
0.0025302263,9596
0.0025057555,9597
0.002765596,9598
0.002903958,9599
0.002946658,9600
0.003088208,9601
0.0035137322,9602
0.005400723,9603
0.004903428,9604
0.0050725574,9605
0.0049205525,9606
0.0046525914,9607
0.004648629,9608
0.004566847,9609
0.004221695,9610
0.0038420674,9611
0.0032877414,9612
0.00288782,9613
0.0028410149,9614
0.002663683,9615
0.0024066814,9616
0.0028392687,9617
0.0027292615,9618
0.003202273,9619
0.010637814,9620
0.0114986915,9621
0.0109683145,9622
0.009544596,9623
0.006973251,9624
0.005701393,9625
0.0054795295,9626
0.0053339177,9627
0.004290454,9628
0.0042041293,9629
0.0038888801,9630
0.0031395482,9631
0.0028827023,9632
0.004710065,9633
0.009415522,9634
0.012649492,9635
0.012161794,9636
0.010028702,9637
0.010231932,9638
0.009780199,9639
0.010413949,9640
0.01042862,9641
0.010915012,9642
0.011617992,9643
0.01060008,9644
0.014620574,9645
0.014035303,9646
0.013830801,9647
0.013044773,9648
0.009133662,9649
0.0074443724,9650
0.0072018565,9651
0.0063078813,9652
0.00558861,9653
0.005634511,9654
0.004530026,9655
0.0048514716,9656
0.0070331083,9657
0.010064308,9658
0.010783851,9659
0.00880475,9660
0.009103424,9661
0.0077513843,9662
0.008444897,9663
0.00838044,9664
0.00883682,9665
0.010392708,9666
0.009767019,9667
0.009472897,9668
0.008269578,9669
0.007948071,9670
0.00807765,9671
0.007083345,9672
0.0054700836,9673
0.004454395,9674
0.0037092876,9675
0.0036085064,9676
0.0031817781,9677
0.003379694,9678
0.0033583066,9679
0.0034450365,9680
0.0033437752,9681
0.0033272658,9682
0.0037577152,9683
0.003910175,9684
0.003522336,9685
0.003345133,9686
0.0032572744,9687
0.003153574,9688
0.0031558694,9689
0.0030866861,9690
0.0028458193,9691
0.002774316,9692
0.0027412614,9693
0.0025509344,9694
0.0026637004,9695
0.002487455,9696
0.0023865676,9697
0.0021146552,9698
0.0022742813,9699
0.0023414458,9700
0.0021566951,9701
0.0023179278,9702
0.0022553713,9703
0.0022689633,9704
0.0023146279,9705
0.0021491915,9706
0.0019393121,9707
0.0018157072,9708
0.0016163716,9709
0.0015932221,9710
0.0014580942,9711
0.0014074536,9712
0.0013226276,9713
0.0013706234,9714
0.001380694,9715
0.0015299838,9716
0.0013568319,9717
0.0015148678,9718
0.0014139912,9719
0.0016108801,9720
0.0012562255,9721
0.0013130829,9722
0.0014871275,9723
0.0014986207,9724
0.0014714886,9725
0.0012280003,9726
0.0014041251,9727
0.0012511127,9728
0.0013409635,9729
0.0012414629,9730
0.001310737,9731
0.001347547,9732
0.0016972002,9733
0.002328005,9734
0.007912901,9735
0.010364763,9736
0.009483494,9737
0.008160874,9738
0.00799866,9739
0.007138628,9740
0.006890973,9741
0.00684275,9742
0.0073125786,9743
0.0058996202,9744
0.0045715068,9745
0.0041606477,9746
0.0035322572,9747
0.0034877106,9748
0.0031233747,9749
0.0026389991,9750
0.002639411,9751
0.0025709455,9752
0.0027539558,9753
0.0029827594,9754
0.0027787434,9755
0.002939802,9756
0.0026908745,9757
0.0027917684,9758
0.002650744,9759
0.0023967864,9760
0.0022834463,9761
0.0022848633,9762
0.002552222,9763
0.005027992,9764
0.0062982957,9765
0.0065473174,9766
0.0068210685,9767
0.0064867698,9768
0.006708529,9769
0.006737562,9770
0.0062218504,9771
0.005813946,9772
0.0052034743,9773
0.0047055893,9774
0.0042300946,9775
0.0036887485,9776
0.003340683,9777
0.0030097316,9778
0.0028121972,9779
0.003278548,9780
0.003287964,9781
0.003358335,9782
0.003459966,9783
0.003292253,9784
0.003372093,9785
0.003181152,9786
0.0030923288,9787
0.0029567333,9788
0.0027419468,9789
0.0026201122,9790
0.0025419805,9791
0.0029793708,9792
0.0044415426,9793
0.007472153,9794
0.0073570684,9795
0.008006857,9796
0.007867461,9797
0.00810091,9798
0.0072300714,9799
0.006287014,9800
0.0044249133,9801
0.0038347777,9802
0.0036431588,9803
0.003893623,9804
0.0049560335,9805
0.0051278663,9806
0.004717453,9807
0.005154101,9808
0.010679851,9809
0.014861918,9810
0.012968644,9811
0.011708083,9812
0.010758349,9813
0.009171763,9814
0.010075418,9815
0.009917727,9816
0.009362986,9817
0.0074476334,9818
0.0059653125,9819
0.004411581,9820
0.004404663,9821
0.0050519323,9822
0.0047999565,9823
0.0069918334,9824
0.0074159554,9825
0.0071029817,9826
0.00656095,9827
0.007357564,9828
0.007221875,9829
0.0060929875,9830
0.004867302,9831
0.0045730574,9832
0.0039253817,9833
0.0039105085,9834
0.0041095577,9835
0.0053941994,9836
0.005654997,9837
0.005782871,9838
0.0053953035,9839
0.0050610756,9840
0.0045085247,9841
0.004119513,9842
0.004089134,9843
0.0038849015,9844
0.004051703,9845
0.00477055,9846
0.0072896793,9847
0.0077422904,9848
0.007490064,9849
0.008016684,9850
0.0077617676,9851
0.0073974384,9852
0.0077021695,9853
0.007262964,9854
0.005936698,9855
0.006276984,9856
0.005832283,9857
0.0052672294,9858
0.004730953,9859
0.0043075997,9860
0.004158881,9861
0.0041669677,9862
0.0046556727,9863
0.0044664107,9864
0.004474696,9865
0.009816802,9866
0.013304438,9867
0.013285425,9868
0.011537806,9869
0.010298222,9870
0.008790494,9871
0.008353397,9872
0.008900457,9873
0.007757237,9874
0.007800373,9875
0.007610909,9876
0.0066277077,9877
0.0067448583,9878
0.007111965,9879
0.0062284367,9880
0.0054579764,9881
0.0057414393,9882
0.005442163,9883
0.0046440056,9884
0.004164413,9885
0.0041096588,9886
0.004027393,9887
0.0041981624,9888
0.003616458,9889
0.004064449,9890
0.0036550532,9891
0.0037861408,9892
0.0046803076,9893
0.0066054207,9894
0.01138865,9895
0.014270958,9896
0.014521813,9897
0.012035202,9898
0.010869721,9899
0.009579372,9900
0.0100597115,9901
0.010322156,9902
0.011427993,9903
0.012556978,9904
0.01192239,9905
0.010662485,9906
0.00844473,9907
0.0071881493,9908
0.007125698,9909
0.0054995692,9910
0.004637005,9911
0.010469838,9912
0.017704215,9913
0.0163256,9914
0.016909342,9915
0.013113157,9916
0.009201061,9917
0.008155083,9918
0.008916679,9919
0.0068131327,9920
0.006880394,9921
0.005540354,9922
0.005261325,9923
0.006927582,9924
0.017521307,9925
0.021191904,9926
0.021246929,9927
0.018618003,9928
0.01943628,9929
0.016752608,9930
0.019490784,9931
0.019497618,9932
0.020974377,9933
0.024023028,9934
0.029659297,9935
0.033413652,9936
0.027209682,9937
0.027005605,9938
0.020904217,9939
0.015422945,9940
0.01635953,9941
0.013754763,9942
0.011690957,9943
0.011431758,9944
0.022409458,9945
0.03192003,9946
0.03496983,9947
0.029234674,9948
0.026639326,9949
0.022458835,9950
0.022574963,9951
0.021443382,9952
0.025304304,9953
0.032973044,9954
0.033057135,9955
0.032160893,9956
0.023538498,9957
0.020091228,9958
0.016326992,9959
0.014364956,9960
0.013855868,9961
0.011631121,9962
0.009022365,9963
0.008863633,9964
0.00809912,9965
0.01198679,9966
0.017458925,9967
0.020884195,9968
0.021295998,9969
0.019120429,9970
0.017633142,9971
0.016444722,9972
0.01692348,9973
0.018005516,9974
0.019729683,9975
0.020693367,9976
0.019790616,9977
0.017006133,9978
0.013355358,9979
0.01229615,9980
0.011091033,9981
0.010061991,9982
0.008634315,9983
0.007404483,9984
0.0066195168,9985
0.0062807105,9986
0.0061690705,9987
0.006361112,9988
0.005612184,9989
0.0050044283,9990
0.004574751,9991
0.003913545,9992
0.004295396,9993
0.0052865553,9994
0.006682039,9995
0.007013621,9996
0.0071903537,9997
0.006773397,9998
0.006755794,9999
0.0065446035,10000
0.0064801425,10001
0.0060160155,10002
0.0056733973,10003
0.00614233,10004
0.006374328,10005
0.006053428,10006
0.006104867,10007
0.0060674753,10008
0.0062630074,10009
0.006400949,10010
0.006846437,10011
0.006867827,10012
0.0069217337,10013
0.007191729,10014
0.0071906033,10015
0.007237934,10016
0.0070749484,10017
0.0067637013,10018
0.0063929157,10019
0.0060669244,10020
0.0058003147,10021
0.0054315072,10022
0.005250365,10023
0.004824946,10024
0.004686345,10025
0.004449554,10026
0.004470336,10027
0.004518226,10028
0.0047822325,10029
0.0041938587,10030
0.0043123155,10031
0.0039517167,10032
0.0040161065,10033
0.0038090213,10034
0.0038854165,10035
0.0038548838,10036
0.0038746053,10037
0.0040212353,10038
0.0036965306,10039
0.003942051,10040
0.0036788569,10041
0.0035071655,10042
0.0035276199,10043
0.0031554312,10044
0.0032630612,10045
0.0029715803,10046
0.0031100921,10047
0.0068671424,10048
0.02455553,10049
0.014808666,10050
0.012298514,10051
0.012177712,10052
0.01042299,10053
0.012135885,10054
0.009438546,10055
0.009256971,10056
0.008980679,10057
0.0067736646,10058
0.0060444986,10059
0.007636048,10060
0.0072854804,10061
0.006637039,10062
0.0053738854,10063
0.0048585143,10064
0.004674944,10065
0.0049767294,10066
0.004298694,10067
0.004538079,10068
0.0038175911,10069
0.0044035646,10070
0.0050471546,10071
0.005240843,10072
0.0043145195,10073
0.0043191463,10074
0.0051585236,10075
0.0055392804,10076
0.0053757257,10077
0.0057513346,10078
0.005694026,10079
0.0052111987,10080
0.005161804,10081
0.005164316,10082
0.0046373988,10083
0.0040887753,10084
0.0043564313,10085
0.004393981,10086
0.0056952774,10087
0.007044787,10088
0.0072781304,10089
0.0072978456,10090
0.0066712005,10091
0.007030029,10092
0.0068929256,10093
0.006316942,10094
0.006078332,10095
0.005634608,10096
0.0050972644,10097
0.0041393135,10098
0.0048014047,10099
0.008961926,10100
0.009513598,10101
0.010018945,10102
0.008946104,10103
0.008156079,10104
0.0072084563,10105
0.0064976485,10106
0.007592229,10107
0.007765359,10108
0.008027035,10109
0.008921555,10110
0.00882179,10111
0.01437277,10112
0.01684085,10113
0.018156892,10114
0.020579457,10115
0.016870886,10116
0.015714403,10117
0.013192005,10118
0.013270484,10119
0.0128843095,10120
0.012411134,10121
0.021576433,10122
0.030221172,10123
0.024874903,10124
0.021828994,10125
0.019208364,10126
0.016309645,10127
0.016890176,10128
0.017888976,10129
0.0198958,10130
0.022302752,10131
0.020632124,10132
0.018694956,10133
0.01710054,10134
0.02601052,10135
0.027111236,10136
0.026594533,10137
0.023190305,10138
0.022328267,10139
0.023214506,10140
0.024069456,10141
0.021874635,10142
0.020809874,10143
0.017207654,10144
0.015108913,10145
0.014360082,10146
0.013761983,10147
0.013506326,10148
0.013378937,10149
0.010071167,10150
0.007866834,10151
0.0067273695,10152
0.005961849,10153
0.0052744006,10154
0.0048409957,10155
0.003996637,10156
0.0038951202,10157
0.004753156,10158
0.006779123,10159
0.008136566,10160
0.008706683,10161
0.008581062,10162
0.008156089,10163
0.00807959,10164
0.008461697,10165
0.008134892,10166
0.007558785,10167
0.007415344,10168
0.006315815,10169
0.0055301124,10170
0.0051025273,10171
0.0041401745,10172
0.0043179854,10173
0.004712845,10174
0.0046477932,10175
0.0045484183,10176
0.01015258,10177
0.02063443,10178
0.029773273,10179
0.021002853,10180
0.018184127,10181
0.015220302,10182
0.013274216,10183
0.013730708,10184
0.013284785,10185
0.009299207,10186
0.008201855,10187
0.007532883,10188
0.0065679867,10189
0.008832299,10190
0.00885361,10191
0.008012898,10192
0.006968088,10193
0.006130922,10194
0.0061822636,10195
0.005503197,10196
0.0048625562,10197
0.011866142,10198
0.026067361,10199
0.02633588,10200
0.024891082,10201
0.022751562,10202
0.015257403,10203
0.011038513,10204
0.012621879,10205
0.009095915,10206
0.01040679,10207
0.008944326,10208
0.007652465,10209
0.0065569263,10210
0.006009841,10211
0.0055889306,10212
0.004893782,10213
0.00483638,10214
0.005142773,10215
0.004485638,10216
0.004067417,10217
0.0034554282,10218
0.0031745145,10219
0.0030320776,10220
0.0037875825,10221
0.0039810142,10222
0.004371728,10223
0.004050762,10224
0.00498335,10225
0.0063483594,10226
0.006680785,10227
0.006879982,10228
0.00693194,10229
0.006663199,10230
0.006393079,10231
0.0065616732,10232
0.0059587923,10233
0.00562079,10234
0.0054935506,10235
0.00492163,10236
0.004389224,10237
0.0042521018,10238
0.0036393523,10239
0.003518928,10240
0.0033860046,10241
0.0032477018,10242
0.003305334,10243
0.003075403,10244
0.0034738586,10245
0.003904672,10246
0.0040570293,10247
0.0039729597,10248
0.0035319976,10249
0.0030969358,10250
0.002933401,10251
0.0029841976,10252
0.0027298236,10253
0.002832271,10254
0.0028557999,10255
0.0029079649,10256
0.0035427753,10257
0.0031499758,10258
0.003633592,10259
0.003410543,10260
0.0031994528,10261
0.0033122052,10262
0.0028683057,10263
0.003203807,10264
0.0030053123,10265
0.0030276908,10266
0.0030202826,10267
0.0028453597,10268
0.0065534464,10269
0.011185932,10270
0.014918279,10271
0.014939721,10272
0.013739904,10273
0.012128252,10274
0.010827868,10275
0.01144863,10276
0.0115196975,10277
0.012943353,10278
0.013990327,10279
0.013125755,10280
0.012282681,10281
0.010254017,10282
0.009369002,10283
0.008891057,10284
0.007017783,10285
0.0055954633,10286
0.0047457004,10287
0.0039775744,10288
0.0035445306,10289
0.0029498893,10290
0.002694341,10291
0.0023629437,10292
0.0022689505,10293
0.0021052596,10294
0.0018615894,10295
0.0018750557,10296
0.0020512235,10297
0.003607134,10298
0.005750269,10299
0.0058519947,10300
0.005825013,10301
0.0061309272,10302
0.006298667,10303
0.006184665,10304
0.006137525,10305
0.0054912493,10306
0.005122543,10307
0.0048500816,10308
0.0042047813,10309
0.0036302337,10310
0.0035700297,10311
0.0028927054,10312
0.0029194718,10313
0.003087667,10314
0.0025564176,10315
0.0028665236,10316
0.0026324457,10317
0.0024579882,10318
0.0028951562,10319
0.0024952977,10320
0.002477846,10321
0.0028129502,10322
0.0024703897,10323
0.002744197,10324
0.0025401216,10325
0.00236198,10326
0.0023392602,10327
0.002530315,10328
0.0022382434,10329
0.0023749892,10330
0.0023544603,10331
0.002225322,10332
0.0021518467,10333
0.0019823555,10334
0.0019224668,10335
0.0021137944,10336
0.002030782,10337
0.0024826953,10338
0.0025021492,10339
0.0021867189,10340
0.0021564811,10341
0.0019855148,10342
0.0022479305,10343
0.002391875,10344
0.0022029586,10345
0.0023297558,10346
0.0022240253,10347
0.0024996488,10348
0.0024971215,10349
0.0023867656,10350
0.0025250444,10351
0.002529716,10352
0.0027149613,10353
0.002531796,10354
0.0025372116,10355
0.0024649382,10356
0.0024515148,10357
0.0024719813,10358
0.0021062645,10359
0.0021077865,10360
0.0019191877,10361
0.0023233658,10362
0.0025606023,10363
0.0028409841,10364
0.0028950437,10365
0.021395473,10366
0.033679597,10367
0.030987509,10368
0.029891979,10369
0.026876174,10370
0.022497153,10371
0.024473276,10372
0.025124054,10373
0.024514055,10374
0.021237299,10375
0.016360668,10376
0.013803927,10377
0.01096235,10378
0.010365561,10379
0.011992516,10380
0.010897951,10381
0.008759888,10382
0.0076264697,10383
0.00707541,10384
0.0078208195,10385
0.008436192,10386
0.007987819,10387
0.007778237,10388
0.007949099,10389
0.0070926254,10390
0.006717905,10391
0.0057799844,10392
0.0054088323,10393
0.005531311,10394
0.0048341965,10395
0.0045697675,10396
0.0044067334,10397
0.0038140644,10398
0.003971987,10399
0.004003496,10400
0.004049328,10401
0.0042500813,10402
0.0044355243,10403
0.004411722,10404
0.004183516,10405
0.0040946184,10406
0.0036724436,10407
0.0035592394,10408
0.0038481248,10409
0.003366134,10410
0.0028063715,10411
0.0022812155,10412
0.0029879862,10413
0.0041685137,10414
0.0043911487,10415
0.0042954455,10416
0.0041285087,10417
0.0041834433,10418
0.0037655183,10419
0.0036741667,10420
0.0036027604,10421
0.0033981183,10422
0.0036864236,10423
0.003925863,10424
0.0050230175,10425
0.004264871,10426
0.003622545,10427
0.0043667625,10428
0.0042098593,10429
0.00431334,10430
0.004286296,10431
0.0040307604,10432
0.0041859713,10433
0.005065658,10434
0.0054269307,10435
0.00567109,10436
0.0054696007,10437
0.005932428,10438
0.0049528847,10439
0.0050496934,10440
0.004512004,10441
0.0044693514,10442
0.003922087,10443
0.0040182048,10444
0.0038673205,10445
0.0047673145,10446
0.005039979,10447
0.0047127907,10448
0.0053427834,10449
0.004519423,10450
0.004618607,10451
0.0039861784,10452
0.0043174326,10453
0.003841822,10454
0.0045116385,10455
0.0045368974,10456
0.0055882307,10457
0.0053314744,10458
0.0054759276,10459
0.004821819,10460
0.005032968,10461
0.0049452703,10462
0.004644054,10463
0.0048928154,10464
0.0044444194,10465
0.0047125043,10466
0.00411736,10467
0.0056091677,10468
0.006315142,10469
0.0071107135,10470
0.0069489316,10471
0.00689682,10472
0.0070721325,10473
0.006309077,10474
0.0060946923,10475
0.0062466185,10476
0.005231962,10477
0.0049154363,10478
0.0049581304,10479
0.004788852,10480
0.0039433707,10481
0.004240268,10482
0.003980385,10483
0.00406641,10484
0.0039823204,10485
0.0035694386,10486
0.0038903214,10487
0.0032416754,10488
0.0037293776,10489
0.004787884,10490
0.0048684627,10491
0.004373943,10492
0.0044036075,10493
0.0044247773,10494
0.0042344998,10495
0.004364652,10496
0.0037511287,10497
0.004023093,10498
0.0034530102,10499
0.0032801323,10500
0.0035671236,10501
0.0029226795,10502
0.003899785,10503
0.003766487,10504
0.0036010474,10505
0.0032502504,10506
0.0030607255,10507
0.003586478,10508
0.0030582226,10509
0.0034479722,10510
0.0030443645,10511
0.0033425712,10512
0.0034560254,10513
0.0036714247,10514
0.0037156737,10515
0.003666009,10516
0.003482535,10517
0.002995006,10518
0.0034541823,10519
0.0032684517,10520
0.0028655506,10521
0.0027478018,10522
0.0028044104,10523
0.00325858,10524
0.003281442,10525
0.003220448,10526
0.002824532,10527
0.002739874,10528
0.0027711617,10529
0.0028687392,10530
0.0031888117,10531
0.0028073094,10532
0.0031370383,10533
0.0040850188,10534
0.0043549356,10535
0.004382032,10536
0.005083742,10537
0.0043695862,10538
0.003907088,10539
0.0039411006,10540
0.0040215114,10541
0.0038121317,10542
0.0044181184,10543
0.004123333,10544
0.004378382,10545
0.004194654,10546
0.003907266,10547
0.003688771,10548
0.0036777274,10549
0.0034359728,10550
0.0031966208,10551
0.0032834308,10552
0.003301641,10553
0.0042593516,10554
0.0033233506,10555
0.0029319003,10556
0.0027982357,10557
0.0026043844,10558
0.0030253744,10559
0.0027364483,10560
0.0028902628,10561
0.0028213498,10562
0.0026208225,10563
0.002436006,10564
0.0032750196,10565
0.002874242,10566
0.0024059115,10567
0.0023004056,10568
0.002225218,10569
0.0020469984,10570
0.00192372,10571
0.0016905927,10572
0.0015892895,10573
0.0017456204,10574
0.0017540139,10575
0.0018558035,10576
0.002008669,10577
0.0020315587,10578
0.0019086632,10579
0.0022037765,10580
0.0023519115,10581
0.0022813943,10582
0.0023933635,10583
0.0022925492,10584
0.0021222064,10585
0.0021050358,10586
0.001911542,10587
0.002526309,10588
0.0027722733,10589
0.00251508,10590
0.0023584256,10591
0.0022083137,10592
0.0022838279,10593
0.0025462587,10594
0.002376389,10595
0.0022860607,10596
0.0022553192,10597
0.0021430335,10598
0.0032199044,10599
0.005330906,10600
0.0058141905,10601
0.005799737,10602
0.006036758,10603
0.005857479,10604
0.0057112547,10605
0.005473853,10606
0.0052849883,10607
0.0046993205,10608
0.0057951505,10609
0.0054766866,10610
0.0043099276,10611
0.0042752014,10612
0.004021816,10613
0.0036487686,10614
0.003910899,10615
0.004044676,10616
0.004052478,10617
0.0039649233,10618
0.004865129,10619
0.005323478,10620
0.005171493,10621
0.005174625,10622
0.005059533,10623
0.0047601704,10624
0.004563958,10625
0.0044979393,10626
0.004447413,10627
0.004659739,10628
0.005308806,10629
0.0043530706,10630
0.004183958,10631
0.0037692543,10632
0.003521642,10633
0.0032632453,10634
0.0035320832,10635
0.0038993964,10636
0.0031259186,10637
0.0033873501,10638
0.0031696302,10639
0.0033211408,10640
0.004074323,10641
0.0033295115,10642
0.003500202,10643
0.0035860706,10644
0.0030513299,10645
0.0028985746,10646
0.0030263038,10647
0.0031788177,10648
0.0030817178,10649
0.0029883757,10650
0.003136173,10651
0.0030192859,10652
0.0034847048,10653
0.0029992417,10654
0.0031370185,10655
0.002925036,10656
0.002748972,10657
0.002748276,10658
0.0023275018,10659
0.0024903999,10660
0.0023807255,10661
0.0027839632,10662
0.0027394902,10663
0.0028753742,10664
0.0030584931,10665
0.0027405284,10666
0.0026573748,10667
0.0023101873,10668
0.0024063198,10669
0.0026450602,10670
0.0022775396,10671
0.0021464908,10672
0.0034291625,10673
0.0041686897,10674
0.00420673,10675
0.0043947278,10676
0.004318067,10677
0.003989616,10678
0.0038193448,10679
0.003924991,10680
0.0039657024,10681
0.003977197,10682
0.0043189577,10683
0.004527668,10684
0.004343331,10685
0.0045186235,10686
0.0039727925,10687
0.0038498812,10688
0.0033536672,10689
0.0032825046,10690
0.0030859774,10691
0.003007765,10692
0.0028254567,10693
0.0028226415,10694
0.003381022,10695
0.003256618,10696
0.0035381722,10697
0.0040218276,10698
0.0030979158,10699
0.0027247907,10700
0.0025404245,10701
0.0022783475,10702
0.0021880239,10703
0.002030806,10704
0.002119297,10705
0.0023574862,10706
0.0036654861,10707
0.0032799793,10708
0.003470344,10709
0.0031007149,10710
0.0030667589,10711
0.0031520862,10712
0.0031488047,10713
0.0030065884,10714
0.003152649,10715
0.0026382022,10716
0.002583965,10717
0.003663445,10718
0.0041344864,10719
0.004075984,10720
0.0034761787,10721
0.0040112943,10722
0.0035792391,10723
0.0035367883,10724
0.0032776478,10725
0.0027127757,10726
0.003372762,10727
0.002866174,10728
0.0032398999,10729
0.002756935,10730
0.0043765646,10731
0.00492743,10732
0.004204257,10733
0.004030877,10734
0.0041627632,10735
0.004321069,10736
0.0041397987,10737
0.0035666327,10738
0.0032904088,10739
0.0027384828,10740
0.0030183755,10741
0.0026329136,10742
0.0027204389,10743
0.0027850333,10744
0.0025904106,10745
0.0028855219,10746
0.0025953448,10747
0.0030469997,10748
0.002524661,10749
0.0030485915,10750
0.0025510276,10751
0.0025216416,10752
0.0026815743,10753
0.0021870018,10754
0.0025084952,10755
0.0024233349,10756
0.0030923306,10757
0.003334889,10758
0.002846483,10759
0.0029119372,10760
0.0026582377,10761
0.002895516,10762
0.0025720508,10763
0.002716558,10764
0.0022894398,10765
0.0023236787,10766
0.0023453312,10767
0.0021506355,10768
0.0020762626,10769
0.0019058943,10770
0.0023466349,10771
0.0019634443,10772
0.0021123216,10773
0.0018624562,10774
0.0019548147,10775
0.0017904737,10776
0.0015625446,10777
0.001635087,10778
0.001296606,10779
0.0014532551,10780
0.0010447458,10781
0.0012422204,10782
0.0014574481,10783
0.0029400662,10784
0.0024971634,10785
0.0026251227,10786
0.0025575708,10787
0.0023530496,10788
0.002753658,10789
0.0025205424,10790
0.0022120061,10791
0.002451587,10792
0.0022391223,10793
0.0020966614,10794
0.0021622062,10795
0.0024787826,10796
0.0021701886,10797
0.0025387253,10798
0.0020439306,10799
0.0022468807,10800
0.0019281087,10801
0.0021208355,10802
0.0022009301,10803
0.0018070703,10804
0.0020542708,10805
0.001512375,10806
0.002213434,10807
0.001710907,10808
0.0018581605,10809
0.0017092902,10810
0.0015838381,10811
0.0019345299,10812
0.0022717586,10813
0.002929125,10814
0.0027271225,10815
0.0026003243,10816
0.0024330528,10817
0.0026593197,10818
0.0027452444,10819
0.002368796,10820
0.0021999457,10821
0.001801549,10822
0.0021369199,10823
0.0016571634,10824
0.0014930873,10825
0.0013865732,10826
0.0013605063,10827
0.0016118636,10828
0.0016092337,10829
0.0016585693,10830
0.0017575161,10831
0.0017191055,10832
0.0016951847,10833
0.001512527,10834
0.0016020456,10835
0.0015410938,10836
0.0013903558,10837
0.0014025898,10838
0.0012223405,10839
0.001276871,10840
0.0012995749,10841
0.0012373861,10842
0.0012465392,10843
0.0011493022,10844
0.0011542131,10845
0.0011051456,10846
0.0012429563,10847
0.0011543431,10848
0.0010172179,10849
0.0011288353,10850
9.631287E-4,10851
0.0012052888,10852
0.0013456459,10853
0.0012381491,10854
0.0014610369,10855
0.0013489323,10856
0.001566007,10857
0.0014335759,10858
0.00153504,10859
0.001234594,10860
0.0012402148,10861
0.0012240518,10862
0.001175233,10863
0.0012436756,10864
0.0010080497,10865
0.0011775481,10866
0.0010873667,10867
0.0011723407,10868
0.0010038853,10869
9.926463E-4,10870
0.0010456252,10871
8.5760583E-4,10872
8.9768984E-4,10873
7.712563E-4,10874
9.472944E-4,10875
8.522377E-4,10876
8.825437E-4,10877
8.0222223E-4,10878
7.1989204E-4,10879
9.775895E-4,10880
7.2028395E-4,10881
8.3617255E-4,10882
7.24129E-4,10883
8.7427173E-4,10884
7.510888E-4,10885
0.0010892479,10886
0.0025173693,10887
0.0026116746,10888
0.0022716052,10889
0.0019819622,10890
0.0020509437,10891
0.0020064854,10892
0.0018553113,10893
0.0017667612,10894
0.0019696157,10895
0.0017306329,10896
0.0016891198,10897
0.0017073636,10898
0.0016274495,10899
0.0015249397,10900
0.0015126875,10901
0.0014972979,10902
0.0014544057,10903
0.0012491387,10904
0.0013869707,10905
0.0013582379,10906
0.001305251,10907
0.0012281067,10908
0.0012490125,10909
0.0012082789,10910
0.0011483235,10911
0.001349174,10912
0.0014427073,10913
0.0015123058,10914
0.0014854518,10915
0.0013845958,10916
0.001438179,10917
0.001328953,10918
0.0023236852,10919
0.003615601,10920
0.0035087764,10921
0.0031637477,10922
0.0027106083,10923
0.0018186537,10924
0.0018800643,10925
0.0018427098,10926
0.0013504607,10927
0.0014221588,10928
0.0011051189,10929
0.0010934079,10930
9.508781E-4,10931
0.0010084028,10932
9.533262E-4,10933
9.737423E-4,10934
9.6576713E-4,10935
8.8673306E-4,10936
7.3998334E-4,10937
6.6535006E-4,10938
7.797677E-4,10939
7.3759037E-4,10940
7.1907113E-4,10941
8.461561E-4,10942
0.0013848238,10943
0.0014640877,10944
0.0014969413,10945
0.0013701639,10946
0.007848004,10947
0.018622482,10948
0.017217219,10949
0.013536639,10950
0.010369231,10951
0.0083384765,10952
0.006584209,10953
0.0033890398,10954
0.0018082733,10955
0.0013985452,10956
0.0019154543,10957
0.0025733388,10958
0.0025587715,10959
0.0021324109,10960
0.0024559917,10961
0.0030953025,10962
0.0054517505,10963
0.0049600615,10964
0.005840509,10965
0.0062755872,10966
0.005735625,10967
0.0052182847,10968
0.004505844,10969
0.0045136632,10970
0.0038622443,10971
0.0036391036,10972
0.0034228563,10973
0.0042068125,10974
0.004554004,10975
0.012456452,10976
0.012701692,10977
0.0093699,10978
0.007371745,10979
0.005034237,10980
0.0036800534,10981
0.0030178167,10982
0.003044573,10983
0.0030411938,10984
0.0037197599,10985
0.003607992,10986
0.0128398705,10987
0.014230946,10988
0.013371126,10989
0.012731521,10990
0.009866788,10991
0.007978295,10992
0.0074494868,10993
0.0071228226,10994
0.0051778858,10995
0.005573571,10996
0.0042397403,10997
0.003776235,10998
0.007108565,10999
0.011674671,11000
0.012495478,11001
0.008550622,11002
0.0070926147,11003
0.003689181,11004
0.003518981,11005
0.0052891104,11006
0.0041409284,11007
0.0033960962,11008
0.0037146555,11009
0.0035642004,11010
0.004012139,11011
0.0043665012,11012
0.003841678,11013
0.0040612593,11014
0.0034545152,11015
0.0028415245,11016
0.002670176,11017
0.0056144553,11018
0.007568713,11019
0.0070395106,11020
0.00661246,11021
0.0070926184,11022
0.0061874855,11023
0.006803643,11024
0.006566131,11025
0.0065182466,11026
0.0056266775,11027
0.0047862204,11028
0.0042105406,11029
0.0037569352,11030
0.0033750518,11031
0.0031700644,11032
0.0029552826,11033
0.002271372,11034
0.0018216365,11035
0.0014816448,11036
0.0013577857,11037
0.0013291196,11038
0.0011532663,11039
0.0011776288,11040
0.0010906094,11041
0.0012742935,11042
0.0020883714,11043
0.002213363,11044
0.0018522526,11045
0.0020072535,11046
0.002004129,11047
0.001746293,11048
0.0018515562,11049
0.0015968758,11050
0.001584387,11051
0.0018477519,11052
0.0016640666,11053
0.0017323152,11054
0.008194,11055
0.015164234,11056
0.0141306,11057
0.013237661,11058
0.013262734,11059
0.012034917,11060
0.011901713,11061
0.012235039,11062
0.011121037,11063
0.009142794,11064
0.007913184,11065
0.006356938,11066
0.004952713,11067
0.0047728783,11068
0.0047033215,11069
0.0038966506,11070
0.0031244962,11071
0.0031528918,11072
0.0032589608,11073
0.003663743,11074
0.003732711,11075
0.0034568764,11076
0.0033518064,11077
0.008745223,11078
0.02025657,11079
0.022274878,11080
0.021128463,11081
0.018788978,11082
0.017873665,11083
0.016480029,11084
0.01649537,11085
0.014891085,11086
0.01344322,11087
0.011220358,11088
0.00858544,11089
0.006361881,11090
0.006354537,11091
0.0061365985,11092
0.005967193,11093
0.0048622317,11094
0.0047365273,11095
0.004973004,11096
0.0060053603,11097
0.006490284,11098
0.006282624,11099
0.0059065865,11100
0.006012018,11101
0.0077046775,11102
0.014478682,11103
0.014643511,11104
0.0148195885,11105
0.01571943,11106
0.01702865,11107
0.019269837,11108
0.019970378,11109
0.018845432,11110
0.017692173,11111
0.015788527,11112
0.013932094,11113
0.01264348,11114
0.012383166,11115
0.012158322,11116
0.011133367,11117
0.00914477,11118
0.0071872,11119
0.0067613586,11120
0.005292534,11121
0.004869485,11122
0.004566884,11123
0.0038972998,11124
0.004114323,11125
0.0038072586,11126
0.0034328161,11127
0.0030544999,11128
0.0030212728,11129
0.002927051,11130
0.0031521246,11131
0.003967243,11132
0.011315968,11133
0.017842308,11134
0.012946184,11135
0.010000475,11136
0.0065354095,11137
0.0043581924,11138
0.0055287858,11139
0.006452912,11140
0.0050720987,11141
0.0051058005,11142
0.0052273273,11143
0.0041951886,11144
0.004144582,11145
0.003867528,11146
0.0038936185,11147
0.0036503123,11148
0.0027555763,11149
0.0034682245,11150
0.0063205636,11151
0.012860379,11152
0.014231224,11153
0.01353148,11154
0.012780485,11155
0.011978547,11156
0.01115014,11157
0.011518177,11158
0.010587296,11159
0.00925991,11160
0.007491279,11161
0.005946802,11162
0.010578895,11163
0.0129688475,11164
0.0140783815,11165
0.015570594,11166
0.014328984,11167
0.013406579,11168
0.01292371,11169
0.010377869,11170
0.0084482785,11171
0.006932582,11172
0.009709596,11173
0.03000032,11174
0.032110967,11175
0.029177984,11176
0.026846126,11177
0.026203599,11178
0.027490018,11179
0.021752056,11180
0.020029746,11181
0.017775454,11182
0.016161203,11183
0.014328091,11184
0.013248224,11185
0.012122485,11186
0.014107593,11187
0.019325973,11188
0.019936033,11189
0.010587779,11190
0.012885503,11191
0.009569509,11192
0.009561855,11193
0.009429512,11194
0.008251096,11195
0.008350508,11196
0.0083746435,11197
0.008211216,11198
0.009695192,11199
0.009075975,11200
0.007049312,11201
0.0069933673,11202
0.008471798,11203
0.006027636,11204
0.005348647,11205
0.004675151,11206
0.0049890983,11207
0.004393547,11208
0.0037833243,11209
0.0032798513,11210
0.0032113877,11211
0.00290459,11212
0.0024359555,11213
0.002620127,11214
0.0040137894,11215
0.005705031,11216
0.005735878,11217
0.0060801012,11218
0.0059226113,11219
0.0061548026,11220
0.005600343,11221
0.005925749,11222
0.005393075,11223
0.0049135475,11224
0.004252854,11225
0.0044124383,11226
0.0036675846,11227
0.0034471236,11228
0.002923923,11229
0.0030537667,11230
0.0030859488,11231
0.0030590233,11232
0.0031664395,11233
0.0032998016,11234
0.003198569,11235
0.0029775265,11236
0.0030948077,11237
0.0027703003,11238
0.002545947,11239
0.0032101127,11240
0.00531442,11241
0.005517067,11242
0.0044966736,11243
0.0044554244,11244
0.0045393407,11245
0.0048305267,11246
0.0039682686,11247
0.004218818,11248
0.004164354,11249
0.0037288943,11250
0.003746923,11251
0.0035955298,11252
0.0033580211,11253
0.0035852846,11254
0.0028202932,11255
0.0026222863,11256
0.0027925426,11257
0.0026494686,11258
0.0024935256,11259
0.0023067521,11260
0.0021398887,11261
0.0018534334,11262
0.0019616405,11263
0.0019316756,11264
0.0019140178,11265
0.0018690875,11266
0.0019404525,11267
0.001877756,11268
0.0017621664,11269
0.0017607493,11270
0.0016742332,11271
0.0015728392,11272
0.0015620121,11273
0.00163053,11274
0.0016252251,11275
0.0022913348,11276
0.004120852,11277
0.0041363495,11278
0.0038454358,11279
0.0031198326,11280
0.0032419672,11281
0.0045572193,11282
0.0072172475,11283
0.006596939,11284
0.006215113,11285
0.0054262877,11286
0.0039638137,11287
0.0037248048,11288
0.004110968,11289
0.0034564831,11290
0.0030595828,11291
0.0031057089,11292
0.0027549686,11293
0.0025368216,11294
0.0024106018,11295
0.0025714904,11296
0.002359748,11297
0.0024528927,11298
0.0027587586,11299
0.0026746425,11300
0.00315272,11301
0.003230037,11302
0.013511782,11303
0.027489018,11304
0.023465795,11305
0.018690744,11306
0.014758289,11307
0.012071477,11308
0.009226478,11309
0.004526315,11310
0.0031947475,11311
0.0026482611,11312
0.0035661028,11313
0.007634304,11314
0.011028368,11315
0.014157866,11316
0.0155504625,11317
0.015645636,11318
0.013247688,11319
0.013143341,11320
0.010017621,11321
0.010887546,11322
0.008895774,11323
0.023993738,11324
0.030371618,11325
0.027298953,11326
0.020775452,11327
0.014903057,11328
0.012273558,11329
0.008758946,11330
0.008970689,11331
0.00755952,11332
0.008550279,11333
0.028861614,11334
0.06440245,11335
0.058666367,11336
0.045816757,11337
0.03608914,11338
0.029924879,11339
0.024067447,11340
0.013116756,11341
0.012675231,11342
0.03631119,11343
0.032977205,11344
0.031806614,11345
0.02985331,11346
0.020268276,11347
0.01721182,11348
0.021161199,11349
0.021528902,11350
0.031180657,11351
0.029739572,11352
0.021226091,11353
0.018007018,11354
0.011917844,11355
0.012220671,11356
0.015052067,11357
0.012828872,11358
0.010691587,11359
0.0116132395,11360
0.011262854,11361
0.010316866,11362
0.017880145,11363
0.025293112,11364
0.025054911,11365
0.023143511,11366
0.022192627,11367
0.020173967,11368
0.021156803,11369
0.020381477,11370
0.020021044,11371
0.016888203,11372
0.022134444,11373
0.03147185,11374
0.022269348,11375
0.018719215,11376
0.013722858,11377
0.008698987,11378
0.011869734,11379
0.02305928,11380
0.019420864,11381
0.018307671,11382
0.014794775,11383
0.012515557,11384
0.013992923,11385
0.015009283,11386
0.014090154,11387
0.015460445,11388
0.01907396,11389
0.024524417,11390
0.02387813,11391
0.022765046,11392
0.021080006,11393
0.020037679,11394
0.019539358,11395
0.021197869,11396
0.018202689,11397
0.017169554,11398
0.015256574,11399
0.012901347,11400
0.011568349,11401
0.011576014,11402
0.010665098,11403
0.01054932,11404
0.089234926,11405
0.089342445,11406
0.066463105,11407
0.038919177,11408
0.022233251,11409
0.01565592,11410
0.0202457,11411
0.020337973,11412
0.02026919,11413
0.02360268,11414
0.017885512,11415
0.013130314,11416
0.011893138,11417
0.011987526,11418
0.010323964,11419
0.029530069,11420
0.028994866,11421
0.013243237,11422
0.011474396,11423
0.012501553,11424
0.012265773,11425
0.019300615,11426
0.022316039,11427
0.024051776,11428
0.016652511,11429
0.051299755,11430
0.034602635,11431
0.025423191,11432
0.01847621,11433
0.023686353,11434
0.019873327,11435
0.025545584,11436
0.024847692,11437
0.09041584,11438
0.07945802,11439
0.036795568,11440
0.017745402,11441
0.02811903,11442
0.034146126,11443
0.044756573,11444
0.045499206,11445
0.042788234,11446
0.026201734,11447
0.01944184,11448
0.013271449,11449
0.014093823,11450
0.013404406,11451
0.032122634,11452
0.045909826,11453
0.038731266,11454
0.03147989,11455
0.027433276,11456
0.024882665,11457
0.023551986,11458
0.019031191,11459
0.01666135,11460
0.017063547,11461
0.019565772,11462
0.017683124,11463
0.017083852,11464
0.018954413,11465
0.020370796,11466
0.014101929,11467
0.011855731,11468
0.011469864,11469
0.018516595,11470
0.014682068,11471
0.016844356,11472
0.016245268,11473
0.017180149,11474
0.016675303,11475
0.017901016,11476
0.018711857,11477
0.022762438,11478
0.04103357,11479
0.033749484,11480
0.030435441,11481
0.03253597,11482
0.028055329,11483
0.02417026,11484
0.025877442,11485
0.023757128,11486
0.022005163,11487
0.023582209,11488
0.024783686,11489
0.023666449,11490
0.017018957,11491
0.01483232,11492
0.015866721,11493
0.017601216,11494
0.017821966,11495
0.015040913,11496
0.01703004,11497
0.020415224,11498
0.022758842,11499
0.017047139,11500
0.01750907,11501
0.014590205,11502
0.010045489,11503
0.01012682,11504
0.01186948,11505
0.011643162,11506
0.013061307,11507
0.013790856,11508
0.012931235,11509
0.0128997825,11510
0.012245397,11511
0.011409597,11512
0.014113473,11513
0.015753979,11514
0.015912157,11515
0.01725058,11516
0.015532008,11517
0.01478738,11518
0.012729028,11519
0.013838748,11520
0.013220346,11521
0.023000428,11522
0.023760894,11523
0.016382648,11524
0.016956009,11525
0.018346168,11526
0.014458744,11527
0.012230437,11528
0.01723432,11529
0.014057903,11530
0.011533001,11531
0.01581553,11532
0.015124871,11533
0.01507093,11534
0.017419038,11535
0.016712429,11536
0.015487304,11537
0.016459905,11538
0.016033605,11539
0.014393625,11540
0.010883974,11541
0.011231365,11542
0.01071244,11543
0.011748142,11544
0.011607794,11545
0.009901957,11546
0.008422558,11547
0.007985503,11548
0.005483421,11549
0.005350838,11550
0.0062683835,11551
0.004027257,11552
0.0039423145,11553
0.0036938111,11554
0.0033356017,11555
0.004317741,11556
0.002934679,11557
0.004269296,11558
0.0041059363,11559
0.0037408613,11560
0.0036280819,11561
0.0038585665,11562
0.003569726,11563
0.00405229,11564
0.0028676032,11565
0.003002834,11566
0.0036839787,11567
0.0032911855,11568
0.0033272563,11569
0.002778964,11570
0.0026357032,11571
0.00251756,11572
0.001997965,11573
0.002086618,11574
0.0020325996,11575
0.0018707563,11576
0.0019628892,11577
0.0023362078,11578
0.0036952086,11579
0.00460013,11580
0.0049058343,11581
0.0050753467,11582
0.005011487,11583
0.0047785533,11584
0.004967712,11585
0.004742195,11586
0.0041802526,11587
0.0036466853,11588
0.00322334,11589
0.0032830026,11590
0.0028888665,11591
0.0023516582,11592
0.002384042,11593
0.002213,11594
0.002614856,11595
0.0025972398,11596
0.002853455,11597
0.0027470565,11598
0.0028484142,11599
0.0028704419,11600
0.0027241507,11601
0.0030015619,11602
0.0027201213,11603
0.0038804088,11604
0.004645915,11605
0.0043856828,11606
0.0041633346,11607
0.0044237524,11608
0.0040447535,11609
0.0038646876,11610
0.0039669103,11611
0.0040229303,11612
0.0034305707,11613
0.0037096783,11614
0.003540099,11615
0.0031678255,11616
0.003106555,11617
0.0028162021,11618
0.0026325919,11619
0.0025118224,11620
0.0025251198,11621
0.0027072637,11622
0.0024500974,11623
0.0023894329,11624
0.0023636369,11625
0.0021497572,11626
0.0020201104,11627
0.0019509712,11628
0.0019489006,11629
0.0019490366,11630
0.0017971979,11631
0.0018273159,11632
0.0019477364,11633
0.001705243,11634
0.0015413073,11635
0.0016435743,11636
0.001615546,11637
0.001418436,11638
0.0014543015,11639
0.0013618142,11640
0.0013243373,11641
0.0011971254,11642
0.0024575135,11643
0.011250974,11644
0.011033941,11645
0.010518331,11646
0.009220756,11647
0.0059365127,11648
0.005132789,11649
0.0056167413,11650
0.0046786214,11651
0.004210497,11652
0.0042707757,11653
0.0030928815,11654
0.0027488333,11655
0.0025532045,11656
0.0026854458,11657
0.002466976,11658
0.0025254516,11659
0.0024486117,11660
0.0017090447,11661
0.0014323778,11662
0.0013824707,11663
0.0012595472,11664
0.0011134339,11665
0.0013139043,11666
0.0016649843,11667
0.002376978,11668
0.0028973098,11669
0.002544982,11670
0.0026417524,11671
0.0025563347,11672
0.0024082193,11673
0.0023317456,11674
0.0022279199,11675
0.002095194,11676
0.0021933524,11677
0.001878592,11678
0.0021676095,11679
0.0019899297,11680
0.001847465,11681
0.0020722172,11682
0.0021344258,11683
0.0038240512,11684
0.0044723237,11685
0.011904517,11686
0.012929002,11687
0.012149877,11688
0.011103908,11689
0.008498703,11690
0.0067983493,11691
0.0068215537,11692
0.0065937876,11693
0.0048062964,11694
0.0052788267,11695
0.003975425,11696
0.00375862,11697
0.004024143,11698
0.004348784,11699
0.004446455,11700
0.0037884242,11701
0.0038212046,11702
0.0032874858,11703
0.003291089,11704
0.0030952534,11705
0.0029387642,11706
0.0029575264,11707
0.02061403,11708
0.03269933,11709
0.030321542,11710
0.026982069,11711
0.023492742,11712
0.016684689,11713
0.015716653,11714
0.017849099,11715
0.011373117,11716
0.012452035,11717
0.010447944,11718
0.00970879,11719
0.008915932,11720
0.00846002,11721
0.009256612,11722
0.008988241,11723
0.009250322,11724
0.0077865333,11725
0.006534726,11726
0.0053107464,11727
0.0053868853,11728
0.0048684743,11729
0.0048813648,11730
0.0051970747,11731
0.03316585,11732
0.041143794,11733
0.038311068,11734
0.035908688,11735
0.027505202,11736
0.01880512,11737
0.017639969,11738
0.018740855,11739
0.012519354,11740
0.016636802,11741
0.013512264,11742
0.010961647,11743
0.0098533975,11744
0.0085376445,11745
0.008910118,11746
0.006903943,11747
0.0070993234,11748
0.0067577804,11749
0.0063329325,11750
0.004760621,11751
0.005131221,11752
0.0044327127,11753
0.0044193515,11754
0.005376099,11755
0.006212755,11756
0.006891203,11757
0.007034065,11758
0.0070797508,11759
0.007767738,11760
0.0072017047,11761
0.0071461955,11762
0.00720676,11763
0.0061122472,11764
0.005669129,11765
0.0060039186,11766
0.004754419,11767
0.00472409,11768
0.0043567778,11769
0.004777632,11770
0.0055692303,11771
0.005206542,11772
0.0050012,11773
0.0046017515,11774
0.0042223516,11775
0.003844224,11776
0.0038910932,11777
0.003448788,11778
0.003472538,11779
0.003813409,11780
0.0037657202,11781
0.004023891,11782
0.003812483,11783
0.004409424,11784
0.0040576477,11785
0.0042455606,11786
0.00317035,11787
0.0072270418,11788
0.017894248,11789
0.024110634,11790
0.02083988,11791
0.019618468,11792
0.017793888,11793
0.013054671,11794
0.010413585,11795
0.008062769,11796
0.008567575,11797
0.009695755,11798
0.009190448,11799
0.009240002,11800
0.009840725,11801
0.008969807,11802
0.009174105,11803
0.007965632,11804
0.008216712,11805
0.00820865,11806
0.008523495,11807
0.008283279,11808
0.008042692,11809
0.0075082877,11810
0.007713268,11811
0.007399792,11812
0.0065178843,11813
0.008754649,11814
0.011752492,11815
0.012966634,11816
0.0128287645,11817
0.013564046,11818
0.012672314,11819
0.011061043,11820
0.01185305,11821
0.011902789,11822
0.011041279,11823
0.01054308,11824
0.014025768,11825
0.015955698,11826
0.015702346,11827
0.017520672,11828
0.024623547,11829
0.019090148,11830
0.02092531,11831
0.026862456,11832
0.028022865,11833
0.029124925,11834
0.0322389,11835
0.03161536,11836
0.039955176,11837
0.055370834,11838
0.047502466,11839
0.03731898,11840
0.033324268,11841
0.031736337,11842
0.029209875,11843
0.023421982,11844
0.024765896,11845
0.034162402,11846
0.040618557,11847
0.03835805,11848
0.03636362,11849
0.031161375,11850
0.030829623,11851
0.029276814,11852
0.023106124,11853
0.018147549,11854
0.016254641,11855
0.016398177,11856
0.02094104,11857
0.032192986,11858
0.04622793,11859
0.038363256,11860
0.030128088,11861
0.022210032,11862
0.014179057,11863
0.011453621,11864
0.014089986,11865
0.009714749,11866
0.009236022,11867
0.009781304,11868
0.007908192,11869
0.008257403,11870
0.007977835,11871
0.008347965,11872
0.010433512,11873
0.010781465,11874
0.008596876,11875
0.009360883,11876
0.008469343,11877
0.008005304,11878
0.008533555,11879
0.008179876,11880
0.025932333,11881
0.03900031,11882
0.03574246,11883
0.033760842,11884
0.031424377,11885
0.025243243,11886
0.026789574,11887
0.029064992,11888
0.036775745,11889
0.04237432,11890
0.036485393,11891
0.030967653,11892
0.030216362,11893
0.026475715,11894
0.02611967,11895
0.02585897,11896
0.02688175,11897
0.024805533,11898
0.021696173,11899
0.020213861,11900
0.017073197,11901
0.015015581,11902
0.014920653,11903
0.013777745,11904
0.012741276,11905
0.0120914765,11906
0.012840762,11907
0.0117816,11908
0.012522573,11909
0.011506285,11910
0.011427705,11911
0.011810294,11912
0.010773616,11913
0.013821737,11914
0.013814025,11915
0.013455965,11916
0.013205081,11917
0.011125559,11918
0.010601422,11919
0.01074165,11920
0.010583265,11921
0.010775348,11922
0.0107985,11923
0.016531711,11924
0.015241952,11925
0.01520435,11926
0.014646749,11927
0.014436687,11928
0.012684156,11929
0.01263537,11930
0.012386885,11931
0.011047977,11932
0.009190294,11933
0.027930742,11934
0.027077744,11935
0.023631053,11936
0.02020795,11937
0.01803807,11938
0.018098764,11939
0.018303882,11940
0.018751195,11941
0.019186102,11942
0.017487166,11943
0.015354592,11944
0.016529253,11945
0.015430724,11946
0.018425629,11947
0.015444971,11948
0.016007805,11949
0.014673611,11950
0.01344033,11951
0.0134553965,11952
0.022180041,11953
0.026820188,11954
0.023920367,11955
0.025150424,11956
0.03316668,11957
0.032524306,11958
0.04104739,11959
0.036884904,11960
0.037881095,11961
0.033096645,11962
0.030128717,11963
0.027315643,11964
0.028185003,11965
0.02697119,11966
0.026516927,11967
0.022148306,11968
0.017197492,11969
0.01416311,11970
0.014193916,11971
0.014625589,11972
0.01495691,11973
0.013534338,11974
0.012077905,11975
0.021435114,11976
0.03317448,11977
0.029814465,11978
0.025193248,11979
0.020631839,11980
0.020567168,11981
0.020389544,11982
0.019756801,11983
0.020880124,11984
0.021929732,11985
0.019673295,11986
0.018099183,11987
0.017821493,11988
0.01776001,11989
0.017281312,11990
0.04537043,11991
0.05623685,11992
0.04783893,11993
0.04555307,11994
0.04196054,11995
0.034440998,11996
0.036574326,11997
0.037421793,11998
0.03524317,11999
0.055728402,12000
0.102083005,12001
0.093669176,12002
0.08337059,12003
0.082940675,12004
0.08315836,12005
0.07012443,12006
0.06737496,12007
0.08581174,12008
0.08383693,12009
0.07228963,12010
0.061367303,12011
0.055780172,12012
0.054133,12013
0.043400776,12014
0.07535791,12015
0.07748682,12016
0.06749664,12017
0.06949752,12018
0.054464184,12019
0.040882878,12020
0.050316785,12021
0.09515108,12022
0.17136902,12023
0.13530944,12024
0.10188522,12025
0.08119304,12026
0.0702058,12027
0.053027857,12028
0.032303996,12029
0.027569858,12030
0.02414258,12031
0.029868893,12032
0.0277581,12033
0.02576644,12034
0.025798528,12035
0.049988348,12036
0.053720906,12037
0.056157153,12038
0.060124785,12039
0.042074855,12040
0.038226597,12041
0.029698562,12042
0.02306605,12043
0.01893499,12044
0.01792388,12045
0.022883564,12046
0.03175401,12047
0.029941384,12048
0.030219505,12049
0.027200071,12050
0.02157264,12051
0.021907596,12052
0.019248614,12053
0.019833144,12054
0.018414142,12055
0.01597884,12056
0.015635287,12057
0.013292724,12058
0.015146961,12059
0.015221627,12060
0.019394584,12061
0.017157597,12062
0.015786305,12063
0.017639479,12064
0.015730523,12065
0.016041363,12066
0.01648098,12067
0.016716642,12068
0.015559051,12069
0.015094166,12070
0.016869802,12071
0.01518312,12072
0.0127613675,12073
0.014074669,12074
0.013616247,12075
0.013051498,12076
0.01226537,12077
0.014098003,12078
0.014601391,12079
0.030950766,12080
0.058697876,12081
0.057943914,12082
0.048383933,12083
0.044539254,12084
0.031277176,12085
0.027399577,12086
0.033940393,12087
0.024713188,12088
0.027303038,12089
0.025303109,12090
0.037111066,12091
0.05199664,12092
0.04520275,12093
0.043354794,12094
0.031976063,12095
0.02193206,12096
0.021631952,12097
0.026951272,12098
0.031213721,12099
0.031073816,12100
0.027966361,12101
0.023630194,12102
0.024727028,12103
0.025501974,12104
0.025814597,12105
0.022117415,12106
0.01846892,12107
0.01956927,12108
0.020934377,12109
0.0410869,12110
0.05825557,12111
0.052718177,12112
0.040996935,12113
0.03916604,12114
0.033828404,12115
0.03672454,12116
0.034325,12117
0.028837236,12118
0.029181458,12119
0.026286794,12120
0.024971208,12121
0.027146995,12122
0.024797874,12123
0.02286704,12124
0.023218155,12125
0.019085392,12126
0.017311845,12127
0.015963525,12128
0.01404634,12129
0.013840392,12130
0.012602956,12131
0.013467944,12132
0.011851502,12133
0.011712874,12134
0.00986914,12135
0.010389899,12136
0.01061049,12137
0.009771477,12138
0.009314535,12139
0.010863358,12140
0.010237629,12141
0.01535768,12142
0.02203491,12143
0.020232184,12144
0.018311495,12145
0.018369619,12146
0.017586574,12147
0.0165452,12148
0.015952252,12149
0.017578062,12150
0.027142996,12151
0.061189886,12152
0.05786119,12153
0.050222613,12154
0.0505713,12155
0.044930488,12156
0.046229172,12157
0.043573163,12158
0.03757388,12159
0.034287374,12160
0.033289187,12161
0.02832992,12162
0.02541881,12163
0.02582311,12164
0.02257129,12165
0.01809507,12166
0.019600162,12167
0.03756269,12168
0.042473454,12169
0.04175539,12170
0.037892908,12171
0.029815072,12172
0.03126848,12173
0.031113451,12174
0.030628506,12175
0.027766393,12176
0.026727732,12177
0.025980182,12178
0.026067566,12179
0.029156363,12180
0.027891207,12181
0.021022953,12182
0.01659018,12183
0.04415346,12184
0.083160564,12185
0.04644838,12186
0.0306518,12187
0.020529557,12188
0.020677283,12189
0.03705255,12190
0.030568747,12191
0.037377864,12192
0.03253791,12193
0.0269819,12194
0.02252399,12195
0.023087714,12196
0.019165456,12197
0.015062086,12198
0.013551442,12199
0.013803497,12200
0.014406291,12201
0.0151080815,12202
0.014966033,12203
0.014388078,12204
0.013029944,12205
0.019598443,12206
0.023304395,12207
0.023025705,12208
0.01960135,12209
0.0205444,12210
0.021461923,12211
0.042564183,12212
0.052443855,12213
0.056718007,12214
0.057039864,12215
0.04546019,12216
0.03954903,12217
0.03211086,12218
0.030011259,12219
0.029297316,12220
0.021735668,12221
0.027593106,12222
0.03777515,12223
0.035017747,12224
0.03660067,12225
0.06949809,12226
0.064957,12227
0.059512597,12228
0.054878257,12229
0.041480366,12230
0.034416668,12231
0.03535007,12232
0.034839153,12233
0.03396838,12234
0.04662641,12235
0.048474517,12236
0.033533104,12237
0.031632107,12238
0.024765596,12239
0.023402994,12240
0.024139084,12241
0.04221518,12242
0.046845753,12243
0.042866338,12244
0.037075147,12245
0.03136567,12246
0.033839434,12247
0.034336384,12248
0.030159036,12249
0.028113233,12250
0.028178876,12251
0.045452483,12252
0.061237838,12253
0.058710314,12254
0.046719644,12255
0.041823335,12256
0.035302002,12257
0.035523973,12258
0.03646902,12259
0.02894653,12260
0.027632995,12261
0.027013853,12262
0.025535945,12263
0.026676144,12264
0.025202693,12265
0.026269741,12266
0.028160742,12267
0.022370163,12268
0.021021444,12269
0.020547463,12270
0.018764673,12271
0.015782328,12272
0.016551131,12273
0.018074883,12274
0.015865477,12275
0.016780563,12276
0.015845696,12277
0.015403932,12278
0.015318766,12279
0.015827766,12280
0.013628664,12281
0.015316394,12282
0.019636251,12283
0.026514906,12284
0.027162494,12285
0.0234528,12286
0.022348609,12287
0.021840228,12288
0.020111302,12289
0.02003054,12290
0.027705353,12291
0.08256344,12292
0.08274671,12293
0.07446478,12294
0.07096066,12295
0.06553134,12296
0.06363332,12297
0.06116828,12298
0.05612076,12299
0.050726987,12300
0.04757364,12301
0.042988148,12302
0.039255816,12303
0.03728372,12304
0.031182457,12305
0.02849514,12306
0.026671391,12307
0.042014077,12308
0.05684771,12309
0.052061506,12310
0.044284675,12311
0.040565312,12312
0.04037876,12313
0.03615565,12314
0.038954727,12315
0.039245926,12316
0.032663845,12317
0.03351101,12318
0.03452166,12319
0.028160196,12320
0.029877959,12321
0.027567249,12322
0.026138736,12323
0.026094703,12324
0.06539174,12325
0.31224182,12326
0.22309765,12327
0.09514896,12328
0.04869257,12329
0.08785897,12330
0.113455646,12331
0.12946035,12332
0.110007,12333
0.06354982,12334
0.029485274,12335
0.02100799,12336
0.030156145,12337
0.027523149,12338
0.016143085,12339
0.02431127,12340
0.028700814,12341
0.032960378,12342
0.03414505,12343
0.02645073,12344
0.019001171,12345
0.018215304,12346
0.013927218,12347
0.018450193,12348
0.02149757,12349
0.017636823,12350
0.014253789,12351
0.012569542,12352
0.012422539,12353
0.015097435,12354
0.017208014,12355
0.015265785,12356
0.014282343,12357
0.012383501,12358
0.014743952,12359
0.014036902,12360
0.014329326,12361
0.013587357,12362
0.012888356,12363
0.0124995075,12364
0.012313243,12365
0.012579548,12366
0.06408587,12367
0.14387628,12368
0.11359343,12369
0.08270677,12370
0.05976323,12371
0.05775477,12372
0.04491579,12373
0.031030849,12374
0.01982853,12375
0.015070786,12376
0.0174405,12377
0.025817975,12378
0.013972693,12379
0.029024178,12380
0.03746019,12381
0.020157494,12382
0.021582125,12383
0.023379384,12384
0.023533328,12385
0.02132408,12386
0.020714343,12387
0.0265722,12388
0.021990322,12389
0.019447692,12390
0.024620932,12391
0.034827836,12392
0.049111687,12393
0.053514108,12394
0.04666078,12395
0.04031004,12396
0.034854006,12397
0.03138358,12398
0.031465385,12399
0.026804391,12400
0.026618175,12401
0.032618076,12402
0.034181364,12403
0.04225333,12404
0.066378914,12405
0.060847864,12406
0.05265738,12407
0.048855823,12408
0.035577975,12409
0.03136462,12410
0.03522623,12411
0.025073407,12412
0.023988826,12413
0.023136301,12414
0.018272268,12415
0.018924331,12416
0.018517181,12417
0.017901946,12418
0.017655853,12419
0.016031988,12420
0.030300882,12421
0.034542978,12422
0.035131432,12423
0.028699374,12424
0.025554033,12425
0.02433638,12426
0.025890006,12427
0.027773583,12428
0.021930022,12429
0.018999776,12430
0.019203478,12431
0.019914763,12432
0.017685568,12433
0.01663088,12434
0.016758226,12435
0.015993338,12436
0.014791104,12437
0.0145997675,12438
0.013818981,12439
0.013494958,12440
0.018407429,12441
0.029268691,12442
0.027044158,12443
0.027766725,12444
0.025573816,12445
0.027151136,12446
0.020653337,12447
0.021250691,12448
0.019645846,12449
0.016825708,12450
0.017508935,12451
0.013050709,12452
0.012761332,12453
0.01268892,12454
0.010425415,12455
0.010172821,12456
0.010646744,12457
0.008685588,12458
0.008811756,12459
0.008817892,12460
0.007075023,12461
0.006681417,12462
0.0055005224,12463
0.0050149877,12464
0.0057549914,12465
0.00657234,12466
0.0064455806,12467
0.0057270783,12468
0.0056466763,12469
0.0052784365,12470
0.0051727165,12471
0.0050862473,12472
0.004661383,12473
0.0048052478,12474
0.0045538247,12475
0.004615629,12476
0.0048962003,12477
0.0043114326,12478
0.004386307,12479
0.004169713,12480
0.004766484,12481
0.0062916866,12482
0.006562291,12483
0.0068661463,12484
0.0063872915,12485
0.0058840886,12486
0.0055817524,12487
0.0054297135,12488
0.0048550433,12489
0.0048623215,12490
0.004445183,12491
0.0039900676,12492
0.0070394226,12493
0.011804866,12494
0.011544053,12495
0.012007636,12496
0.010553093,12497
0.010021521,12498
0.009445082,12499
0.0091812555,12500
0.009792752,12501
0.008614984,12502
0.0077516916,12503
0.0074864877,12504
0.006277044,12505
0.007934166,12506
0.01469478,12507
0.015898457,12508
0.015341101,12509
0.014519485,12510
0.013232882,12511
0.0116940085,12512
0.011701408,12513
0.012201889,12514
0.012426882,12515
0.011049914,12516
0.011112688,12517
0.009913785,12518
0.009549863,12519
0.011140945,12520
0.012789044,12521
0.010766812,12522
0.011023663,12523
0.011146588,12524
0.01105211,12525
0.010707495,12526
0.009902687,12527
0.00958626,12528
0.008963358,12529
0.008274922,12530
0.0074665635,12531
0.007068734,12532
0.0069104107,12533
0.006291909,12534
0.005685344,12535
0.006080021,12536
0.0061778915,12537
0.0056987996,12538
0.005324294,12539
0.006289269,12540
0.011624246,12541
0.011947173,12542
0.009710576,12543
0.008681954,12544
0.009550299,12545
0.009470029,12546
0.010431851,12547
0.010308609,12548
0.008718194,12549
0.008688918,12550
0.009613138,12551
0.009319471,12552
0.00903885,12553
0.008247767,12554
0.007753233,12555
0.006794911,12556
0.006846836,12557
0.0070027453,12558
0.0063390704,12559
0.0059946924,12560
0.0049284296,12561
0.0041519976,12562
0.0042305347,12563
0.003977308,12564
0.0037720525,12565
0.003736487,12566
0.0034877425,12567
0.0032612314,12568
0.0028178627,12569
0.0030583995,12570
0.0025662663,12571
0.0026822416,12572
0.0029423195,12573
0.0025849943,12574
0.0023966827,12575
0.0030870368,12576
0.004592001,12577
0.00533369,12578
0.0058571007,12579
0.005481011,12580
0.005474467,12581
0.0055657313,12582
0.0053368723,12583
0.0054020495,12584
0.0044550337,12585
0.0044160364,12586
0.0036142925,12587
0.0035019172,12588
0.003065902,12589
0.002946985,12590
0.0034909,12591
0.0029905476,12592
0.0027547982,12593
0.0032347555,12594
0.0031004613,12595
0.0032695755,12596
0.0031496529,12597
0.003202208,12598
0.0032317638,12599
0.00309332,12600
0.002910401,12601
0.0027088465,12602
0.0029213952,12603
0.002538366,12604
0.0036655583,12605
0.0047337627,12606
0.0046347785,12607
0.004298113,12608
0.0041100373,12609
0.0040523843,12610
0.0039147446,12611
0.0035479998,12612
0.00378092,12613
0.003376202,12614
0.0034676534,12615
0.003381137,12616
0.003026178,12617
0.0029528623,12618
0.0027791339,12619
0.002559399,12620
0.0026234535,12621
0.0031681175,12622
0.002614303,12623
0.0023200226,12624
0.002552055,12625
0.002434828,12626
0.0023409342,12627
0.002269465,12628
0.0022219943,12629
0.0021976263,12630
0.0022670305,12631
0.001977425,12632
0.0019310929,12633
0.0020837772,12634
0.0017849052,12635
0.0017065696,12636
0.0017645532,12637
0.0016918611,12638
0.0015146249,12639
0.0015980675,12640
0.0015460134,12641
0.0014728646,12642
0.0015320905,12643
0.0013886235,12644
0.0013239179,12645
0.0014218765,12646
0.0013642829,12647
0.0011927524,12648
0.0013511662,12649
0.0012647707,12650
0.0011766284,12651
0.0011779376,12652
0.0012221901,12653
0.001074985,12654
0.008867962,12655
0.023387136,12656
0.022902582,12657
0.023518322,12658
0.023508819,12659
0.021691864,12660
0.017831612,12661
0.018564396,12662
0.015670536,12663
0.014905913,12664
0.014523506,12665
0.011329241,12666
0.011540333,12667
0.010602978,12668
0.009114604,12669
0.008085046,12670
0.008440286,12671
0.0071769636,12672
0.0065078307,12673
0.007212252,12674
0.0060377833,12675
0.0045281867,12676
0.0041980892,12677
0.0042889635,12678
0.003998428,12679
0.004166616,12680
0.0037834907,12681
0.0030105384,12682
0.0030429615,12683
0.003283193,12684
0.00269972,12685
0.002679476,12686
0.0026478067,12687
0.0024569614,12688
0.0032389688,12689
0.003470201,12690
0.0031644905,12691
0.0030632333,12692
0.0027406944,12693
0.0026187864,12694
0.0029252402,12695
0.0028149392,12696
0.0028238683,12697
0.0026538975,12698
0.0026924703,12699
0.002578837,12700
0.0025781407,12701
0.002424559,12702
0.002431779,12703
0.0024429762,12704
0.002365212,12705
0.0022800893,12706
0.0032447798,12707
0.004265573,12708
0.004486853,12709
0.0045135636,12710
0.0036527435,12711
0.004173759,12712
0.003939895,12713
0.003752331,12714
0.0040726834,12715
0.0039893053,12716
0.0034633395,12717
0.0034842535,12718
0.0032392282,12719
0.0030596133,12720
0.003080241,12721
0.0036807263,12722
0.003737207,12723
0.0033711882,12724
0.0030393433,12725
0.0036552418,12726
0.0038919467,12727
0.0034593516,12728
0.003371764,12729
0.0038551383,12730
0.0034917037,12731
0.0029387726,12732
0.003231798,12733
0.0034239986,12734
0.0032697225,12735
0.0028546327,12736
0.0040906356,12737
0.0057531553,12738
0.0054085106,12739
0.004794814,12740
0.0051442944,12741
0.004928493,12742
0.004665644,12743
0.0045803254,12744
0.0040145945,12745
0.003915389,12746
0.0038201127,12747
0.0037847867,12748
0.0041189105,12749
0.003968687,12750
0.0038055782,12751
0.0038624043,12752
0.0035394188,12753
0.0033685328,12754
0.003271318,12755
0.00327168,12756
0.0044634994,12757
0.003889864,12758
0.0037042699,12759
0.0035695704,12760
0.0034014415,12761
0.0038942927,12762
0.0033404836,12763
0.003475206,12764
0.0038236552,12765
0.003968232,12766
0.0041182144,12767
0.0041731345,12768
0.0033460082,12769
0.004226086,12770
0.004076728,12771
0.0033266714,12772
0.0037590803,12773
0.0035541814,12774
0.0038190277,12775
0.004233563,12776
0.0031178878,12777
0.003943711,12778
0.003965121,12779
0.0033572465,12780
0.0035555398,12781
0.0034461059,12782
0.003319756,12783
0.0038231462,12784
0.0052863504,12785
0.00500484,12786
0.0045154425,12787
0.0050959303,12788
0.0045383666,12789
0.006160589,12790
0.0055979784,12791
0.0047678184,12792
0.0051341406,12793
0.004220501,12794
0.0047006994,12795
0.0041979332,12796
0.0035484189,12797
0.0033724154,12798
0.002543769,12799
0.0022944298,12800
0.0022290838,12801
0.0020877211,12802
0.0019490822,12803
0.00184012,12804
0.0017098772,12805
0.0018001179,12806
0.0024422926,12807
0.0028034658,12808
0.002362205,12809
0.0022210893,12810
0.0024693569,12811
0.0021369962,12812
0.0021104673,12813
0.0023014632,12814
0.0019321427,12815
0.0020618301,12816
0.0020640872,12817
0.0019191242,12818
0.0019836777,12819
0.0022105668,12820
0.0027901211,12821
0.0041427705,12822
0.004225466,12823
0.004123257,12824
0.004094324,12825
0.00413437,12826
0.00414587,12827
0.0038102258,12828
0.003719384,12829
0.0031690556,12830
0.002919137,12831
0.0026372992,12832
0.0022687714,12833
0.002264941,12834
0.0021833568,12835
0.0025807663,12836
0.0024566413,12837
0.0022103256,12838
0.0023641484,12839
0.0022308223,12840
0.0024775576,12841
0.0022740667,12842
0.0021288109,12843
0.0025043797,12844
0.0020528513,12845
0.0018424775,12846
0.0021024563,12847
0.0018501426,12848
0.0017941106,12849
0.001753601,12850
0.0024626576,12851
0.0049739936,12852
0.004615647,12853
0.0043829144,12854
0.0048247757,12855
0.004534278,12856
0.004184979,12857
0.004070236,12858
0.0041401354,12859
0.0038663314,12860
0.0038336383,12861
0.0038002005,12862
0.003368039,12863
0.0028877626,12864
0.0027854159,12865
0.0024480638,12866
0.0021625287,12867
0.001954432,12868
0.0018068202,12869
0.0019377265,12870
0.0018597802,12871
0.0020508233,12872
0.0018549789,12873
0.0016931226,12874
0.0017088805,12875
0.0017114383,12876
0.0015417517,12877
0.0016402927,12878
0.0015486452,12879
0.0014575227,12880
0.0014815581,12881
0.0013625646,12882
0.0013789885,12883
0.001352622,12884
0.0012380229,12885
0.0012905962,12886
0.0012772172,12887
0.0013385284,12888
0.0012105495,12889
0.0012401117,12890
0.0013314423,12891
0.0012059208,12892
0.0012278364,12893
0.0012700846,12894
0.0011898364,12895
0.001189361,12896
0.0012816935,12897
0.0011986794,12898
0.0019098702,12899
0.003215525,12900
0.0032265207,12901
0.00274614,12902
0.0027711787,12903
0.006665456,12904
0.008539329,12905
0.008418649,12906
0.0088983225,12907
0.0091152275,12908
0.007846366,12909
0.0071884017,12910
0.007282575,12911
0.006100206,12912
0.006203532,12913
0.0059443023,12914
0.004743076,12915
0.0044979886,12916
0.0045316694,12917
0.0034149892,12918
0.0041104015,12919
0.005516451,12920
0.0068710074,12921
0.0075524487,12922
0.008037484,12923
0.0077374713,12924
0.006791621,12925
0.006671031,12926
0.004686375,12927
0.0037809839,12928
0.0038443361,12929
0.0072179376,12930
0.012167585,12931
0.011708214,12932
0.008584567,12933
0.007029253,12934
0.0045010513,12935
0.0042346725,12936
0.0057327705,12937
0.015789056,12938
0.022768887,12939
0.015729504,12940
0.009578223,12941
0.0067415047,12942
0.004576352,12943
0.0046949927,12944
0.0053242655,12945
0.0031316418,12946
0.005088671,12947
0.0066614114,12948
0.008469297,12949
0.008531518,12950
0.00817657,12951
0.012613076,12952
0.011842544,12953
0.0102656735,12954
0.008298687,12955
0.00791709,12956
0.0071314475,12957
0.0050196354,12958
0.0046025594,12959
0.004817155,12960
0.004499109,12961
0.0042653237,12962
0.0037834314,12963
0.0035398726,12964
0.003962514,12965
0.0037046387,12966
0.0038389303,12967
0.0039162682,12968
0.004264095,12969
0.0048484127,12970
0.00435333,12971
0.003853232,12972
0.0037894503,12973
0.00411051,12974
0.0038849905,12975
0.0042368816,12976
0.00472975,12977
0.0050035445,12978
0.004733777,12979
0.004662321,12980
0.004510593,12981
0.0040409104,12982
0.0033878882,12983
0.0030275092,12984
0.0034615137,12985
0.0054035536,12986
0.005038527,12987
0.004743992,12988
0.004333195,12989
0.0042185592,12990
0.004237647,12991
0.0039195847,12992
0.0035594613,12993
0.0035305652,12994
0.0032774205,12995
0.0033612412,12996
0.0034011821,12997
0.0031686537,12998
0.0032368987,12999
0.0032013794,13000
0.002765149,13001
0.0029573084,13002
0.0026619374,13003
0.0026845813,13004
0.002585174,13005
0.0023030902,13006
0.0027179513,13007
0.005317687,13008
0.005481988,13009
0.0055670626,13010
0.00594476,13011
0.005453491,13012
0.005047193,13013
0.004907249,13014
0.0052532125,13015
0.0059679355,13016
0.005226176,13017
0.005263929,13018
0.004762317,13019
0.0049651144,13020
0.0052263574,13021
0.0044561066,13022
0.004227259,13023
0.004538326,13024
0.004155265,13025
0.004044272,13026
0.0043960214,13027
0.0038665477,13028
0.0037539925,13029
0.004093127,13030
0.0032310365,13031
0.0037466348,13032
0.0035958306,13033
0.0030778642,13034
0.003448464,13035
0.0033954498,13036
0.0030624538,13037
0.0032227533,13038
0.0029278207,13039
0.0031195048,13040
0.0045659016,13041
0.0028866073,13042
0.0041220384,13043
0.0028368654,13044
0.002551083,13045
0.002883643,13046
0.0030264538,13047
0.002969384,13048
0.003030863,13049
0.0025388333,13050
0.0029975825,13051
0.0030881404,13052
0.002954645,13053
0.0034099338,13054
0.002996576,13055
0.0027466977,13056
0.0027207187,13057
0.0028138426,13058
0.0027891353,13059
0.002509781,13060
0.0021937133,13061
0.0018760946,13062
0.0015718059,13063
0.0014127415,13064
0.0011754966,13065
0.0010086085,13066
0.0010719913,13067
0.0013804436,13068
0.0012948067,13069
0.0013197176,13070
0.0012873829,13071
0.001254362,13072
0.0011330557,13073
0.0011977509,13074
0.0011224282,13075
0.0012529601,13076
0.0012343071,13077
0.0011518686,13078
0.0013079856,13079
0.0011992697,13080
0.0011470242,13081
0.0011795586,13082
0.001501911,13083
0.0032318493,13084
0.0038345994,13085
0.0042469413,13086
0.0041316273,13087
0.0041152188,13088
0.004058761,13089
0.0040357346,13090
0.0040473137,13091
0.0033013488,13092
0.0030666362,13093
0.002789272,13094
0.0022343884,13095
0.0020070674,13096
0.0015937048,13097
0.0019725522,13098
0.0021054752,13099
0.001997533,13100
0.0021093322,13101
0.0020169644,13102
0.001966869,13103
0.0021330232,13104
0.0020081517,13105
0.0020384842,13106
0.0018885474,13107
0.0017442881,13108
0.0017546709,13109
0.0016443547,13110
0.0015908675,13111
0.0014928542,13112
0.0014490639,13113
0.0015051148,13114
0.0013889293,13115
0.0014818755,13116
0.0033186502,13117
0.0034141329,13118
0.0031697506,13119
0.0032762697,13120
0.003313775,13121
0.0029240684,13122
0.0030221513,13123
0.0029949413,13124
0.0027241956,13125
0.0027027845,13126
0.002844307,13127
0.002547424,13128
0.0022210998,13129
0.0021534034,13130
0.001906794,13131
0.0016128859,13132
0.0016336843,13133
0.0014857879,13134
0.0014062553,13135
0.0012767552,13136
0.0014687735,13137
0.0015670335,13138
0.001372279,13139
0.0013546789,13140
0.001275991,13141
0.0012170373,13142
0.0013389001,13143
0.001293751,13144
0.0011638696,13145
0.0011680175,13146
0.0011309956,13147
0.0011093607,13148
0.001063212,13149
0.0010638642,13150
0.0010887048,13151
9.44657E-4,13152
0.0010799645,13153
9.593388E-4,13154
9.0370135E-4,13155
0.0010267186,13156
8.8681275E-4,13157
8.88675E-4,13158
9.251709E-4,13159
7.6485204E-4,13160
7.73823E-4,13161
8.450918E-4,13162
7.165452E-4,13163
7.653153E-4,13164
7.8881544E-4,13165
7.418063E-4,13166
7.3467277E-4,13167
7.101327E-4,13168
7.462073E-4,13169
6.7927164E-4,13170
6.8502617E-4,13171
6.603602E-4,13172
6.0098653E-4,13173
6.424493E-4,13174
6.3918694E-4,13175
5.6394323E-4,13176
6.05715E-4,13177
5.781257E-4,13178
5.4433395E-4,13179
5.570428E-4,13180
5.4802746E-4,13181
5.76502E-4,13182
5.404714E-4,13183
5.814169E-4,13184
5.402032E-4,13185
4.7241242E-4,13186
4.9349834E-4,13187
5.0182315E-4,13188
4.715781E-4,13189
5.2215956E-4,13190
0.029438606,13191
0.0545793,13192
0.051160365,13193
0.049148392,13194
0.040234882,13195
0.03675996,13196
0.02872476,13197
0.02952613,13198
0.034659743,13199
0.030933421,13200
0.024580361,13201
0.016516553,13202
0.017863372,13203
0.019374322,13204
0.019031892,13205
0.021120228,13206
0.02071563,13207
0.022078352,13208
0.021679614,13209
0.022921393,13210
0.02007896,13211
0.019673508,13212
0.018836588,13213
0.01757623,13214
0.016002413,13215
0.013906595,13216
0.01389606,13217
0.015049966,13218
0.014165073,13219
0.014299839,13220
0.013471001,13221
0.012479789,13222
0.011581466,13223
0.0100321015,13224
0.0093786605,13225
0.008675084,13226
0.0082709,13227
0.006681684,13228
0.006045677,13229
0.0054231468,13230
0.00513489,13231
0.0053809457,13232
0.011622898,13233
0.022056995,13234
0.020101765,13235
0.020550704,13236
0.020019984,13237
0.018319558,13238
0.016848536,13239
0.015847843,13240
0.0159459,13241
0.016432704,13242
0.014468388,13243
0.013734156,13244
0.013730522,13245
0.014223991,13246
0.013488469,13247
0.013097168,13248
0.01265915,13249
0.011521447,13250
0.011402905,13251
0.011136332,13252
0.010551846,13253
0.009606178,13254
0.010338382,13255
0.016658347,13256
0.027651494,13257
0.026333744,13258
0.027048495,13259
0.024287106,13260
0.022523731,13261
0.023798525,13262
0.024404462,13263
0.021217272,13264
0.021041999,13265
0.020432089,13266
0.020222995,13267
0.021440817,13268
0.018640706,13269
0.017546326,13270
0.018125772,13271
0.017163103,13272
0.020492924,13273
0.02817835,13274
0.027549667,13275
0.028474612,13276
0.02759007,13277
0.025050921,13278
0.025668401,13279
0.023070946,13280
0.023220737,13281
0.021704203,13282
0.019988583,13283
0.019457925,13284
0.018766996,13285
0.016958818,13286
0.021387301,13287
0.04226889,13288
0.0430611,13289
0.04042051,13290
0.0411092,13291
0.03581252,13292
0.034408152,13293
0.034613628,13294
0.031781644,13295
0.030559111,13296
0.028759344,13297
0.028812287,13298
0.026487496,13299
0.026167851,13300
0.04795177,13301
0.05661167,13302
0.047690902,13303
0.043473825,13304
0.042411845,13305
0.04011402,13306
0.038066443,13307
0.035244793,13308
0.029771263,13309
0.02886764,13310
0.026985358,13311
0.025610277,13312
0.025360918,13313
0.02472874,13314
0.02331489,13315
0.022162396,13316
0.021297632,13317
0.019978829,13318
0.025714193,13319
0.046483234,13320
0.048922196,13321
0.043732703,13322
0.038982272,13323
0.035499196,13324
0.032735053,13325
0.03361547,13326
0.029883396,13327
0.031230858,13328
0.028946446,13329
0.028635584,13330
0.0297481,13331
0.026727803,13332
0.02582609,13333
0.026366418,13334
0.02282937,13335
0.021839505,13336
0.023301827,13337
0.02071614,13338
0.021996152,13339
0.022949819,13340
0.02107382,13341
0.058373306,13342
0.076192945,13343
0.06276549,13344
0.0488011,13345
0.040047374,13346
0.02891312,13347
0.023110302,13348
0.022377659,13349
0.01660693,13350
0.019107787,13351
0.021583227,13352
0.021648245,13353
0.021586848,13354
0.01851171,13355
0.019546203,13356
0.015749987,13357
0.015727047,13358
0.018302713,13359
0.020018077,13360
0.016779074,13361
0.013892572,13362
0.010977959,13363
0.010111995,13364
0.011459484,13365
0.014882695,13366
0.049779847,13367
0.11105733,13368
0.090338446,13369
0.06976475,13370
0.05533026,13371
0.03574523,13372
0.029998066,13373
0.027366625,13374
0.018895946,13375
0.019132543,13376
0.022238597,13377
0.03213771,13378
0.030077059,13379
0.023505514,13380
0.029037489,13381
0.024479657,13382
0.021894414,13383
0.021687008,13384
0.02801472,13385
0.027022624,13386
0.021270242,13387
0.044976957,13388
0.07758229,13389
0.06252068,13390
0.050214667,13391
0.04140503,13392
0.03118611,13393
0.02854753,13394
0.029112838,13395
0.021082692,13396
0.018919075,13397
0.021218011,13398
0.016520385,13399
0.015562245,13400
0.015774284,13401
0.018048115,13402
0.017602537,13403
0.026081305,13404
0.046847455,13405
0.05591203,13406
0.046760514,13407
0.0446346,13408
0.037376493,13409
0.040024344,13410
0.039173078,13411
0.0325773,13412
0.026869709,13413
0.025569832,13414
0.025041688,13415
0.03490462,13416
0.05803514,13417
0.06642339,13418
0.06462825,13419
0.063748404,13420
0.055773098,13421
0.050138004,13422
0.043733314,13423
0.035749733,13424
0.030597592,13425
0.02802882,13426
0.028763127,13427
0.053336095,13428
0.061402507,13429
0.06255706,13430
0.058045816,13431
0.054463286,13432
0.050248295,13433
0.046021573,13434
0.04575087,13435
0.043643042,13436
0.04054736,13437
0.036779158,13438
0.035002664,13439
0.033946395,13440
0.05957507,13441
0.059888773,13442
0.052304782,13443
0.055105828,13444
0.05086962,13445
0.045502044,13446
0.04925792,13447
0.044284172,13448
0.03713897,13449
0.03737934,13450
0.03445304,13451
0.034838837,13452
0.03766929,13453
0.03768068,13454
0.05063904,13455
0.05534295,13456
0.05540305,13457
0.05073428,13458
0.050751626,13459
0.04536997,13460
0.04424735,13461
0.046707787,13462
0.038519032,13463
0.038626216,13464
0.040092893,13465
0.034063797,13466
0.032440517,13467
0.03415611,13468
0.02964856,13469
0.03499618,13470
0.0405043,13471
0.034947366,13472
0.03640294,13473
0.03192362,13474
0.029262403,13475
0.028252462,13476
0.029143529,13477
0.0278287,13478
0.026361551,13479
0.023847204,13480
0.02409237,13481
0.022624996,13482
0.018145967,13483
0.01774832,13484
0.018053263,13485
0.01610741,13486
0.015015288,13487
0.014282045,13488
0.014055076,13489
0.017267218,13490
0.020622278,13491
0.020003695,13492
0.019911617,13493
0.017022097,13494
0.017114807,13495
0.019134073,13496
0.017384946,13497
0.015279373,13498
0.016228648,13499
0.015092781,13500
0.014098359,13501
0.013622973,13502
0.01394567,13503
0.014313024,13504
0.013770652,13505
0.012263354,13506
0.012157403,13507
0.010477049,13508
0.010707718,13509
0.010704876,13510
0.009937536,13511
0.009730309,13512
0.010101728,13513
0.009119666,13514
0.009351492,13515
0.008556683,13516
0.0086969305,13517
0.008490413,13518
0.010710297,13519
0.011715232,13520
0.011758728,13521
0.009970967,13522
0.010367948,13523
0.009677027,13524
0.009301099,13525
0.009081011,13526
0.008655239,13527
0.007763549,13528
0.007731312,13529
0.0068894043,13530
0.006707979,13531
0.0062280237,13532
0.005413797,13533
0.004978904,13534
0.0046563866,13535
0.004893381,13536
0.0044922843,13537
0.004391591,13538
0.0042545125,13539
0.004322393,13540
0.004123061,13541
0.0038565747,13542
0.003939969,13543
0.0039133797,13544
0.003900379,13545
0.003404344,13546
0.0032590397,13547
0.0033705805,13548
0.0034151468,13549
0.0030418558,13550
0.002967539,13551
0.0029706685,13552
0.0030496318,13553
0.0027795283,13554
0.002856596,13555
0.0027493602,13556
0.0029194206,13557
0.0027063517,13558
0.0024583098,13559
0.0026171855,13560
0.002586576,13561
0.0025104308,13562
0.0023358837,13563
0.002324441,13564
0.0024631708,13565
0.0023666278,13566
0.0021441805,13567
0.0023223816,13568
0.002084394,13569
0.001953327,13570
0.0018777479,13571
0.0017618071,13572
0.0018529894,13573
0.0019596398,13574
0.0030764928,13575
0.003677746,13576
0.0035752396,13577
0.0034007002,13578
0.0033709554,13579
0.003344344,13580
0.0035708144,13581
0.0029907813,13582
0.0029108028,13583
0.0028697972,13584
0.0027046595,13585
0.0027607533,13586
0.0026317327,13587
0.0025911238,13588
0.0022142616,13589
0.0025023045,13590
0.0020913668,13591
0.0020350255,13592
0.001837226,13593
0.002135372,13594
0.0021516208,13595
0.0020001144,13596
0.002194079,13597
0.0020726088,13598
0.0019273835,13599
0.0020553048,13600
0.0017393752,13601
0.0015985116,13602
0.0015350706,13603
0.0015510641,13604
0.0014918635,13605
0.0013749829,13606
0.0013047439,13607
0.0013218633,13608
0.0013957857,13609
0.0013475129,13610
0.0014076111,13611
0.0012672411,13612
0.0012515269,13613
0.0011351896,13614
0.0011074813,13615
9.4283174E-4,13616
0.001069224,13617
0.0010697248,13618
0.0010317274,13619
0.001040133,13620
0.0010371666,13621
0.0010203001,13622
9.972474E-4,13623
9.868203E-4,13624
0.0010171295,13625
9.5642847E-4,13626
9.331466E-4,13627
9.008226E-4,13628
8.3369936E-4,13629
8.2587154E-4,13630
8.807508E-4,13631
7.6502503E-4,13632
8.457169E-4,13633
8.4956177E-4,13634
7.7887246E-4,13635
8.56142E-4,13636
8.307534E-4,13637
7.3850696E-4,13638
8.556235E-4,13639
8.02486E-4,13640
7.5359805E-4,13641
7.560519E-4,13642
7.082628E-4,13643
7.014367E-4,13644
8.01135E-4,13645
6.8626384E-4,13646
7.538409E-4,13647
7.318968E-4,13648
7.355858E-4,13649
6.99345E-4,13650
6.6004996E-4,13651
5.950715E-4,13652
6.9926557E-4,13653
6.618241E-4,13654
6.44946E-4,13655
6.362401E-4,13656
6.0378347E-4,13657
5.724373E-4,13658
6.4326107E-4,13659
5.873768E-4,13660
5.8867404E-4,13661
6.078991E-4,13662
6.0342083E-4,13663
5.7457923E-4,13664
5.63873E-4,13665
5.0794205E-4,13666
5.4048374E-4,13667
5.417767E-4,13668
5.074077E-4,13669
5.0763745E-4,13670
5.169421E-4,13671
4.457916E-4,13672
5.222024E-4,13673
4.7083845E-4,13674
4.694605E-4,13675
5.324256E-4,13676
4.8000627E-4,13677
4.960659E-4,13678
4.9338257E-4,13679
4.1814562E-4,13680
4.6032097E-4,13681
4.3229197E-4,13682
4.558262E-4,13683
4.5469706E-4,13684
4.1907516E-4,13685
4.1514434E-4,13686
4.423842E-4,13687
3.8846128E-4,13688
4.2649862E-4,13689
3.9477923E-4,13690
4.00287E-4,13691
4.0402816E-4,13692
3.983222E-4,13693
3.715195E-4,13694
4.1460773E-4,13695
4.198617E-4,13696
4.4045752E-4,13697
8.803438E-4,13698
0.0024058805,13699
0.0030764793,13700
0.0028877112,13701
0.002423811,13702
0.0030257346,13703
0.002541175,13704
0.0023673691,13705
0.002246573,13706
0.002204173,13707
0.002031584,13708
0.0025715085,13709
0.0022423572,13710
0.0024133208,13711
0.002579936,13712
0.0021475307,13713
0.0022352934,13714
0.002087512,13715
0.0018085804,13716
0.0023536845,13717
0.0022331614,13718
0.002306606,13719
0.0022483137,13720
0.0020172708,13721
0.0020455508,13722
0.0021915496,13723
0.0020887868,13724
0.0020279558,13725
0.0019359732,13726
0.0017089078,13727
0.0016981888,13728
0.0016618208,13729
0.0015673728,13730
0.0016541051,13731
0.0016889633,13732
0.0017163279,13733
0.0015337524,13734
0.0016192651,13735
0.0016332794,13736
0.0015290726,13737
0.0014825016,13738
0.0014634753,13739
0.0013285656,13740
0.0012646064,13741
0.0046346425,13742
0.0050817947,13743
0.0050076656,13744
0.0047279727,13745
0.0044738986,13746
0.0042894473,13747
0.0044292533,13748
0.0035750906,13749
0.0036216292,13750
0.003125069,13751
0.0037070697,13752
0.0032224965,13753
0.0035605032,13754
0.0032685322,13755
0.0034767042,13756
0.0035141162,13757
0.0038367899,13758
0.0039060344,13759
0.0033519757,13760
0.0031396707,13761
0.003342531,13762
0.003231402,13763
0.0027933463,13764
0.0028071161,13765
0.002875379,13766
0.0031413995,13767
0.0030714693,13768
0.0025292188,13769
0.0026581367,13770
0.0024254113,13771
0.002339034,13772
0.002111351,13773
0.0019154077,13774
0.0018553424,13775
0.002167976,13776
0.0020643172,13777
0.0019947656,13778
0.0019135695,13779
0.002034048,13780
0.0020666928,13781
0.0020641836,13782
0.0019182612,13783
0.0017886941,13784
0.0018527929,13785
0.001853176,13786
0.0017843798,13787
0.001695378,13788
0.0016825775,13789
0.0018513416,13790
0.0016724389,13791
0.0017541896,13792
0.0015740241,13793
0.0015646429,13794
0.0017113913,13795
0.0021155984,13796
0.0043657934,13797
0.004733155,13798
0.004039999,13799
0.0043344935,13800
0.004179007,13801
0.004003114,13802
0.003417037,13803
0.0036118352,13804
0.0030930967,13805
0.003791705,13806
0.0029123973,13807
0.0034845206,13808
0.0031009566,13809
0.0030299895,13810
0.0028378938,13811
0.0026475594,13812
0.0028901726,13813
0.00296761,13814
0.002361571,13815
0.0024540033,13816
0.0024233463,13817
0.0023511567,13818
0.0019881886,13819
0.0021485689,13820
0.0018718691,13821
0.0021414342,13822
0.0017906219,13823
0.0020360819,13824
0.001719868,13825
0.0019119009,13826
0.0016698771,13827
0.0017099429,13828
0.001941941,13829
0.0018814792,13830
0.0016328826,13831
0.0015416533,13832
0.0017895998,13833
0.0015390114,13834
0.0015510072,13835
0.0013013247,13836
0.0015196278,13837
0.0015585393,13838
0.0015260628,13839
0.0012628388,13840
0.0014109077,13841
0.0012825283,13842
0.0012261446,13843
0.0012622828,13844
0.0013347268,13845
0.0012154869,13846
0.0012252262,13847
0.0010764359,13848
0.0012261461,13849
0.0010650014,13850
0.0010487793,13851
0.001089798,13852
0.001035586,13853
0.0012365581,13854
0.0011060012,13855
8.2080584E-4,13856
9.4778725E-4,13857
0.0014285076,13858
0.0028954588,13859
0.0029900908,13860
0.0026202158,13861
0.0026578098,13862
0.0025621213,13863
0.002407658,13864
0.002495589,13865
0.0023135655,13866
0.0024526436,13867
0.0025219847,13868
0.002348695,13869
0.002160486,13870
0.0021584837,13871
0.0022956354,13872
0.0022045404,13873
0.0020660274,13874
0.0020021629,13875
0.002094843,13876
0.0019534992,13877
0.0018782627,13878
0.001698038,13879
0.0016873961,13880
0.0016456458,13881
0.0017545061,13882
0.0016922049,13883
0.0016490029,13884
0.0014971003,13885
0.0015632126,13886
0.0015288742,13887
0.0014897817,13888
0.001329007,13889
0.0013881228,13890
0.0013461177,13891
0.0013837732,13892
0.0012986048,13893
0.0012599565,13894
0.0011787023,13895
0.0012871195,13896
0.0012198142,13897
0.0012945593,13898
0.0011677112,13899
0.0012065525,13900
0.0012421203,13901
0.001244823,13902
0.0010950195,13903
0.0011857996,13904
0.0011398538,13905
0.0011990585,13906
0.001078533,13907
0.0010449432,13908
0.0010454926,13909
0.0010701937,13910
9.55352E-4,13911
0.0010638158,13912
0.0010022407,13913
0.0010128958,13914
0.0010204194,13915
9.899178E-4,13916
8.4720337E-4,13917
8.7435014E-4,13918
8.729921E-4,13919
9.0558326E-4,13920
8.9797453E-4,13921
8.7349716E-4,13922
8.61341E-4,13923
8.5634994E-4,13924
7.9125044E-4,13925
8.5473683E-4,13926
8.329722E-4,13927
7.6156546E-4,13928
8.5777114E-4,13929
8.1710814E-4,13930
7.164225E-4,13931
9.4601006E-4,13932
0.0010256433,13933
0.0011471487,13934
0.0011899192,13935
0.0012424906,13936
0.0010662756,13937
0.0010939437,13938
9.923134E-4,13939
9.81956E-4,13940
0.0010316415,13941
9.85974E-4,13942
0.0010188402,13943
9.872096E-4,13944
8.840745E-4,13945
9.897463E-4,13946
9.622051E-4,13947
9.5267524E-4,13948
0.001020241,13949
9.1330154E-4,13950
9.7391126E-4,13951
9.6121576E-4,13952
8.9182775E-4,13953
9.444048E-4,13954
8.34625E-4,13955
8.0686196E-4,13956
9.724644E-4,13957
8.126647E-4,13958
8.02259E-4,13959
9.149077E-4,13960
7.6097104E-4,13961
8.0961257E-4,13962
8.564619E-4,13963
7.402031E-4,13964
8.289906E-4,13965
8.2542864E-4,13966
7.530342E-4,13967
8.1983645E-4,13968
7.9236133E-4,13969
7.4955035E-4,13970
8.2147116E-4,13971
7.701251E-4,13972
7.5056363E-4,13973
7.857213E-4,13974
6.7290204E-4,13975
7.486366E-4,13976
7.727004E-4,13977
0.0017127214,13978
0.0021514965,13979
0.0020220347,13980
0.0020554902,13981
0.002269336,13982
0.0023369694,13983
0.0021173884,13984
0.0021659103,13985
0.0019428342,13986
0.002231959,13987
0.0021977236,13988
0.002226155,13989
0.0020270927,13990
0.0019171069,13991
0.0017689794,13992
0.0017462015,13993
0.0015734398,13994
0.001433461,13995
0.0016267871,13996
0.0014548143,13997
0.0014522857,13998
0.0016583485,13999
0.0015835868,14000
0.0016494859,14001
0.0016526973,14002
0.0016535701,14003
0.001512573,14004
0.0016447199,14005
0.0015406496,14006
0.0013761843,14007
0.0013802701,14008
0.0013175951,14009
0.0014305364,14010
0.0013807392,14011
0.0016018794,14012
0.0015162091,14013
0.0015071975,14014
0.0016052887,14015
0.0015659146,14016
0.0015445413,14017
0.0016206566,14018
0.0016512262,14019
0.0015855229,14020
0.001510866,14021
0.0014863511,14022
0.0013697583,14023
0.0013654666,14024
0.001143349,14025
0.0012071069,14026
0.001122565,14027
0.0012112734,14028
0.0011357586,14029
0.001199765,14030
0.0013912596,14031
0.0013136308,14032
0.0017170222,14033
0.0016946901,14034
0.0019024877,14035
0.0017456576,14036
0.0014948666,14037
0.0014799885,14038
0.0013824904,14039
0.0014613817,14040
0.0013287088,14041
0.0013581407,14042
0.0013178135,14043
0.0012429089,14044
0.0013994207,14045
0.0012750317,14046
0.0014538964,14047
0.0014720792,14048
0.0014727509,14049
0.0014784912,14050
0.0014070749,14051
0.0014083418,14052
0.0013068103,14053
0.0012020407,14054
0.0011599014,14055
9.2994206E-4,14056
0.0011224817,14057
8.8899094E-4,14058
9.848307E-4,14059
9.97359E-4,14060
9.2280144E-4,14061
0.0010683417,14062
9.4689935E-4,14063
0.0010401559,14064
0.0010157024,14065
0.0010318756,14066
0.0011275959,14067
0.0010314162,14068
9.905534E-4,14069
9.98704E-4,14070
9.2764903E-4,14071
8.591799E-4,14072
8.16187E-4,14073
8.321944E-4,14074
7.845981E-4,14075
7.33831E-4,14076
7.7530957E-4,14077
7.677089E-4,14078
7.5276935E-4,14079
8.236145E-4,14080
8.142767E-4,14081
8.2985184E-4,14082
7.43253E-4,14083
7.540239E-4,14084
7.758196E-4,14085
6.837219E-4,14086
6.760877E-4,14087
6.737862E-4,14088
6.427353E-4,14089
6.1890366E-4,14090
6.1699917E-4,14091
5.704862E-4,14092
6.6366134E-4,14093
8.204809E-4,14094
6.5829244E-4,14095
6.2218285E-4,14096
6.357135E-4,14097
7.112847E-4,14098
7.645897E-4,14099
8.8860694E-4,14100
6.956954E-4,14101
6.869807E-4,14102
8.020077E-4,14103
7.1678427E-4,14104
7.76651E-4,14105
7.854297E-4,14106
7.0265203E-4,14107
7.717806E-4,14108
7.4932165E-4,14109
7.390749E-4,14110
8.0579834E-4,14111
7.903346E-4,14112
8.492812E-4,14113
8.978653E-4,14114
8.084577E-4,14115
7.8098127E-4,14116
9.237978E-4,14117
8.3377777E-4,14118
8.9648634E-4,14119
7.750185E-4,14120
7.323808E-4,14121
7.507889E-4,14122
6.801937E-4,14123
6.463817E-4,14124
6.586802E-4,14125
6.192667E-4,14126
6.5954233E-4,14127
6.447643E-4,14128
5.6344894E-4,14129
5.8896147E-4,14130
5.572912E-4,14131
5.7672453E-4,14132
6.03499E-4,14133
5.656022E-4,14134
5.590602E-4,14135
5.761698E-4,14136
5.313306E-4,14137
5.321349E-4,14138
5.3779327E-4,14139
5.1544304E-4,14140
5.412187E-4,14141
4.9495767E-4,14142
4.7867117E-4,14143
5.2184827E-4,14144
4.659548E-4,14145
4.884547E-4,14146
5.332177E-4,14147
4.879603E-4,14148
4.949804E-4,14149
5.177863E-4,14150
4.855136E-4,14151
5.42953E-4,14152
5.257141E-4,14153
5.144406E-4,14154
6.1044254E-4,14155
4.9882755E-4,14156
5.061801E-4,14157
5.946087E-4,14158
5.141824E-4,14159
5.288126E-4,14160
5.9926696E-4,14161
5.043739E-4,14162
5.1900296E-4,14163
5.7245255E-4,14164
4.76554E-4,14165
5.645056E-4,14166
5.57212E-4,14167
5.3148926E-4,14168
6.1221817E-4,14169
5.4812565E-4,14170
5.0776056E-4,14171
6.090764E-4,14172
5.4705585E-4,14173
5.1860785E-4,14174
5.5915094E-4,14175
4.914558E-4,14176
5.048152E-4,14177
5.2483607E-4,14178
4.6725114E-4,14179
4.89896E-4,14180
4.974627E-4,14181
4.960337E-4,14182
5.53467E-4,14183
5.255079E-4,14184
4.8427717E-4,14185
5.976512E-4,14186
5.411637E-4,14187
5.315782E-4,14188
5.59189E-4,14189
5.3614285E-4,14190
5.549737E-4,14191
5.034771E-4,14192
5.026401E-4,14193
4.9789675E-4,14194
4.8511368E-4,14195
4.886923E-4,14196
5.2136893E-4,14197
5.338393E-4,14198
4.8091525E-4,14199
5.776179E-4,14200
5.1882485E-4,14201
5.4374913E-4,14202
5.0131074E-4,14203
5.00289E-4,14204
5.452845E-4,14205
4.8440605E-4,14206
5.162511E-4,14207
4.914241E-4,14208
4.9143925E-4,14209
4.8133E-4,14210
4.806809E-4,14211
4.8045523E-4,14212
4.6047673E-4,14213
4.8390316E-4,14214
5.104682E-4,14215
4.6238728E-4,14216
4.9252453E-4,14217
5.1777356E-4,14218
4.852187E-4,14219
4.9427885E-4,14220
4.5963132E-4,14221
4.7019418E-4,14222
5.148952E-4,14223
4.4498272E-4,14224
4.7971364E-4,14225
5.017847E-4,14226
4.6014268E-4,14227
5.2544917E-4,14228
4.890553E-4,14229
4.7851293E-4,14230
5.467122E-4,14231
5.1751966E-4,14232
4.934207E-4,14233
5.8953924E-4,14234
4.7048298E-4,14235
5.284189E-4,14236
5.7533156E-4,14237
4.5022843E-4,14238
5.412657E-4,14239
5.284214E-4,14240
4.5743884E-4,14241
5.7434663E-4,14242
4.8653086E-4,14243
4.771422E-4,14244
5.607381E-4,14245
4.903305E-4,14246
5.163382E-4,14247
5.897984E-4,14248
4.622935E-4,14249
5.620083E-4,14250
5.708124E-4,14251
5.085913E-4,14252
5.92278E-4,14253
5.561681E-4,14254
5.117293E-4,14255
6.01809E-4,14256
4.8506042E-4,14257
4.9261143E-4,14258
5.6358695E-4,14259
4.7366423E-4,14260
5.239088E-4,14261
5.445242E-4,14262
4.699506E-4,14263
5.429445E-4,14264
5.01381E-4,14265
5.2707054E-4,14266
5.409381E-4,14267
5.1313394E-4,14268
5.566959E-4,14269
5.7365536E-4,14270
5.2828976E-4,14271
5.371824E-4,14272
5.3210085E-4,14273
4.983753E-4,14274
5.302747E-4,14275
4.918679E-4,14276
4.800908E-4,14277
5.429269E-4,14278
4.2911025E-4,14279
4.928531E-4,14280
4.7254076E-4,14281
4.526705E-4,14282
5.0869863E-4,14283
4.910275E-4,14284
4.7582545E-4,14285
4.8202105E-4,14286
4.6063945E-4,14287
4.7425952E-4,14288
4.834449E-4,14289
4.3355467E-4,14290
4.6247884E-4,14291
4.714049E-4,14292
4.064211E-4,14293
4.3871725E-4,14294
4.389741E-4,14295
3.942878E-4,14296
4.22335E-4,14297
4.1740006E-4,14298
4.100976E-4,14299
4.1081643E-4,14300
4.2355826E-4,14301
4.1128858E-4,14302
4.1047504E-4,14303
4.0333113E-4,14304
4.1802108E-4,14305
4.1603917E-4,14306
3.939907E-4,14307
3.5900078E-4,14308
3.9424162E-4,14309
3.63529E-4,14310
3.4341108E-4,14311
3.791955E-4,14312
3.3541018E-4,14313
3.5014848E-4,14314
3.722779E-4,14315
3.592776E-4,14316
3.8758342E-4,14317
3.9899384E-4,14318
3.6459495E-4,14319
4.1879117E-4,14320
3.7956913E-4,14321
3.567462E-4,14322
3.9214868E-4,14323
3.3963693E-4,14324
2.9422328E-4,14325
3.2712356E-4,14326
3.0145765E-4,14327
3.0909732E-4,14328
2.9560033E-4,14329
3.1834914E-4,14330
3.078708E-4,14331
3.2340692E-4,14332
3.2743643E-4,14333
3.4766225E-4,14334
3.4199437E-4,14335
3.1557935E-4,14336
3.2883798E-4,14337
3.1922926E-4,14338
2.8624732E-4,14339
2.885991E-4,14340
2.6579644E-4,14341
2.7564538E-4,14342
2.5178917E-4,14343
2.5675408E-4,14344
2.57229E-4,14345
2.3731518E-4,14346
2.568545E-4,14347
2.5684605E-4,14348
2.5208152E-4,14349
2.4252353E-4,14350
2.4610336E-4,14351
2.5880765E-4,14352
2.3347307E-4,14353
2.4203889E-4,14354
2.3449278E-4,14355
2.2403958E-4,14356
2.1399024E-4,14357
1.8661056E-4,14358
2.0987866E-4,14359
2.0046606E-4,14360
1.8396521E-4,14361
1.7930772E-4,14362
1.7325777E-4,14363
1.8092066E-4,14364
1.681846E-4,14365
1.8869687E-4,14366
1.8991335E-4,14367
1.8323731E-4,14368
1.7530318E-4,14369
1.9215715E-4,14370
2.0602084E-4,14371
1.8904549E-4,14372
1.8056088E-4,14373
1.8973014E-4,14374
1.713194E-4,14375
1.6646438E-4,14376
1.6595595E-4,14377
1.8181105E-4,14378
1.721659E-4,14379
1.7767612E-4,14380
1.6909344E-4,14381
1.949918E-4,14382
1.747404E-4,14383
1.8074221E-4,14384
1.6878155E-4,14385
1.7742904E-4,14386
2.001828E-4,14387
1.9665941E-4,14388
1.9484581E-4,14389
1.9329274E-4,14390
1.9774277E-4,14391
2.0680336E-4,14392
1.9027985E-4,14393
2.1628279E-4,14394
2.0035368E-4,14395
2.0503483E-4,14396
2.1863954E-4,14397
2.0452042E-4,14398
2.0891815E-4,14399
2.1076069E-4,14400
2.0776675E-4,14401
2.2179863E-4,14402
1.962174E-4,14403
2.0822776E-4,14404
1.9530447E-4,14405
2.0651227E-4,14406
1.9666587E-4,14407
2.1544084E-4,14408
1.9352752E-4,14409
2.1091381E-4,14410
2.0823785E-4,14411
2.0956661E-4,14412
2.0770825E-4,14413
2.0500719E-4,14414
2.086579E-4,14415
2.0588929E-4,14416
1.9517443E-4,14417
1.9632433E-4,14418
2.0276509E-4,14419
1.8755384E-4,14420
1.8473435E-4,14421
2.0157777E-4,14422
2.0202949E-4,14423
2.0098899E-4,14424
1.9739197E-4,14425
1.8934216E-4,14426
2.0812248E-4,14427
1.905012E-4,14428
1.8233966E-4,14429
1.9923504E-4,14430
1.9415599E-4,14431
1.8432128E-4,14432
1.8863632E-4,14433
2.0375506E-4,14434
1.9677104E-4,14435
2.0466709E-4,14436
1.9399312E-4,14437
1.955798E-4,14438
1.9857606E-4,14439
1.7979014E-4,14440
1.7878858E-4,14441
1.6797651E-4,14442
1.802515E-4,14443
1.8297537E-4,14444
1.847877E-4,14445
1.836026E-4,14446
1.9034575E-4,14447
1.6320801E-4,14448
1.7467477E-4,14449
1.6898462E-4,14450
1.8467609E-4,14451
1.8029401E-4,14452
1.6173578E-4,14453
1.7722939E-4,14454
1.920137E-4,14455
1.544675E-4,14456
1.6440025E-4,14457
1.6028156E-4,14458
1.6109177E-4,14459
1.4575626E-4,14460
1.5348135E-4,14461
1.6158004E-4,14462
1.4789836E-4,14463
1.5240225E-4,14464
1.439397E-4,14465
1.5891477E-4,14466
1.63264E-4,14467
1.7404827E-4,14468
1.4523327E-4,14469
1.6167066E-4,14470
1.4523264E-4,14471
1.5905467E-4,14472
1.507836E-4,14473
1.410047E-4,14474
1.4611805E-4,14475
1.3728284E-4,14476
1.7120346E-4,14477
1.488765E-4,14478
1.423714E-4,14479
1.6552558E-4,14480
1.5127326E-4,14481
1.6042027E-4,14482
1.47671E-4,14483
1.7206084E-4,14484
1.4734021E-4,14485
1.6424357E-4,14486
1.5064083E-4,14487
1.6100607E-4,14488
1.441145E-4,14489
1.6125775E-4,14490
1.504575E-4,14491
1.4445564E-4,14492
1.5429826E-4,14493
1.3971534E-4,14494
1.4507069E-4,14495
1.6006695E-4,14496
1.5145194E-4,14497
1.6502361E-4,14498
1.5566123E-4,14499
1.4754794E-4,14500
1.3533173E-4,14501
1.575242E-4,14502
1.5339602E-4,14503
1.5555837E-4,14504
1.5482616E-4,14505
1.4866483E-4,14506
1.603665E-4,14507
1.440444E-4,14508
1.3282389E-4,14509
1.396689E-4,14510
1.4715041E-4,14511
1.5130936E-4,14512
1.4385645E-4,14513
1.5561958E-4,14514
1.534484E-4,14515
1.4095084E-4,14516
1.4493524E-4,14517
1.4249067E-4,14518
1.5974212E-4,14519
1.388677E-4,14520
1.4668444E-4,14521
1.6239064E-4,14522
1.4995423E-4,14523
1.4489201E-4,14524
1.4425423E-4,14525
1.609372E-4,14526
1.5821052E-4,14527
1.2977966E-4,14528
1.4977952E-4,14529
1.2688075E-4,14530
1.5508948E-4,14531
1.6029237E-4,14532
1.49442E-4,14533
1.4970433E-4,14534
1.5197674E-4,14535
1.6141479E-4,14536
1.5476119E-4,14537
1.4996839E-4,14538
1.5648795E-4,14539
1.3980652E-4,14540
1.5829537E-4,14541
1.4784424E-4,14542
1.5269499E-4,14543
1.5208633E-4,14544
1.5760948E-4,14545
1.3568003E-4,14546
1.382247E-4,14547
1.4233316E-4,14548
1.506192E-4,14549
1.6354026E-4,14550
1.5599784E-4,14551
1.5084245E-4,14552
1.5198451E-4,14553
1.4617255E-4,14554
1.3893268E-4,14555
1.3982036E-4,14556
1.4734083E-4,14557
1.4943344E-4,14558
1.4705057E-4,14559
1.3821226E-4,14560
1.4239884E-4,14561
1.5165299E-4,14562
1.4289616E-4,14563
1.4773759E-4,14564
1.4763682E-4,14565
1.4382455E-4,14566
1.5020225E-4,14567
1.3851348E-4,14568
1.4907954E-4,14569
1.5501038E-4,14570
1.6793188E-4,14571
1.5350243E-4,14572
1.4980424E-4,14573
1.2291413E-4,14574
1.5370695E-4,14575
1.6442078E-4,14576
1.5503172E-4,14577
1.4007656E-4,14578
1.4818847E-4,14579
1.4089866E-4,14580
1.4268189E-4,14581
1.3674947E-4,14582
1.4141055E-4,14583
1.5742578E-4,14584
1.5157947E-4,14585
1.7142028E-4,14586
1.5247299E-4,14587
1.4594654E-4,14588
1.4380518E-4,14589
1.4450403E-4,14590
1.5833505E-4,14591
1.5325943E-4,14592
1.4487225E-4,14593
1.4137937E-4,14594
1.5333989E-4,14595
1.5553727E-4,14596
1.5734202E-4,14597
1.5158199E-4,14598
1.496354E-4,14599
1.5521083E-4,14600
1.5840908E-4,14601
1.5089219E-4,14602
1.4755105E-4,14603
1.5043726E-4,14604
1.5611942E-4,14605
1.2340231E-4,14606
1.3458257E-4,14607
1.5742383E-4,14608
1.4405005E-4,14609
1.3640411E-4,14610
1.5315575E-4,14611
1.425118E-4,14612
1.4363734E-4,14613
1.5618911E-4,14614
1.425138E-4,14615
1.3154266E-4,14616
1.5204446E-4,14617
1.461099E-4,14618
1.4758408E-4,14619
1.6894659E-4,14620
1.4710231E-4,14621
1.5481701E-4,14622
1.5546629E-4,14623
1.5116572E-4,14624
1.4701612E-4,14625
1.495769E-4,14626
1.6047047E-4,14627
1.4719773E-4,14628
1.4833461E-4,14629
1.4812534E-4,14630
1.5067765E-4,14631
1.5141025E-4,14632
1.5752268E-4,14633
1.538473E-4,14634
1.4335693E-4,14635
1.5152333E-4,14636
1.5158477E-4,14637
1.429292E-4,14638
1.522359E-4,14639
1.6087608E-4,14640
1.6186184E-4,14641
1.4336634E-4,14642
1.4650522E-4,14643
1.5639675E-4,14644
1.4271487E-4,14645
1.41927E-4,14646
1.5552546E-4,14647
1.4935224E-4,14648
1.5414196E-4,14649
1.7173923E-4,14650
1.3866028E-4,14651
1.3196464E-4,14652
1.4249174E-4,14653
1.4369158E-4,14654
1.3819276E-4,14655
1.465153E-4,14656
1.4632138E-4,14657
1.5242028E-4,14658
1.5179628E-4,14659
1.4877773E-4,14660
1.5168817E-4,14661
1.5762342E-4,14662
1.3835946E-4,14663
1.5663376E-4,14664
1.2170437E-4,14665
1.4278691E-4,14666
1.4070875E-4,14667
1.3952219E-4,14668
1.4253068E-4,14669
1.6317017E-4,14670
1.4947007E-4,14671
1.5106892E-4,14672
1.3562028E-4,14673
1.4727042E-4,14674
1.6190083E-4,14675
1.3503723E-4,14676
1.5856809E-4,14677
1.3873563E-4,14678
1.5962917E-4,14679
1.6155183E-4,14680
1.4083534E-4,14681
1.3880199E-4,14682
1.5788674E-4,14683
1.5682077E-4,14684
1.3379134E-4,14685
1.4567963E-4,14686
1.4158299E-4,14687
1.5285939E-4,14688
1.391511E-4,14689
1.4192544E-4,14690
1.4535435E-4,14691
1.390384E-4,14692
1.6391347E-4,14693
1.541661E-4,14694
1.487272E-4,14695
1.2489797E-4,14696
1.5624081E-4,14697
1.4072686E-4,14698
1.5874032E-4,14699
1.4872734E-4,14700
1.5162089E-4,14701
1.5301858E-4,14702
1.6178063E-4,14703
1.6552581E-4,14704
1.8043569E-4,14705
1.8437809E-4,14706
1.7563715E-4,14707
1.7425402E-4,14708
1.6908193E-4,14709
1.8172266E-4,14710
1.5989775E-4,14711
1.6547984E-4,14712
1.8124943E-4,14713
1.7373699E-4,14714
2.1617893E-4,14715
1.7499417E-4,14716
1.7471449E-4,14717
1.8329138E-4,14718
1.6463801E-4,14719
1.7654529E-4,14720
