@RELATION 'Music feature'
%rows=1
%columns=14720
%sample_rate=22050
%window_size=512
%step_size=512

@ATTRIBUTE 'Zero-crossing rate' NUMERIC
@ATTRIBUTE WindowNumber NUMERIC

@DATA
0.0,1
0.01953125,2
0.0439453125,3
0.005859375,4
0.025390625,5
0.00390625,6
0.00390625,7
0.009765625,8
0.00390625,9
0.044921875,10
0.001953125,11
0.001953125,12
0.087890625,13
0.009765625,14
0.0,15
0.021484375,16
0.009765625,17
0.009765625,18
0.005859375,19
0.068359375,20
0.083984375,21
0.0859375,22
0.083984375,23
0.0859375,24
0.0859375,25
0.083984375,26
0.0859375,27
0.048828125,28
0.05859375,29
0.046875,30
0.025390625,31
0.017578125,32
0.0546875,33
0.083984375,34
0.05859375,35
0.05078125,36
0.017578125,37
0.0390625,38
0.095703125,39
0.095703125,40
0.095703125,41
0.095703125,42
0.09375,43
0.095703125,44
0.09375,45
0.09375,46
0.076171875,47
0.078125,48
0.087890625,49
0.095703125,50
0.09375,51
0.09375,52
0.09765625,53
0.1015625,54
0.1015625,55
0.099609375,56
0.1015625,57
0.099609375,58
0.1015625,59
0.1015625,60
0.099609375,61
0.09375,62
0.08203125,63
0.080078125,64
0.080078125,65
0.080078125,66
0.080078125,67
0.080078125,68
0.091796875,69
0.091796875,70
0.080078125,71
0.08203125,72
0.078125,73
0.0859375,74
0.0859375,75
0.083984375,76
0.0859375,77
0.083984375,78
0.0859375,79
0.083984375,80
0.0859375,81
0.0859375,82
0.083984375,83
0.083984375,84
0.08203125,85
0.068359375,86
0.06640625,87
0.06640625,88
0.068359375,89
0.076171875,90
0.080078125,91
0.072265625,92
0.06640625,93
0.060546875,94
0.068359375,95
0.068359375,96
0.06640625,97
0.07421875,98
0.0625,99
0.064453125,100
0.0625,101
0.064453125,102
0.064453125,103
0.064453125,104
0.0625,105
0.064453125,106
0.064453125,107
0.0625,108
0.064453125,109
0.0625,110
0.0625,111
0.064453125,112
0.0625,113
0.064453125,114
0.048828125,115
0.060546875,116
0.041015625,117
0.04296875,118
0.041015625,119
0.041015625,120
0.03125,121
0.03125,122
0.033203125,123
0.03125,124
0.044921875,125
0.041015625,126
0.064453125,127
0.064453125,128
0.0625,129
0.064453125,130
0.064453125,131
0.048828125,132
0.0390625,133
0.0546875,134
0.044921875,135
0.033203125,136
0.033203125,137
0.033203125,138
0.03125,139
0.029296875,140
0.02734375,141
0.03515625,142
0.03515625,143
0.03515625,144
0.0390625,145
0.037109375,146
0.03515625,147
0.0390625,148
0.046875,149
0.056640625,150
0.064453125,151
0.064453125,152
0.0625,153
0.0625,154
0.06640625,155
0.0625,156
0.064453125,157
0.064453125,158
0.0625,159
0.060546875,160
0.05859375,161
0.041015625,162
0.05078125,163
0.046875,164
0.052734375,165
0.05078125,166
0.05078125,167
0.048828125,168
0.056640625,169
0.052734375,170
0.044921875,171
0.046875,172
0.046875,173
0.05078125,174
0.0546875,175
0.064453125,176
0.064453125,177
0.0625,178
0.064453125,179
0.0625,180
0.064453125,181
0.064453125,182
0.0625,183
0.064453125,184
0.064453125,185
0.0625,186
0.064453125,187
0.064453125,188
0.064453125,189
0.060546875,190
0.05859375,191
0.064453125,192
0.0390625,193
0.03125,194
0.037109375,195
0.02734375,196
0.03125,197
0.037109375,198
0.033203125,199
0.02734375,200
0.0234375,201
0.0234375,202
0.02734375,203
0.033203125,204
0.068359375,205
0.06640625,206
0.056640625,207
0.048828125,208
0.03125,209
0.029296875,210
0.041015625,211
0.041015625,212
0.033203125,213
0.033203125,214
0.037109375,215
0.03515625,216
0.041015625,217
0.0390625,218
0.060546875,219
0.0625,220
0.0625,221
0.064453125,222
0.0625,223
0.0625,224
0.064453125,225
0.0625,226
0.064453125,227
0.064453125,228
0.060546875,229
0.05859375,230
0.060546875,231
0.064453125,232
0.046875,233
0.05859375,234
0.056640625,235
0.056640625,236
0.052734375,237
0.056640625,238
0.0546875,239
0.05078125,240
0.04296875,241
0.048828125,242
0.048828125,243
0.048828125,244
0.046875,245
0.046875,246
0.048828125,247
0.046875,248
0.048828125,249
0.046875,250
0.048828125,251
0.046875,252
0.048828125,253
0.046875,254
0.048828125,255
0.046875,256
0.046875,257
0.048828125,258
0.05078125,259
0.05078125,260
0.0625,261
0.046875,262
0.05078125,263
0.05078125,264
0.05078125,265
0.046875,266
0.048828125,267
0.05078125,268
0.05078125,269
0.05078125,270
0.05078125,271
0.048828125,272
0.05078125,273
0.05078125,274
0.05078125,275
0.046875,276
0.046875,277
0.048828125,278
0.048828125,279
0.033203125,280
0.04296875,281
0.0390625,282
0.041015625,283
0.037109375,284
0.03125,285
0.046875,286
0.03125,287
0.0234375,288
0.02734375,289
0.0234375,290
0.025390625,291
0.025390625,292
0.025390625,293
0.025390625,294
0.025390625,295
0.02734375,296
0.0234375,297
0.029296875,298
0.029296875,299
0.03125,300
0.03515625,301
0.033203125,302
0.029296875,303
0.029296875,304
0.033203125,305
0.033203125,306
0.033203125,307
0.029296875,308
0.033203125,309
0.03515625,310
0.037109375,311
0.033203125,312
0.041015625,313
0.046875,314
0.033203125,315
0.037109375,316
0.041015625,317
0.03125,318
0.03125,319
0.041015625,320
0.0390625,321
0.0390625,322
0.041015625,323
0.0390625,324
0.03515625,325
0.041015625,326
0.0390625,327
0.046875,328
0.046875,329
0.041015625,330
0.048828125,331
0.0390625,332
0.041015625,333
0.04296875,334
0.04296875,335
0.04296875,336
0.0390625,337
0.03125,338
0.033203125,339
0.03515625,340
0.03515625,341
0.0390625,342
0.03515625,343
0.0390625,344
0.03515625,345
0.03125,346
0.0390625,347
0.041015625,348
0.041015625,349
0.02734375,350
0.029296875,351
0.033203125,352
0.02734375,353
0.021484375,354
0.0390625,355
0.03515625,356
0.052734375,357
0.08203125,358
0.080078125,359
0.083984375,360
0.076171875,361
0.0703125,362
0.068359375,363
0.07421875,364
0.05859375,365
0.052734375,366
0.048828125,367
0.046875,368
0.03515625,369
0.037109375,370
0.05078125,371
0.04296875,372
0.046875,373
0.095703125,374
0.095703125,375
0.095703125,376
0.095703125,377
0.095703125,378
0.095703125,379
0.072265625,380
0.03515625,381
0.04296875,382
0.05078125,383
0.078125,384
0.08984375,385
0.0859375,386
0.072265625,387
0.046875,388
0.05859375,389
0.080078125,390
0.072265625,391
0.05859375,392
0.05078125,393
0.05078125,394
0.05078125,395
0.08203125,396
0.0859375,397
0.083984375,398
0.076171875,399
0.0703125,400
0.080078125,401
0.078125,402
0.080078125,403
0.080078125,404
0.083984375,405
0.080078125,406
0.076171875,407
0.076171875,408
0.07421875,409
0.07421875,410
0.083984375,411
0.080078125,412
0.080078125,413
0.072265625,414
0.078125,415
0.08203125,416
0.07421875,417
0.091796875,418
0.095703125,419
0.095703125,420
0.095703125,421
0.095703125,422
0.095703125,423
0.099609375,424
0.087890625,425
0.0859375,426
0.0859375,427
0.091796875,428
0.083984375,429
0.08984375,430
0.076171875,431
0.076171875,432
0.068359375,433
0.076171875,434
0.080078125,435
0.0859375,436
0.068359375,437
0.068359375,438
0.064453125,439
0.0625,440
0.064453125,441
0.064453125,442
0.0625,443
0.064453125,444
0.064453125,445
0.0625,446
0.068359375,447
0.068359375,448
0.06640625,449
0.068359375,450
0.068359375,451
0.07421875,452
0.0703125,453
0.080078125,454
0.072265625,455
0.0703125,456
0.0546875,457
0.0703125,458
0.064453125,459
0.068359375,460
0.06640625,461
0.064453125,462
0.0703125,463
0.0703125,464
0.060546875,465
0.064453125,466
0.048828125,467
0.056640625,468
0.0703125,469
0.083984375,470
0.0859375,471
0.076171875,472
0.060546875,473
0.06640625,474
0.068359375,475
0.0625,476
0.060546875,477
0.076171875,478
0.080078125,479
0.08203125,480
0.072265625,481
0.068359375,482
0.072265625,483
0.052734375,484
0.0703125,485
0.0546875,486
0.060546875,487
0.07421875,488
0.072265625,489
0.076171875,490
0.072265625,491
0.06640625,492
0.0703125,493
0.0703125,494
0.068359375,495
0.072265625,496
0.0703125,497
0.072265625,498
0.07421875,499
0.068359375,500
0.06640625,501
0.068359375,502
0.068359375,503
0.0703125,504
0.0625,505
0.068359375,506
0.068359375,507
0.0703125,508
0.0625,509
0.0625,510
0.064453125,511
0.05859375,512
0.064453125,513
0.060546875,514
0.06640625,515
0.060546875,516
0.056640625,517
0.05859375,518
0.0546875,519
0.052734375,520
0.052734375,521
0.052734375,522
0.05078125,523
0.056640625,524
0.0546875,525
0.052734375,526
0.06640625,527
0.046875,528
0.048828125,529
0.046875,530
0.0546875,531
0.048828125,532
0.05078125,533
0.05859375,534
0.052734375,535
0.0546875,536
0.048828125,537
0.046875,538
0.052734375,539
0.05078125,540
0.072265625,541
0.048828125,542
0.048828125,543
0.052734375,544
0.044921875,545
0.048828125,546
0.05078125,547
0.048828125,548
0.046875,549
0.048828125,550
0.05078125,551
0.048828125,552
0.046875,553
0.056640625,554
0.05078125,555
0.056640625,556
0.064453125,557
0.0625,558
0.05859375,559
0.056640625,560
0.060546875,561
0.0625,562
0.064453125,563
0.064453125,564
0.0625,565
0.064453125,566
0.05078125,567
0.060546875,568
0.056640625,569
0.0546875,570
0.052734375,571
0.046875,572
0.05078125,573
0.0625,574
0.056640625,575
0.056640625,576
0.056640625,577
0.056640625,578
0.056640625,579
0.056640625,580
0.068359375,581
0.056640625,582
0.0546875,583
0.048828125,584
0.056640625,585
0.048828125,586
0.052734375,587
0.052734375,588
0.05078125,589
0.056640625,590
0.048828125,591
0.05078125,592
0.05078125,593
0.05078125,594
0.05078125,595
0.05078125,596
0.048828125,597
0.052734375,598
0.048828125,599
0.05078125,600
0.05078125,601
0.037109375,602
0.041015625,603
0.041015625,604
0.03515625,605
0.0390625,606
0.029296875,607
0.03125,608
0.0390625,609
0.029296875,610
0.02734375,611
0.01953125,612
0.0234375,613
0.03125,614
0.03125,615
0.029296875,616
0.025390625,617
0.025390625,618
0.025390625,619
0.025390625,620
0.025390625,621
0.025390625,622
0.025390625,623
0.0234375,624
0.03125,625
0.0234375,626
0.03125,627
0.03125,628
0.01953125,629
0.021484375,630
0.03515625,631
0.02734375,632
0.02734375,633
0.03515625,634
0.0234375,635
0.029296875,636
0.029296875,637
0.025390625,638
0.02734375,639
0.025390625,640
0.021484375,641
0.033203125,642
0.03125,643
0.033203125,644
0.03125,645
0.033203125,646
0.03125,647
0.03125,648
0.03125,649
0.033203125,650
0.037109375,651
0.03125,652
0.033203125,653
0.03515625,654
0.03125,655
0.03125,656
0.033203125,657
0.033203125,658
0.03515625,659
0.029296875,660
0.03125,661
0.02734375,662
0.03125,663
0.03125,664
0.03515625,665
0.033203125,666
0.03125,667
0.029296875,668
0.02734375,669
0.033203125,670
0.033203125,671
0.03125,672
0.02734375,673
0.03125,674
0.03125,675
0.02734375,676
0.03125,677
0.0234375,678
0.033203125,679
0.021484375,680
0.0234375,681
0.02734375,682
0.01953125,683
0.0234375,684
0.02734375,685
0.025390625,686
0.033203125,687
0.02734375,688
0.0703125,689
0.0859375,690
0.080078125,691
0.0859375,692
0.078125,693
0.048828125,694
0.05859375,695
0.060546875,696
0.041015625,697
0.056640625,698
0.048828125,699
0.048828125,700
0.04296875,701
0.041015625,702
0.044921875,703
0.0390625,704
0.046875,705
0.03125,706
0.033203125,707
0.0390625,708
0.033203125,709
0.0390625,710
0.0390625,711
0.033203125,712
0.033203125,713
0.041015625,714
0.03515625,715
0.046875,716
0.0390625,717
0.052734375,718
0.0859375,719
0.083984375,720
0.0859375,721
0.080078125,722
0.056640625,723
0.048828125,724
0.060546875,725
0.03515625,726
0.037109375,727
0.033203125,728
0.0234375,729
0.025390625,730
0.037109375,731
0.046875,732
0.0390625,733
0.052734375,734
0.06640625,735
0.05078125,736
0.052734375,737
0.037109375,738
0.025390625,739
0.029296875,740
0.072265625,741
0.083984375,742
0.083984375,743
0.0859375,744
0.083984375,745
0.08203125,746
0.068359375,747
0.0859375,748
0.06640625,749
0.072265625,750
0.056640625,751
0.068359375,752
0.0546875,753
0.0546875,754
0.060546875,755
0.0625,756
0.0703125,757
0.068359375,758
0.072265625,759
0.060546875,760
0.060546875,761
0.0546875,762
0.05078125,763
0.056640625,764
0.06640625,765
0.076171875,766
0.076171875,767
0.076171875,768
0.076171875,769
0.076171875,770
0.07421875,771
0.076171875,772
0.07421875,773
0.076171875,774
0.076171875,775
0.076171875,776
0.076171875,777
0.07421875,778
0.076171875,779
0.076171875,780
0.076171875,781
0.076171875,782
0.076171875,783
0.07421875,784
0.076171875,785
0.072265625,786
0.072265625,787
0.0703125,788
0.056640625,789
0.05859375,790
0.052734375,791
0.05078125,792
0.041015625,793
0.03515625,794
0.03515625,795
0.033203125,796
0.033203125,797
0.033203125,798
0.046875,799
0.044921875,800
0.033203125,801
0.025390625,802
0.025390625,803
0.025390625,804
0.025390625,805
0.037109375,806
0.02734375,807
0.02734375,808
0.025390625,809
0.029296875,810
0.025390625,811
0.0390625,812
0.04296875,813
0.041015625,814
0.0390625,815
0.037109375,816
0.0390625,817
0.03125,818
0.037109375,819
0.02734375,820
0.033203125,821
0.037109375,822
0.03125,823
0.025390625,824
0.041015625,825
0.037109375,826
0.029296875,827
0.041015625,828
0.0390625,829
0.04296875,830
0.033203125,831
0.041015625,832
0.044921875,833
0.0390625,834
0.041015625,835
0.0390625,836
0.0390625,837
0.048828125,838
0.046875,839
0.044921875,840
0.046875,841
0.048828125,842
0.046875,843
0.05078125,844
0.048828125,845
0.052734375,846
0.056640625,847
0.044921875,848
0.044921875,849
0.052734375,850
0.0546875,851
0.060546875,852
0.048828125,853
0.064453125,854
0.05859375,855
0.052734375,856
0.05078125,857
0.0546875,858
0.05078125,859
0.056640625,860
0.048828125,861
0.05078125,862
0.052734375,863
0.044921875,864
0.044921875,865
0.05078125,866
0.044921875,867
0.041015625,868
0.037109375,869
0.037109375,870
0.033203125,871
0.029296875,872
0.025390625,873
0.025390625,874
0.029296875,875
0.025390625,876
0.033203125,877
0.04296875,878
0.044921875,879
0.04296875,880
0.037109375,881
0.044921875,882
0.041015625,883
0.041015625,884
0.04296875,885
0.0390625,886
0.04296875,887
0.041015625,888
0.04296875,889
0.04296875,890
0.04296875,891
0.044921875,892
0.048828125,893
0.046875,894
0.048828125,895
0.046875,896
0.048828125,897
0.046875,898
0.046875,899
0.048828125,900
0.048828125,901
0.046875,902
0.046875,903
0.048828125,904
0.046875,905
0.033203125,906
0.033203125,907
0.03125,908
0.03125,909
0.0234375,910
0.033203125,911
0.033203125,912
0.03515625,913
0.037109375,914
0.064453125,915
0.068359375,916
0.068359375,917
0.0625,918
0.056640625,919
0.048828125,920
0.048828125,921
0.046875,922
0.052734375,923
0.044921875,924
0.0546875,925
0.046875,926
0.052734375,927
0.041015625,928
0.046875,929
0.048828125,930
0.04296875,931
0.0390625,932
0.033203125,933
0.037109375,934
0.033203125,935
0.044921875,936
0.0625,937
0.064453125,938
0.064453125,939
0.0625,940
0.064453125,941
0.064453125,942
0.0625,943
0.064453125,944
0.0625,945
0.064453125,946
0.064453125,947
0.0625,948
0.064453125,949
0.064453125,950
0.0625,951
0.060546875,952
0.052734375,953
0.04296875,954
0.041015625,955
0.044921875,956
0.025390625,957
0.029296875,958
0.025390625,959
0.029296875,960
0.025390625,961
0.02734375,962
0.029296875,963
0.033203125,964
0.03125,965
0.033203125,966
0.03125,967
0.037109375,968
0.0390625,969
0.037109375,970
0.033203125,971
0.03515625,972
0.03125,973
0.025390625,974
0.025390625,975
0.033203125,976
0.0390625,977
0.029296875,978
0.02734375,979
0.021484375,980
0.029296875,981
0.02734375,982
0.025390625,983
0.025390625,984
0.03125,985
0.03125,986
0.033203125,987
0.029296875,988
0.021484375,989
0.029296875,990
0.025390625,991
0.025390625,992
0.0234375,993
0.02734375,994
0.0234375,995
0.025390625,996
0.025390625,997
0.025390625,998
0.025390625,999
0.029296875,1000
0.029296875,1001
0.029296875,1002
0.02734375,1003
0.0234375,1004
0.025390625,1005
0.02734375,1006
0.0234375,1007
0.025390625,1008
0.025390625,1009
0.025390625,1010
0.025390625,1011
0.025390625,1012
0.025390625,1013
0.025390625,1014
0.0234375,1015
0.025390625,1016
0.03125,1017
0.025390625,1018
0.025390625,1019
0.025390625,1020
0.03515625,1021
0.02734375,1022
0.03515625,1023
0.037109375,1024
0.029296875,1025
0.033203125,1026
0.06640625,1027
0.056640625,1028
0.056640625,1029
0.056640625,1030
0.056640625,1031
0.056640625,1032
0.056640625,1033
0.056640625,1034
0.064453125,1035
0.060546875,1036
0.060546875,1037
0.056640625,1038
0.056640625,1039
0.056640625,1040
0.056640625,1041
0.056640625,1042
0.056640625,1043
0.056640625,1044
0.046875,1045
0.05078125,1046
0.052734375,1047
0.041015625,1048
0.04296875,1049
0.037109375,1050
0.0390625,1051
0.03515625,1052
0.037109375,1053
0.029296875,1054
0.04296875,1055
0.060546875,1056
0.064453125,1057
0.064453125,1058
0.0625,1059
0.064453125,1060
0.064453125,1061
0.0625,1062
0.064453125,1063
0.064453125,1064
0.0625,1065
0.064453125,1066
0.06640625,1067
0.05859375,1068
0.06640625,1069
0.056640625,1070
0.0546875,1071
0.064453125,1072
0.060546875,1073
0.056640625,1074
0.056640625,1075
0.056640625,1076
0.056640625,1077
0.060546875,1078
0.064453125,1079
0.068359375,1080
0.064453125,1081
0.052734375,1082
0.048828125,1083
0.05078125,1084
0.05859375,1085
0.05078125,1086
0.0546875,1087
0.0546875,1088
0.0625,1089
0.052734375,1090
0.0625,1091
0.05078125,1092
0.05859375,1093
0.06640625,1094
0.0625,1095
0.048828125,1096
0.0625,1097
0.05078125,1098
0.052734375,1099
0.046875,1100
0.0390625,1101
0.041015625,1102
0.041015625,1103
0.0390625,1104
0.048828125,1105
0.04296875,1106
0.041015625,1107
0.041015625,1108
0.041015625,1109
0.044921875,1110
0.05859375,1111
0.046875,1112
0.056640625,1113
0.044921875,1114
0.046875,1115
0.056640625,1116
0.046875,1117
0.052734375,1118
0.04296875,1119
0.052734375,1120
0.048828125,1121
0.0390625,1122
0.041015625,1123
0.037109375,1124
0.0390625,1125
0.0390625,1126
0.037109375,1127
0.03515625,1128
0.033203125,1129
0.033203125,1130
0.03515625,1131
0.0390625,1132
0.041015625,1133
0.033203125,1134
0.0390625,1135
0.041015625,1136
0.0390625,1137
0.037109375,1138
0.0390625,1139
0.037109375,1140
0.037109375,1141
0.0390625,1142
0.037109375,1143
0.037109375,1144
0.037109375,1145
0.037109375,1146
0.037109375,1147
0.04296875,1148
0.0390625,1149
0.044921875,1150
0.052734375,1151
0.04296875,1152
0.03515625,1153
0.044921875,1154
0.04296875,1155
0.0390625,1156
0.044921875,1157
0.041015625,1158
0.037109375,1159
0.046875,1160
0.05078125,1161
0.05078125,1162
0.05078125,1163
0.0546875,1164
0.056640625,1165
0.060546875,1166
0.048828125,1167
0.0546875,1168
0.048828125,1169
0.052734375,1170
0.056640625,1171
0.052734375,1172
0.037109375,1173
0.037109375,1174
0.05859375,1175
0.044921875,1176
0.056640625,1177
0.048828125,1178
0.041015625,1179
0.041015625,1180
0.03125,1181
0.03515625,1182
0.03515625,1183
0.03515625,1184
0.033203125,1185
0.029296875,1186
0.033203125,1187
0.046875,1188
0.0546875,1189
0.0625,1190
0.056640625,1191
0.056640625,1192
0.056640625,1193
0.056640625,1194
0.056640625,1195
0.056640625,1196
0.060546875,1197
0.06640625,1198
0.068359375,1199
0.060546875,1200
0.060546875,1201
0.056640625,1202
0.056640625,1203
0.056640625,1204
0.056640625,1205
0.052734375,1206
0.056640625,1207
0.044921875,1208
0.044921875,1209
0.041015625,1210
0.03515625,1211
0.04296875,1212
0.03125,1213
0.037109375,1214
0.029296875,1215
0.033203125,1216
0.025390625,1217
0.029296875,1218
0.056640625,1219
0.064453125,1220
0.064453125,1221
0.0625,1222
0.064453125,1223
0.0625,1224
0.064453125,1225
0.064453125,1226
0.0625,1227
0.0625,1228
0.060546875,1229
0.05859375,1230
0.056640625,1231
0.064453125,1232
0.0625,1233
0.056640625,1234
0.056640625,1235
0.056640625,1236
0.056640625,1237
0.056640625,1238
0.05859375,1239
0.056640625,1240
0.0546875,1241
0.056640625,1242
0.060546875,1243
0.056640625,1244
0.05078125,1245
0.048828125,1246
0.05078125,1247
0.046875,1248
0.046875,1249
0.0546875,1250
0.05078125,1251
0.05078125,1252
0.05078125,1253
0.05078125,1254
0.046875,1255
0.052734375,1256
0.048828125,1257
0.056640625,1258
0.052734375,1259
0.056640625,1260
0.052734375,1261
0.0546875,1262
0.056640625,1263
0.0546875,1264
0.044921875,1265
0.046875,1266
0.0546875,1267
0.044921875,1268
0.044921875,1269
0.05078125,1270
0.05078125,1271
0.052734375,1272
0.0390625,1273
0.044921875,1274
0.052734375,1275
0.05859375,1276
0.060546875,1277
0.05859375,1278
0.064453125,1279
0.05859375,1280
0.0625,1281
0.0625,1282
0.064453125,1283
0.060546875,1284
0.05859375,1285
0.064453125,1286
0.056640625,1287
0.05859375,1288
0.060546875,1289
0.05078125,1290
0.04296875,1291
0.03515625,1292
0.03125,1293
0.02734375,1294
0.037109375,1295
0.025390625,1296
0.029296875,1297
0.0234375,1298
0.02734375,1299
0.02734375,1300
0.0234375,1301
0.021484375,1302
0.02734375,1303
0.02734375,1304
0.03125,1305
0.02734375,1306
0.02734375,1307
0.025390625,1308
0.0234375,1309
0.02734375,1310
0.0234375,1311
0.01953125,1312
0.025390625,1313
0.02734375,1314
0.02734375,1315
0.02734375,1316
0.0234375,1317
0.029296875,1318
0.02734375,1319
0.037109375,1320
0.025390625,1321
0.0390625,1322
0.02734375,1323
0.0234375,1324
0.02734375,1325
0.025390625,1326
0.01953125,1327
0.02734375,1328
0.01953125,1329
0.0234375,1330
0.01953125,1331
0.03515625,1332
0.02734375,1333
0.0234375,1334
0.03125,1335
0.037109375,1336
0.03125,1337
0.029296875,1338
0.03125,1339
0.03125,1340
0.029296875,1341
0.029296875,1342
0.029296875,1343
0.025390625,1344
0.02734375,1345
0.02734375,1346
0.029296875,1347
0.0234375,1348
0.033203125,1349
0.033203125,1350
0.0234375,1351
0.0234375,1352
0.021484375,1353
0.02734375,1354
0.029296875,1355
0.033203125,1356
0.03125,1357
0.03125,1358
0.02734375,1359
0.02734375,1360
0.02734375,1361
0.03125,1362
0.03125,1363
0.03125,1364
0.0234375,1365
0.03125,1366
0.03515625,1367
0.033203125,1368
0.03125,1369
0.03125,1370
0.033203125,1371
0.03515625,1372
0.04296875,1373
0.0390625,1374
0.03125,1375
0.03125,1376
0.033203125,1377
0.03515625,1378
0.037109375,1379
0.02734375,1380
0.03515625,1381
0.03125,1382
0.03515625,1383
0.03515625,1384
0.037109375,1385
0.02734375,1386
0.03125,1387
0.03125,1388
0.03125,1389
0.02734375,1390
0.029296875,1391
0.02734375,1392
0.02734375,1393
0.03515625,1394
0.01953125,1395
0.03515625,1396
0.029296875,1397
0.04296875,1398
0.037109375,1399
0.041015625,1400
0.044921875,1401
0.044921875,1402
0.03125,1403
0.02734375,1404
0.025390625,1405
0.041015625,1406
0.072265625,1407
0.076171875,1408
0.068359375,1409
0.064453125,1410
0.046875,1411
0.0390625,1412
0.0390625,1413
0.037109375,1414
0.02734375,1415
0.02734375,1416
0.029296875,1417
0.0234375,1418
0.029296875,1419
0.033203125,1420
0.029296875,1421
0.02734375,1422
0.033203125,1423
0.03125,1424
0.033203125,1425
0.029296875,1426
0.033203125,1427
0.02734375,1428
0.033203125,1429
0.033203125,1430
0.03515625,1431
0.037109375,1432
0.046875,1433
0.02734375,1434
0.04296875,1435
0.083984375,1436
0.095703125,1437
0.095703125,1438
0.095703125,1439
0.095703125,1440
0.095703125,1441
0.091796875,1442
0.08984375,1443
0.056640625,1444
0.04296875,1445
0.0703125,1446
0.083984375,1447
0.080078125,1448
0.091796875,1449
0.060546875,1450
0.080078125,1451
0.08984375,1452
0.0859375,1453
0.07421875,1454
0.06640625,1455
0.044921875,1456
0.0546875,1457
0.0546875,1458
0.046875,1459
0.076171875,1460
0.080078125,1461
0.080078125,1462
0.08203125,1463
0.08203125,1464
0.08203125,1465
0.08203125,1466
0.072265625,1467
0.06640625,1468
0.080078125,1469
0.095703125,1470
0.095703125,1471
0.095703125,1472
0.095703125,1473
0.083984375,1474
0.083984375,1475
0.087890625,1476
0.083984375,1477
0.0859375,1478
0.08203125,1479
0.080078125,1480
0.07421875,1481
0.078125,1482
0.078125,1483
0.068359375,1484
0.0703125,1485
0.068359375,1486
0.068359375,1487
0.06640625,1488
0.068359375,1489
0.0703125,1490
0.078125,1491
0.072265625,1492
0.060546875,1493
0.05078125,1494
0.06640625,1495
0.05078125,1496
0.0625,1497
0.05859375,1498
0.064453125,1499
0.064453125,1500
0.064453125,1501
0.0625,1502
0.064453125,1503
0.064453125,1504
0.0625,1505
0.064453125,1506
0.064453125,1507
0.0625,1508
0.064453125,1509
0.0625,1510
0.064453125,1511
0.064453125,1512
0.064453125,1513
0.0625,1514
0.064453125,1515
0.06640625,1516
0.068359375,1517
0.0703125,1518
0.064453125,1519
0.05078125,1520
0.048828125,1521
0.048828125,1522
0.0546875,1523
0.052734375,1524
0.041015625,1525
0.0390625,1526
0.0390625,1527
0.041015625,1528
0.041015625,1529
0.037109375,1530
0.03515625,1531
0.064453125,1532
0.064453125,1533
0.0625,1534
0.060546875,1535
0.060546875,1536
0.05859375,1537
0.05078125,1538
0.060546875,1539
0.0625,1540
0.048828125,1541
0.056640625,1542
0.046875,1543
0.044921875,1544
0.052734375,1545
0.056640625,1546
0.046875,1547
0.037109375,1548
0.044921875,1549
0.04296875,1550
0.046875,1551
0.048828125,1552
0.044921875,1553
0.05078125,1554
0.064453125,1555
0.0625,1556
0.064453125,1557
0.064453125,1558
0.05859375,1559
0.064453125,1560
0.060546875,1561
0.0625,1562
0.064453125,1563
0.05859375,1564
0.06640625,1565
0.046875,1566
0.048828125,1567
0.056640625,1568
0.0546875,1569
0.05078125,1570
0.05859375,1571
0.044921875,1572
0.04296875,1573
0.04296875,1574
0.0390625,1575
0.04296875,1576
0.03515625,1577
0.056640625,1578
0.064453125,1579
0.064453125,1580
0.0625,1581
0.064453125,1582
0.064453125,1583
0.0625,1584
0.064453125,1585
0.064453125,1586
0.0625,1587
0.064453125,1588
0.064453125,1589
0.0625,1590
0.064453125,1591
0.0625,1592
0.064453125,1593
0.0625,1594
0.08203125,1595
0.048828125,1596
0.044921875,1597
0.05078125,1598
0.0390625,1599
0.046875,1600
0.041015625,1601
0.044921875,1602
0.0400390625,1603
0.052734375,1604
0.06640625,1605
0.068359375,1606
0.068359375,1607
0.06640625,1608
0.048828125,1609
0.03125,1610
0.04296875,1611
0.056640625,1612
0.037109375,1613
0.048828125,1614
0.0546875,1615
0.048828125,1616
0.046875,1617
0.05078125,1618
0.0546875,1619
0.060546875,1620
0.056640625,1621
0.052734375,1622
0.056640625,1623
0.046875,1624
0.064453125,1625
0.0625,1626
0.064453125,1627
0.064453125,1628
0.0625,1629
0.0625,1630
0.064453125,1631
0.0625,1632
0.0625,1633
0.056640625,1634
0.064453125,1635
0.056640625,1636
0.04296875,1637
0.05859375,1638
0.056640625,1639
0.05859375,1640
0.0546875,1641
0.05859375,1642
0.060546875,1643
0.0546875,1644
0.056640625,1645
0.056640625,1646
0.052734375,1647
0.05078125,1648
0.048828125,1649
0.046875,1650
0.048828125,1651
0.046875,1652
0.046875,1653
0.046875,1654
0.048828125,1655
0.046875,1656
0.046875,1657
0.046875,1658
0.046875,1659
0.048828125,1660
0.046875,1661
0.048828125,1662
0.048828125,1663
0.0546875,1664
0.05078125,1665
0.05078125,1666
0.05078125,1667
0.05078125,1668
0.0546875,1669
0.048828125,1670
0.05078125,1671
0.052734375,1672
0.05078125,1673
0.05078125,1674
0.05078125,1675
0.05078125,1676
0.05078125,1677
0.05078125,1678
0.05078125,1679
0.05078125,1680
0.048828125,1681
0.052734375,1682
0.048828125,1683
0.05078125,1684
0.048828125,1685
0.048828125,1686
0.044921875,1687
0.0390625,1688
0.041015625,1689
0.033203125,1690
0.029296875,1691
0.025390625,1692
0.025390625,1693
0.025390625,1694
0.025390625,1695
0.025390625,1696
0.025390625,1697
0.025390625,1698
0.025390625,1699
0.0234375,1700
0.02734375,1701
0.0234375,1702
0.025390625,1703
0.03125,1704
0.02734375,1705
0.02734375,1706
0.029296875,1707
0.025390625,1708
0.0234375,1709
0.025390625,1710
0.029296875,1711
0.029296875,1712
0.025390625,1713
0.029296875,1714
0.025390625,1715
0.025390625,1716
0.044921875,1717
0.041015625,1718
0.041015625,1719
0.03515625,1720
0.04296875,1721
0.044921875,1722
0.04296875,1723
0.0390625,1724
0.0390625,1725
0.037109375,1726
0.046875,1727
0.0390625,1728
0.0390625,1729
0.04296875,1730
0.037109375,1731
0.0390625,1732
0.041015625,1733
0.037109375,1734
0.041015625,1735
0.03125,1736
0.03125,1737
0.025390625,1738
0.029296875,1739
0.01953125,1740
0.02734375,1741
0.02734375,1742
0.02734375,1743
0.0234375,1744
0.029296875,1745
0.03125,1746
0.0234375,1747
0.02734375,1748
0.03125,1749
0.02734375,1750
0.03125,1751
0.03125,1752
0.03125,1753
0.02734375,1754
0.03515625,1755
0.03125,1756
0.0390625,1757
0.037109375,1758
0.068359375,1759
0.083984375,1760
0.0859375,1761
0.083984375,1762
0.06640625,1763
0.0625,1764
0.056640625,1765
0.06640625,1766
0.041015625,1767
0.0546875,1768
0.05078125,1769
0.044921875,1770
0.041015625,1771
0.05078125,1772
0.044921875,1773
0.0390625,1774
0.0390625,1775
0.04296875,1776
0.03515625,1777
0.041015625,1778
0.03515625,1779
0.029296875,1780
0.041015625,1781
0.04296875,1782
0.0390625,1783
0.05859375,1784
0.091796875,1785
0.095703125,1786
0.095703125,1787
0.095703125,1788
0.09375,1789
0.09375,1790
0.078125,1791
0.025390625,1792
0.01953125,1793
0.02734375,1794
0.03515625,1795
0.05078125,1796
0.0625,1797
0.06640625,1798
0.05859375,1799
0.07421875,1800
0.068359375,1801
0.060546875,1802
0.052734375,1803
0.04296875,1804
0.05078125,1805
0.044921875,1806
0.060546875,1807
0.076171875,1808
0.078125,1809
0.0859375,1810
0.083984375,1811
0.08203125,1812
0.083984375,1813
0.060546875,1814
0.0546875,1815
0.04296875,1816
0.083984375,1817
0.095703125,1818
0.09375,1819
0.09375,1820
0.095703125,1821
0.095703125,1822
0.095703125,1823
0.068359375,1824
0.056640625,1825
0.080078125,1826
0.0859375,1827
0.083984375,1828
0.0859375,1829
0.080078125,1830
0.0703125,1831
0.080078125,1832
0.072265625,1833
0.068359375,1834
0.0703125,1835
0.064453125,1836
0.06640625,1837
0.0703125,1838
0.060546875,1839
0.05859375,1840
0.0703125,1841
0.05859375,1842
0.052734375,1843
0.064453125,1844
0.060546875,1845
0.064453125,1846
0.05859375,1847
0.068359375,1848
0.064453125,1849
0.064453125,1850
0.0625,1851
0.064453125,1852
0.068359375,1853
0.0625,1854
0.064453125,1855
0.05859375,1856
0.056640625,1857
0.06640625,1858
0.060546875,1859
0.0546875,1860
0.046875,1861
0.052734375,1862
0.05859375,1863
0.0546875,1864
0.197265625,1865
0.244140625,1866
0.23828125,1867
0.150390625,1868
0.12890625,1869
0.111328125,1870
0.123046875,1871
0.1171875,1872
0.130859375,1873
0.162109375,1874
0.1171875,1875
0.0546875,1876
0.046875,1877
0.044921875,1878
0.046875,1879
0.04296875,1880
0.029296875,1881
0.03515625,1882
0.03125,1883
0.044921875,1884
0.15234375,1885
0.09765625,1886
0.05078125,1887
0.0703125,1888
0.056640625,1889
0.07421875,1890
0.119140625,1891
0.123046875,1892
0.09375,1893
0.06640625,1894
0.068359375,1895
0.025390625,1896
0.037109375,1897
0.087890625,1898
0.048828125,1899
0.033203125,1900
0.029296875,1901
0.064453125,1902
0.048828125,1903
0.076171875,1904
0.07421875,1905
0.109375,1906
0.203125,1907
0.203125,1908
0.17578125,1909
0.109375,1910
0.177734375,1911
0.181640625,1912
0.201171875,1913
0.1875,1914
0.1796875,1915
0.16796875,1916
0.138671875,1917
0.119140625,1918
0.064453125,1919
0.0625,1920
0.083984375,1921
0.162109375,1922
0.16015625,1923
0.154296875,1924
0.140625,1925
0.130859375,1926
0.103515625,1927
0.0859375,1928
0.078125,1929
0.0859375,1930
0.05859375,1931
0.087890625,1932
0.09765625,1933
0.12109375,1934
0.107421875,1935
0.123046875,1936
0.12109375,1937
0.10546875,1938
0.09765625,1939
0.080078125,1940
0.109375,1941
0.107421875,1942
0.111328125,1943
0.119140625,1944
0.099609375,1945
0.07421875,1946
0.087890625,1947
0.0625,1948
0.068359375,1949
0.076171875,1950
0.095703125,1951
0.09765625,1952
0.09375,1953
0.06640625,1954
0.072265625,1955
0.078125,1956
0.1015625,1957
0.09375,1958
0.095703125,1959
0.09375,1960
0.09375,1961
0.09375,1962
0.091796875,1963
0.095703125,1964
0.09375,1965
0.095703125,1966
0.08984375,1967
0.091796875,1968
0.091796875,1969
0.083984375,1970
0.0859375,1971
0.080078125,1972
0.083984375,1973
0.08203125,1974
0.078125,1975
0.080078125,1976
0.08203125,1977
0.078125,1978
0.083984375,1979
0.083984375,1980
0.08203125,1981
0.07421875,1982
0.076171875,1983
0.087890625,1984
0.06640625,1985
0.064453125,1986
0.06640625,1987
0.0703125,1988
0.0625,1989
0.05859375,1990
0.05859375,1991
0.05078125,1992
0.05859375,1993
0.060546875,1994
0.068359375,1995
0.0625,1996
0.064453125,1997
0.060546875,1998
0.05859375,1999
0.06640625,2000
0.06640625,2001
0.060546875,2002
0.072265625,2003
0.046875,2004
0.046875,2005
0.048828125,2006
0.046875,2007
0.048828125,2008
0.046875,2009
0.048828125,2010
0.046875,2011
0.046875,2012
0.0546875,2013
0.056640625,2014
0.046875,2015
0.048828125,2016
0.05078125,2017
0.0546875,2018
0.05078125,2019
0.05078125,2020
0.05078125,2021
0.046875,2022
0.05078125,2023
0.05078125,2024
0.05078125,2025
0.048828125,2026
0.052734375,2027
0.048828125,2028
0.05078125,2029
0.05078125,2030
0.05078125,2031
0.05078125,2032
0.046875,2033
0.048828125,2034
0.044921875,2035
0.046875,2036
0.04296875,2037
0.048828125,2038
0.033203125,2039
0.041015625,2040
0.044921875,2041
0.0390625,2042
0.041015625,2043
0.0390625,2044
0.02734375,2045
0.02734375,2046
0.025390625,2047
0.025390625,2048
0.025390625,2049
0.0234375,2050
0.025390625,2051
0.025390625,2052
0.025390625,2053
0.025390625,2054
0.025390625,2055
0.025390625,2056
0.025390625,2057
0.037109375,2058
0.029296875,2059
0.033203125,2060
0.033203125,2061
0.029296875,2062
0.029296875,2063
0.029296875,2064
0.029296875,2065
0.029296875,2066
0.025390625,2067
0.029296875,2068
0.025390625,2069
0.0234375,2070
0.02734375,2071
0.02734375,2072
0.02734375,2073
0.041015625,2074
0.04296875,2075
0.044921875,2076
0.0390625,2077
0.04296875,2078
0.044921875,2079
0.041015625,2080
0.04296875,2081
0.04296875,2082
0.04296875,2083
0.04296875,2084
0.04296875,2085
0.041015625,2086
0.041015625,2087
0.04296875,2088
0.046875,2089
0.029296875,2090
0.0390625,2091
0.03515625,2092
0.03515625,2093
0.03515625,2094
0.03125,2095
0.0234375,2096
0.021484375,2097
0.029296875,2098
0.021484375,2099
0.03125,2100
0.02734375,2101
0.02734375,2102
0.029296875,2103
0.029296875,2104
0.021484375,2105
0.025390625,2106
0.048828125,2107
0.06640625,2108
0.08203125,2109
0.07421875,2110
0.060546875,2111
0.044921875,2112
0.041015625,2113
0.056640625,2114
0.044921875,2115
0.04296875,2116
0.044921875,2117
0.041015625,2118
0.033203125,2119
0.03515625,2120
0.04296875,2121
0.033203125,2122
0.0390625,2123
0.033203125,2124
0.037109375,2125
0.03515625,2126
0.0234375,2127
0.03515625,2128
0.03515625,2129
0.0234375,2130
0.041015625,2131
0.044921875,2132
0.044921875,2133
0.04296875,2134
0.03125,2135
0.033203125,2136
0.041015625,2137
0.03515625,2138
0.02734375,2139
0.03125,2140
0.029296875,2141
0.029296875,2142
0.033203125,2143
0.02734375,2144
0.03515625,2145
0.02734375,2146
0.033203125,2147
0.033203125,2148
0.025390625,2149
0.025390625,2150
0.025390625,2151
0.025390625,2152
0.025390625,2153
0.041015625,2154
0.056640625,2155
0.048828125,2156
0.052734375,2157
0.048828125,2158
0.037109375,2159
0.037109375,2160
0.056640625,2161
0.041015625,2162
0.048828125,2163
0.048828125,2164
0.044921875,2165
0.048828125,2166
0.044921875,2167
0.037109375,2168
0.037109375,2169
0.029296875,2170
0.0234375,2171
0.02734375,2172
0.0234375,2173
0.025390625,2174
0.044921875,2175
0.0859375,2176
0.0859375,2177
0.083984375,2178
0.0859375,2179
0.0703125,2180
0.060546875,2181
0.06640625,2182
0.06640625,2183
0.052734375,2184
0.05078125,2185
0.04296875,2186
0.037109375,2187
0.03515625,2188
0.0625,2189
0.06640625,2190
0.056640625,2191
0.0625,2192
0.0703125,2193
0.052734375,2194
0.046875,2195
0.021484375,2196
0.029296875,2197
0.04296875,2198
0.0625,2199
0.06640625,2200
0.083984375,2201
0.0859375,2202
0.0859375,2203
0.083984375,2204
0.0859375,2205
0.083984375,2206
0.0859375,2207
0.087890625,2208
0.0859375,2209
0.083984375,2210
0.0859375,2211
0.076171875,2212
0.05859375,2213
0.068359375,2214
0.052734375,2215
0.052734375,2216
0.046875,2217
0.04296875,2218
0.05078125,2219
0.04296875,2220
0.04296875,2221
0.0390625,2222
0.04296875,2223
0.05078125,2224
0.044921875,2225
0.05078125,2226
0.04296875,2227
0.046875,2228
0.044921875,2229
0.048828125,2230
0.0390625,2231
0.05078125,2232
0.048828125,2233
0.037109375,2234
0.04296875,2235
0.037109375,2236
0.04296875,2237
0.0546875,2238
0.037109375,2239
0.046875,2240
0.05078125,2241
0.046875,2242
0.048828125,2243
0.041015625,2244
0.029296875,2245
0.03125,2246
0.046875,2247
0.037109375,2248
0.04296875,2249
0.0546875,2250
0.052734375,2251
0.0546875,2252
0.052734375,2253
0.0546875,2254
0.052734375,2255
0.0546875,2256
0.052734375,2257
0.0546875,2258
0.052734375,2259
0.052734375,2260
0.052734375,2261
0.05078125,2262
0.052734375,2263
0.0546875,2264
0.048828125,2265
0.05078125,2266
0.052734375,2267
0.0546875,2268
0.052734375,2269
0.0546875,2270
0.052734375,2271
0.0546875,2272
0.052734375,2273
0.0546875,2274
0.052734375,2275
0.0546875,2276
0.056640625,2277
0.05078125,2278
0.048828125,2279
0.048828125,2280
0.056640625,2281
0.060546875,2282
0.060546875,2283
0.060546875,2284
0.060546875,2285
0.0546875,2286
0.0546875,2287
0.064453125,2288
0.05859375,2289
0.064453125,2290
0.056640625,2291
0.056640625,2292
0.056640625,2293
0.056640625,2294
0.06640625,2295
0.05859375,2296
0.060546875,2297
0.060546875,2298
0.0625,2299
0.0625,2300
0.05859375,2301
0.056640625,2302
0.064453125,2303
0.060546875,2304
0.0546875,2305
0.052734375,2306
0.0546875,2307
0.052734375,2308
0.05859375,2309
0.056640625,2310
0.05859375,2311
0.052734375,2312
0.05859375,2313
0.056640625,2314
0.0546875,2315
0.060546875,2316
0.0625,2317
0.052734375,2318
0.060546875,2319
0.056640625,2320
0.068359375,2321
0.060546875,2322
0.0625,2323
0.064453125,2324
0.06640625,2325
0.064453125,2326
0.064453125,2327
0.056640625,2328
0.046875,2329
0.060546875,2330
0.064453125,2331
0.048828125,2332
0.056640625,2333
0.0625,2334
0.060546875,2335
0.041015625,2336
0.04296875,2337
0.060546875,2338
0.044921875,2339
0.041015625,2340
0.033203125,2341
0.03515625,2342
0.044921875,2343
0.03515625,2344
0.037109375,2345
0.03515625,2346
0.044921875,2347
0.0625,2348
0.064453125,2349
0.0625,2350
0.0625,2351
0.064453125,2352
0.0625,2353
0.064453125,2354
0.064453125,2355
0.05859375,2356
0.06640625,2357
0.07421875,2358
0.0625,2359
0.072265625,2360
0.0625,2361
0.064453125,2362
0.064453125,2363
0.0625,2364
0.064453125,2365
0.064453125,2366
0.0625,2367
0.0625,2368
0.068359375,2369
0.05859375,2370
0.056640625,2371
0.052734375,2372
0.04296875,2373
0.0390625,2374
0.04296875,2375
0.037109375,2376
0.04296875,2377
0.03515625,2378
0.04296875,2379
0.037109375,2380
0.046875,2381
0.046875,2382
0.0390625,2383
0.037109375,2384
0.03125,2385
0.03515625,2386
0.04296875,2387
0.041015625,2388
0.037109375,2389
0.046875,2390
0.037109375,2391
0.033203125,2392
0.0390625,2393
0.0390625,2394
0.05859375,2395
0.056640625,2396
0.05859375,2397
0.052734375,2398
0.05078125,2399
0.046875,2400
0.05078125,2401
0.044921875,2402
0.04296875,2403
0.048828125,2404
0.05859375,2405
0.04296875,2406
0.06640625,2407
0.0625,2408
0.080078125,2409
0.068359375,2410
0.07421875,2411
0.076171875,2412
0.0703125,2413
0.0546875,2414
0.056640625,2415
0.05859375,2416
0.0625,2417
0.05859375,2418
0.064453125,2419
0.04296875,2420
0.0546875,2421
0.056640625,2422
0.0625,2423
0.060546875,2424
0.052734375,2425
0.052734375,2426
0.056640625,2427
0.064453125,2428
0.0625,2429
0.068359375,2430
0.068359375,2431
0.06640625,2432
0.068359375,2433
0.06640625,2434
0.0625,2435
0.0625,2436
0.064453125,2437
0.068359375,2438
0.0625,2439
0.064453125,2440
0.064453125,2441
0.06640625,2442
0.0625,2443
0.064453125,2444
0.05078125,2445
0.0546875,2446
0.0546875,2447
0.064453125,2448
0.044921875,2449
0.048828125,2450
0.05078125,2451
0.0625,2452
0.0703125,2453
0.064453125,2454
0.068359375,2455
0.076171875,2456
0.068359375,2457
0.07421875,2458
0.0625,2459
0.087890625,2460
0.078125,2461
0.072265625,2462
0.076171875,2463
0.064453125,2464
0.072265625,2465
0.0625,2466
0.06640625,2467
0.076171875,2468
0.064453125,2469
0.064453125,2470
0.064453125,2471
0.0625,2472
0.064453125,2473
0.064453125,2474
0.0625,2475
0.068359375,2476
0.0625,2477
0.0703125,2478
0.0703125,2479
0.072265625,2480
0.072265625,2481
0.0703125,2482
0.072265625,2483
0.072265625,2484
0.076171875,2485
0.078125,2486
0.080078125,2487
0.083984375,2488
0.08203125,2489
0.072265625,2490
0.068359375,2491
0.07421875,2492
0.076171875,2493
0.0859375,2494
0.083984375,2495
0.0859375,2496
0.08203125,2497
0.087890625,2498
0.08203125,2499
0.080078125,2500
0.09375,2501
0.09375,2502
0.09375,2503
0.095703125,2504
0.095703125,2505
0.095703125,2506
0.095703125,2507
0.091796875,2508
0.08203125,2509
0.0859375,2510
0.072265625,2511
0.08203125,2512
0.08203125,2513
0.07421875,2514
0.064453125,2515
0.0703125,2516
0.0703125,2517
0.09375,2518
0.080078125,2519
0.107421875,2520
0.103515625,2521
0.099609375,2522
0.099609375,2523
0.091796875,2524
0.08203125,2525
0.072265625,2526
0.076171875,2527
0.076171875,2528
0.087890625,2529
0.0859375,2530
0.095703125,2531
0.09375,2532
0.095703125,2533
0.0625,2534
0.072265625,2535
0.068359375,2536
0.064453125,2537
0.052734375,2538
0.056640625,2539
0.0625,2540
0.056640625,2541
0.052734375,2542
0.06640625,2543
0.052734375,2544
0.044921875,2545
0.025390625,2546
0.025390625,2547
0.025390625,2548
0.025390625,2549
0.025390625,2550
0.029296875,2551
0.03515625,2552
0.029296875,2553
0.03515625,2554
0.037109375,2555
0.03515625,2556
0.052734375,2557
0.044921875,2558
0.0546875,2559
0.060546875,2560
0.052734375,2561
0.068359375,2562
0.083984375,2563
0.0859375,2564
0.080078125,2565
0.0859375,2566
0.09375,2567
0.072265625,2568
0.08203125,2569
0.083984375,2570
0.0703125,2571
0.08203125,2572
0.064453125,2573
0.072265625,2574
0.064453125,2575
0.052734375,2576
0.056640625,2577
0.052734375,2578
0.05078125,2579
0.056640625,2580
0.05078125,2581
0.072265625,2582
0.046875,2583
0.044921875,2584
0.046875,2585
0.041015625,2586
0.048828125,2587
0.048828125,2588
0.041015625,2589
0.046875,2590
0.046875,2591
0.04296875,2592
0.046875,2593
0.056640625,2594
0.048828125,2595
0.0625,2596
0.05078125,2597
0.05859375,2598
0.0546875,2599
0.048828125,2600
0.0546875,2601
0.05859375,2602
0.046875,2603
0.056640625,2604
0.05078125,2605
0.04296875,2606
0.046875,2607
0.041015625,2608
0.04296875,2609
0.0390625,2610
0.044921875,2611
0.04296875,2612
0.0625,2613
0.046875,2614
0.05078125,2615
0.05859375,2616
0.0546875,2617
0.052734375,2618
0.052734375,2619
0.046875,2620
0.052734375,2621
0.064453125,2622
0.046875,2623
0.046875,2624
0.044921875,2625
0.0390625,2626
0.048828125,2627
0.046875,2628
0.046875,2629
0.044921875,2630
0.04296875,2631
0.048828125,2632
0.048828125,2633
0.046875,2634
0.05078125,2635
0.046875,2636
0.048828125,2637
0.046875,2638
0.048828125,2639
0.046875,2640
0.046875,2641
0.04296875,2642
0.05078125,2643
0.048828125,2644
0.046875,2645
0.05078125,2646
0.068359375,2647
0.06640625,2648
0.05859375,2649
0.0625,2650
0.044921875,2651
0.048828125,2652
0.044921875,2653
0.05859375,2654
0.046875,2655
0.056640625,2656
0.04296875,2657
0.044921875,2658
0.041015625,2659
0.0546875,2660
0.0390625,2661
0.060546875,2662
0.064453125,2663
0.08203125,2664
0.123046875,2665
0.1171875,2666
0.09375,2667
0.060546875,2668
0.05859375,2669
0.0703125,2670
0.0703125,2671
0.08984375,2672
0.087890625,2673
0.078125,2674
0.0703125,2675
0.072265625,2676
0.052734375,2677
0.05859375,2678
0.05859375,2679
0.048828125,2680
0.0546875,2681
0.04296875,2682
0.046875,2683
0.05859375,2684
0.05078125,2685
0.03125,2686
0.041015625,2687
0.025390625,2688
0.033203125,2689
0.037109375,2690
0.025390625,2691
0.041015625,2692
0.056640625,2693
0.07421875,2694
0.09375,2695
0.072265625,2696
0.08203125,2697
0.0859375,2698
0.08203125,2699
0.076171875,2700
0.08203125,2701
0.076171875,2702
0.068359375,2703
0.07421875,2704
0.07421875,2705
0.0703125,2706
0.0859375,2707
0.083984375,2708
0.0859375,2709
0.07421875,2710
0.076171875,2711
0.068359375,2712
0.08203125,2713
0.06640625,2714
0.068359375,2715
0.072265625,2716
0.064453125,2717
0.068359375,2718
0.06640625,2719
0.068359375,2720
0.048828125,2721
0.041015625,2722
0.056640625,2723
0.056640625,2724
0.06640625,2725
0.041015625,2726
0.0546875,2727
0.04296875,2728
0.046875,2729
0.044921875,2730
0.048828125,2731
0.044921875,2732
0.04296875,2733
0.041015625,2734
0.044921875,2735
0.05078125,2736
0.05078125,2737
0.05078125,2738
0.046875,2739
0.03515625,2740
0.05078125,2741
0.046875,2742
0.0546875,2743
0.0546875,2744
0.044921875,2745
0.05859375,2746
0.048828125,2747
0.041015625,2748
0.048828125,2749
0.046875,2750
0.056640625,2751
0.056640625,2752
0.05859375,2753
0.0546875,2754
0.05078125,2755
0.052734375,2756
0.064453125,2757
0.05859375,2758
0.04296875,2759
0.041015625,2760
0.046875,2761
0.046875,2762
0.052734375,2763
0.0546875,2764
0.05078125,2765
0.05078125,2766
0.041015625,2767
0.046875,2768
0.04296875,2769
0.041015625,2770
0.04296875,2771
0.046875,2772
0.05859375,2773
0.048828125,2774
0.046875,2775
0.052734375,2776
0.046875,2777
0.048828125,2778
0.046875,2779
0.048828125,2780
0.05078125,2781
0.052734375,2782
0.05078125,2783
0.052734375,2784
0.04296875,2785
0.0625,2786
0.052734375,2787
0.046875,2788
0.064453125,2789
0.0546875,2790
0.05078125,2791
0.046875,2792
0.041015625,2793
0.046875,2794
0.060546875,2795
0.04296875,2796
0.05078125,2797
0.044921875,2798
0.044921875,2799
0.06640625,2800
0.048828125,2801
0.04296875,2802
0.046875,2803
0.04296875,2804
0.0546875,2805
0.201171875,2806
0.203125,2807
0.177734375,2808
0.091796875,2809
0.115234375,2810
0.169921875,2811
0.197265625,2812
0.1875,2813
0.15625,2814
0.083984375,2815
0.072265625,2816
0.0859375,2817
0.076171875,2818
0.041015625,2819
0.052734375,2820
0.06640625,2821
0.08203125,2822
0.048828125,2823
0.064453125,2824
0.037109375,2825
0.037109375,2826
0.029296875,2827
0.0234375,2828
0.041015625,2829
0.041015625,2830
0.02734375,2831
0.041015625,2832
0.041015625,2833
0.041015625,2834
0.037109375,2835
0.048828125,2836
0.044921875,2837
0.041015625,2838
0.048828125,2839
0.171875,2840
0.169921875,2841
0.169921875,2842
0.166015625,2843
0.169921875,2844
0.14453125,2845
0.126953125,2846
0.095703125,2847
0.1015625,2848
0.080078125,2849
0.087890625,2850
0.08984375,2851
0.068359375,2852
0.083984375,2853
0.10546875,2854
0.087890625,2855
0.091796875,2856
0.078125,2857
0.091796875,2858
0.083984375,2859
0.0703125,2860
0.072265625,2861
0.0859375,2862
0.076171875,2863
0.060546875,2864
0.0703125,2865
0.06640625,2866
0.087890625,2867
0.09765625,2868
0.1015625,2869
0.09765625,2870
0.103515625,2871
0.095703125,2872
0.08203125,2873
0.09765625,2874
0.0859375,2875
0.083984375,2876
0.09375,2877
0.09375,2878
0.08203125,2879
0.0859375,2880
0.083984375,2881
0.0859375,2882
0.0859375,2883
0.083984375,2884
0.080078125,2885
0.078125,2886
0.078125,2887
0.078125,2888
0.076171875,2889
0.076171875,2890
0.0703125,2891
0.078125,2892
0.072265625,2893
0.072265625,2894
0.06640625,2895
0.04296875,2896
0.064453125,2897
0.060546875,2898
0.044921875,2899
0.04296875,2900
0.05078125,2901
0.0546875,2902
0.05859375,2903
0.0625,2904
0.060546875,2905
0.05859375,2906
0.05859375,2907
0.048828125,2908
0.048828125,2909
0.048828125,2910
0.05078125,2911
0.048828125,2912
0.044921875,2913
0.044921875,2914
0.044921875,2915
0.044921875,2916
0.044921875,2917
0.044921875,2918
0.044921875,2919
0.044921875,2920
0.044921875,2921
0.044921875,2922
0.048828125,2923
0.044921875,2924
0.044921875,2925
0.044921875,2926
0.046875,2927
0.044921875,2928
0.044921875,2929
0.044921875,2930
0.044921875,2931
0.041015625,2932
0.044921875,2933
0.048828125,2934
0.041015625,2935
0.044921875,2936
0.041015625,2937
0.044921875,2938
0.044921875,2939
0.046875,2940
0.037109375,2941
0.048828125,2942
0.025390625,2943
0.04296875,2944
0.060546875,2945
0.044921875,2946
0.037109375,2947
0.025390625,2948
0.029296875,2949
0.0234375,2950
0.021484375,2951
0.021484375,2952
0.029296875,2953
0.03515625,2954
0.029296875,2955
0.02734375,2956
0.02734375,2957
0.033203125,2958
0.0390625,2959
0.029296875,2960
0.033203125,2961
0.041015625,2962
0.029296875,2963
0.03125,2964
0.029296875,2965
0.03125,2966
0.037109375,2967
0.025390625,2968
0.037109375,2969
0.041015625,2970
0.029296875,2971
0.029296875,2972
0.029296875,2973
0.02734375,2974
0.033203125,2975
0.03515625,2976
0.029296875,2977
0.041015625,2978
0.033203125,2979
0.03125,2980
0.0390625,2981
0.048828125,2982
0.072265625,2983
0.05859375,2984
0.056640625,2985
0.046875,2986
0.041015625,2987
0.048828125,2988
0.05078125,2989
0.044921875,2990
0.0390625,2991
0.041015625,2992
0.0390625,2993
0.041015625,2994
0.041015625,2995
0.0390625,2996
0.041015625,2997
0.041015625,2998
0.0390625,2999
0.033203125,3000
0.041015625,3001
0.0390625,3002
0.037109375,3003
0.0390625,3004
0.037109375,3005
0.037109375,3006
0.03515625,3007
0.029296875,3008
0.03125,3009
0.041015625,3010
0.03515625,3011
0.037109375,3012
0.03125,3013
0.033203125,3014
0.03125,3015
0.033203125,3016
0.037109375,3017
0.041015625,3018
0.05078125,3019
0.044921875,3020
0.046875,3021
0.041015625,3022
0.04296875,3023
0.041015625,3024
0.04296875,3025
0.041015625,3026
0.04296875,3027
0.04296875,3028
0.04296875,3029
0.04296875,3030
0.041015625,3031
0.04296875,3032
0.04296875,3033
0.046875,3034
0.046875,3035
0.046875,3036
0.046875,3037
0.04296875,3038
0.041015625,3039
0.046875,3040
0.046875,3041
0.0546875,3042
0.05078125,3043
0.041015625,3044
0.0390625,3045
0.048828125,3046
0.048828125,3047
0.037109375,3048
0.044921875,3049
0.03515625,3050
0.046875,3051
0.0390625,3052
0.029296875,3053
0.025390625,3054
0.025390625,3055
0.025390625,3056
0.025390625,3057
0.025390625,3058
0.025390625,3059
0.025390625,3060
0.025390625,3061
0.025390625,3062
0.025390625,3063
0.025390625,3064
0.025390625,3065
0.033203125,3066
0.0390625,3067
0.0390625,3068
0.029296875,3069
0.033203125,3070
0.025390625,3071
0.02734375,3072
0.03125,3073
0.0234375,3074
0.029296875,3075
0.025390625,3076
0.025390625,3077
0.029296875,3078
0.03515625,3079
0.033203125,3080
0.03515625,3081
0.033203125,3082
0.03125,3083
0.03515625,3084
0.03125,3085
0.037109375,3086
0.03515625,3087
0.03125,3088
0.033203125,3089
0.03125,3090
0.03125,3091
0.033203125,3092
0.03125,3093
0.03515625,3094
0.03515625,3095
0.033203125,3096
0.03125,3097
0.033203125,3098
0.03125,3099
0.029296875,3100
0.025390625,3101
0.025390625,3102
0.025390625,3103
0.025390625,3104
0.025390625,3105
0.025390625,3106
0.025390625,3107
0.025390625,3108
0.025390625,3109
0.025390625,3110
0.025390625,3111
0.037109375,3112
0.03515625,3113
0.0390625,3114
0.03515625,3115
0.037109375,3116
0.03515625,3117
0.0390625,3118
0.037109375,3119
0.03125,3120
0.02734375,3121
0.037109375,3122
0.025390625,3123
0.033203125,3124
0.04296875,3125
0.041015625,3126
0.0390625,3127
0.04296875,3128
0.0390625,3129
0.033203125,3130
0.03515625,3131
0.041015625,3132
0.037109375,3133
0.03515625,3134
0.03125,3135
0.02734375,3136
0.033203125,3137
0.03515625,3138
0.0234375,3139
0.03125,3140
0.02734375,3141
0.03125,3142
0.0234375,3143
0.0234375,3144
0.02734375,3145
0.025390625,3146
0.025390625,3147
0.025390625,3148
0.025390625,3149
0.025390625,3150
0.029296875,3151
0.02734375,3152
0.033203125,3153
0.025390625,3154
0.033203125,3155
0.0234375,3156
0.0390625,3157
0.037109375,3158
0.02734375,3159
0.029296875,3160
0.025390625,3161
0.029296875,3162
0.029296875,3163
0.037109375,3164
0.029296875,3165
0.03515625,3166
0.029296875,3167
0.025390625,3168
0.0234375,3169
0.02734375,3170
0.029296875,3171
0.0234375,3172
0.029296875,3173
0.021484375,3174
0.0234375,3175
0.03125,3176
0.02734375,3177
0.03125,3178
0.02734375,3179
0.029296875,3180
0.033203125,3181
0.029296875,3182
0.025390625,3183
0.03125,3184
0.02734375,3185
0.025390625,3186
0.02734375,3187
0.0234375,3188
0.021484375,3189
0.017578125,3190
0.02734375,3191
0.025390625,3192
0.01953125,3193
0.02734375,3194
0.01953125,3195
0.01953125,3196
0.015625,3197
0.025390625,3198
0.021484375,3199
0.01953125,3200
0.015625,3201
0.0234375,3202
0.0234375,3203
0.0234375,3204
0.01953125,3205
0.02734375,3206
0.033203125,3207
0.01953125,3208
0.0234375,3209
0.029296875,3210
0.01953125,3211
0.02734375,3212
0.017578125,3213
0.025390625,3214
0.02734375,3215
0.0625,3216
0.052734375,3217
0.05859375,3218
0.05078125,3219
0.05078125,3220
0.046875,3221
0.046875,3222
0.044921875,3223
0.0390625,3224
0.037109375,3225
0.0390625,3226
0.03515625,3227
0.03515625,3228
0.033203125,3229
0.0390625,3230
0.03125,3231
0.033203125,3232
0.03125,3233
0.03125,3234
0.03125,3235
0.037109375,3236
0.04296875,3237
0.041015625,3238
0.03125,3239
0.0390625,3240
0.033203125,3241
0.041015625,3242
0.03125,3243
0.03515625,3244
0.03515625,3245
0.025390625,3246
0.02734375,3247
0.046875,3248
0.02734375,3249
0.029296875,3250
0.0234375,3251
0.029296875,3252
0.0234375,3253
0.02734375,3254
0.029296875,3255
0.037109375,3256
0.02734375,3257
0.0234375,3258
0.021484375,3259
0.02734375,3260
0.01953125,3261
0.025390625,3262
0.02734375,3263
0.02734375,3264
0.021484375,3265
0.02734375,3266
0.03125,3267
0.037109375,3268
0.029296875,3269
0.0390625,3270
0.033203125,3271
0.033203125,3272
0.03125,3273
0.033203125,3274
0.033203125,3275
0.03515625,3276
0.03125,3277
0.029296875,3278
0.02734375,3279
0.025390625,3280
0.02734375,3281
0.025390625,3282
0.021484375,3283
0.033203125,3284
0.037109375,3285
0.033203125,3286
0.033203125,3287
0.033203125,3288
0.03515625,3289
0.025390625,3290
0.03125,3291
0.02734375,3292
0.021484375,3293
0.025390625,3294
0.025390625,3295
0.0234375,3296
0.021484375,3297
0.0234375,3298
0.021484375,3299
0.01953125,3300
0.04296875,3301
0.0390625,3302
0.056640625,3303
0.041015625,3304
0.033203125,3305
0.041015625,3306
0.05078125,3307
0.041015625,3308
0.041015625,3309
0.04296875,3310
0.033203125,3311
0.04296875,3312
0.048828125,3313
0.046875,3314
0.037109375,3315
0.03515625,3316
0.03125,3317
0.037109375,3318
0.03125,3319
0.046875,3320
0.041015625,3321
0.046875,3322
0.037109375,3323
0.041015625,3324
0.03125,3325
0.041015625,3326
0.041015625,3327
0.029296875,3328
0.044921875,3329
0.037109375,3330
0.041015625,3331
0.02734375,3332
0.02734375,3333
0.033203125,3334
0.02734375,3335
0.03125,3336
0.025390625,3337
0.02734375,3338
0.03515625,3339
0.03515625,3340
0.03125,3341
0.033203125,3342
0.0390625,3343
0.037109375,3344
0.033203125,3345
0.03515625,3346
0.03515625,3347
0.03515625,3348
0.03125,3349
0.0390625,3350
0.03515625,3351
0.033203125,3352
0.033203125,3353
0.029296875,3354
0.033203125,3355
0.03125,3356
0.03125,3357
0.03125,3358
0.03125,3359
0.025390625,3360
0.033203125,3361
0.033203125,3362
0.033203125,3363
0.02734375,3364
0.03125,3365
0.033203125,3366
0.037109375,3367
0.033203125,3368
0.03125,3369
0.02734375,3370
0.033203125,3371
0.03125,3372
0.037109375,3373
0.029296875,3374
0.02734375,3375
0.03515625,3376
0.056640625,3377
0.056640625,3378
0.056640625,3379
0.05859375,3380
0.056640625,3381
0.0546875,3382
0.05859375,3383
0.044921875,3384
0.044921875,3385
0.037109375,3386
0.048828125,3387
0.052734375,3388
0.048828125,3389
0.056640625,3390
0.05859375,3391
0.056640625,3392
0.0546875,3393
0.05859375,3394
0.056640625,3395
0.052734375,3396
0.037109375,3397
0.0390625,3398
0.044921875,3399
0.0390625,3400
0.0390625,3401
0.0390625,3402
0.0390625,3403
0.03515625,3404
0.041015625,3405
0.03515625,3406
0.03515625,3407
0.037109375,3408
0.04296875,3409
0.05078125,3410
0.05859375,3411
0.056640625,3412
0.056640625,3413
0.056640625,3414
0.056640625,3415
0.056640625,3416
0.056640625,3417
0.048828125,3418
0.04296875,3419
0.044921875,3420
0.05078125,3421
0.0546875,3422
0.052734375,3423
0.052734375,3424
0.052734375,3425
0.056640625,3426
0.056640625,3427
0.041015625,3428
0.037109375,3429
0.046875,3430
0.05078125,3431
0.044921875,3432
0.048828125,3433
0.046875,3434
0.048828125,3435
0.046875,3436
0.048828125,3437
0.046875,3438
0.048828125,3439
0.046875,3440
0.048828125,3441
0.046875,3442
0.046875,3443
0.048828125,3444
0.048828125,3445
0.046875,3446
0.046875,3447
0.048828125,3448
0.04296875,3449
0.046875,3450
0.052734375,3451
0.044921875,3452
0.04296875,3453
0.037109375,3454
0.04296875,3455
0.048828125,3456
0.04296875,3457
0.046875,3458
0.04296875,3459
0.041015625,3460
0.04296875,3461
0.041015625,3462
0.04296875,3463
0.04296875,3464
0.04296875,3465
0.041015625,3466
0.04296875,3467
0.04296875,3468
0.04296875,3469
0.04296875,3470
0.04296875,3471
0.04296875,3472
0.041015625,3473
0.04296875,3474
0.04296875,3475
0.037109375,3476
0.03125,3477
0.044921875,3478
0.03125,3479
0.037109375,3480
0.05078125,3481
0.041015625,3482
0.0390625,3483
0.037109375,3484
0.0390625,3485
0.037109375,3486
0.037109375,3487
0.03515625,3488
0.033203125,3489
0.03515625,3490
0.03125,3491
0.0234375,3492
0.033203125,3493
0.02734375,3494
0.0234375,3495
0.029296875,3496
0.033203125,3497
0.033203125,3498
0.03125,3499
0.033203125,3500
0.029296875,3501
0.0390625,3502
0.03125,3503
0.03515625,3504
0.029296875,3505
0.03125,3506
0.03515625,3507
0.03515625,3508
0.033203125,3509
0.0390625,3510
0.03125,3511
0.037109375,3512
0.029296875,3513
0.029296875,3514
0.046875,3515
0.029296875,3516
0.02734375,3517
0.02734375,3518
0.02734375,3519
0.025390625,3520
0.025390625,3521
0.029296875,3522
0.01953125,3523
0.03125,3524
0.0234375,3525
0.0234375,3526
0.029296875,3527
0.02734375,3528
0.02734375,3529
0.0234375,3530
0.02734375,3531
0.025390625,3532
0.025390625,3533
0.0234375,3534
0.025390625,3535
0.0234375,3536
0.02734375,3537
0.037109375,3538
0.0390625,3539
0.033203125,3540
0.04296875,3541
0.04296875,3542
0.04296875,3543
0.041015625,3544
0.04296875,3545
0.0390625,3546
0.04296875,3547
0.03515625,3548
0.046875,3549
0.04296875,3550
0.044921875,3551
0.04296875,3552
0.046875,3553
0.05859375,3554
0.044921875,3555
0.04296875,3556
0.033203125,3557
0.03515625,3558
0.029296875,3559
0.041015625,3560
0.044921875,3561
0.03125,3562
0.029296875,3563
0.037109375,3564
0.05078125,3565
0.046875,3566
0.048828125,3567
0.046875,3568
0.048828125,3569
0.046875,3570
0.048828125,3571
0.046875,3572
0.046875,3573
0.048828125,3574
0.048828125,3575
0.046875,3576
0.048828125,3577
0.04296875,3578
0.041015625,3579
0.04296875,3580
0.04296875,3581
0.046875,3582
0.041015625,3583
0.04296875,3584
0.048828125,3585
0.0390625,3586
0.046875,3587
0.046875,3588
0.037109375,3589
0.037109375,3590
0.041015625,3591
0.04296875,3592
0.0390625,3593
0.03515625,3594
0.037109375,3595
0.0390625,3596
0.048828125,3597
0.033203125,3598
0.033203125,3599
0.033203125,3600
0.0390625,3601
0.0390625,3602
0.033203125,3603
0.04296875,3604
0.03125,3605
0.03125,3606
0.03515625,3607
0.0234375,3608
0.048828125,3609
0.05078125,3610
0.05078125,3611
0.05078125,3612
0.046875,3613
0.046875,3614
0.048828125,3615
0.044921875,3616
0.03125,3617
0.044921875,3618
0.046875,3619
0.05078125,3620
0.046875,3621
0.05078125,3622
0.05078125,3623
0.046875,3624
0.05078125,3625
0.0546875,3626
0.05078125,3627
0.041015625,3628
0.033203125,3629
0.037109375,3630
0.044921875,3631
0.06640625,3632
0.052734375,3633
0.04296875,3634
0.044921875,3635
0.0546875,3636
0.052734375,3637
0.052734375,3638
0.04296875,3639
0.044921875,3640
0.03515625,3641
0.04296875,3642
0.041015625,3643
0.052734375,3644
0.046875,3645
0.041015625,3646
0.04296875,3647
0.041015625,3648
0.041015625,3649
0.056640625,3650
0.0390625,3651
0.0390625,3652
0.033203125,3653
0.04296875,3654
0.03515625,3655
0.041015625,3656
0.044921875,3657
0.041015625,3658
0.03515625,3659
0.029296875,3660
0.03515625,3661
0.025390625,3662
0.03515625,3663
0.02734375,3664
0.033203125,3665
0.04296875,3666
0.025390625,3667
0.029296875,3668
0.029296875,3669
0.03125,3670
0.033203125,3671
0.03125,3672
0.03125,3673
0.05859375,3674
0.044921875,3675
0.0546875,3676
0.0390625,3677
0.05078125,3678
0.041015625,3679
0.04296875,3680
0.041015625,3681
0.05859375,3682
0.046875,3683
0.05859375,3684
0.041015625,3685
0.068359375,3686
0.048828125,3687
0.0546875,3688
0.044921875,3689
0.046875,3690
0.041015625,3691
0.048828125,3692
0.052734375,3693
0.04296875,3694
0.048828125,3695
0.044921875,3696
0.04296875,3697
0.044921875,3698
0.052734375,3699
0.0703125,3700
0.076171875,3701
0.078125,3702
0.076171875,3703
0.0625,3704
0.064453125,3705
0.068359375,3706
0.064453125,3707
0.068359375,3708
0.0546875,3709
0.037109375,3710
0.037109375,3711
0.0390625,3712
0.044921875,3713
0.03515625,3714
0.037109375,3715
0.033203125,3716
0.029296875,3717
0.03125,3718
0.044921875,3719
0.03515625,3720
0.03125,3721
0.037109375,3722
0.06640625,3723
0.0703125,3724
0.07421875,3725
0.076171875,3726
0.076171875,3727
0.07421875,3728
0.076171875,3729
0.072265625,3730
0.072265625,3731
0.068359375,3732
0.07421875,3733
0.072265625,3734
0.068359375,3735
0.044921875,3736
0.0546875,3737
0.03515625,3738
0.037109375,3739
0.044921875,3740
0.03515625,3741
0.033203125,3742
0.03125,3743
0.02734375,3744
0.03515625,3745
0.03125,3746
0.02734375,3747
0.052734375,3748
0.0546875,3749
0.056640625,3750
0.0625,3751
0.046875,3752
0.056640625,3753
0.0546875,3754
0.0546875,3755
0.0625,3756
0.052734375,3757
0.052734375,3758
0.05078125,3759
0.041015625,3760
0.037109375,3761
0.04296875,3762
0.041015625,3763
0.041015625,3764
0.03125,3765
0.037109375,3766
0.03125,3767
0.03125,3768
0.0390625,3769
0.025390625,3770
0.02734375,3771
0.029296875,3772
0.0234375,3773
0.02734375,3774
0.025390625,3775
0.0234375,3776
0.025390625,3777
0.0234375,3778
0.03125,3779
0.03125,3780
0.03125,3781
0.02734375,3782
0.02734375,3783
0.03125,3784
0.025390625,3785
0.029296875,3786
0.029296875,3787
0.02734375,3788
0.02734375,3789
0.025390625,3790
0.0234375,3791
0.02734375,3792
0.0234375,3793
0.025390625,3794
0.02734375,3795
0.025390625,3796
0.029296875,3797
0.03125,3798
0.02734375,3799
0.03515625,3800
0.029296875,3801
0.03125,3802
0.033203125,3803
0.03515625,3804
0.04296875,3805
0.03125,3806
0.037109375,3807
0.03125,3808
0.033203125,3809
0.0390625,3810
0.0390625,3811
0.041015625,3812
0.033203125,3813
0.037109375,3814
0.037109375,3815
0.029296875,3816
0.02734375,3817
0.0234375,3818
0.025390625,3819
0.025390625,3820
0.03515625,3821
0.02734375,3822
0.02734375,3823
0.021484375,3824
0.025390625,3825
0.021484375,3826
0.02734375,3827
0.0234375,3828
0.025390625,3829
0.021484375,3830
0.0234375,3831
0.03125,3832
0.025390625,3833
0.01953125,3834
0.021484375,3835
0.02734375,3836
0.056640625,3837
0.05859375,3838
0.044921875,3839
0.0546875,3840
0.056640625,3841
0.048828125,3842
0.052734375,3843
0.05078125,3844
0.048828125,3845
0.0390625,3846
0.03515625,3847
0.03515625,3848
0.033203125,3849
0.02734375,3850
0.02734375,3851
0.03125,3852
0.02734375,3853
0.029296875,3854
0.02734375,3855
0.029296875,3856
0.03125,3857
0.02734375,3858
0.029296875,3859
0.03125,3860
0.02734375,3861
0.021484375,3862
0.03125,3863
0.02734375,3864
0.0234375,3865
0.025390625,3866
0.02734375,3867
0.029296875,3868
0.0234375,3869
0.03125,3870
0.033203125,3871
0.033203125,3872
0.033203125,3873
0.025390625,3874
0.021484375,3875
0.025390625,3876
0.025390625,3877
0.0234375,3878
0.02734375,3879
0.025390625,3880
0.03125,3881
0.033203125,3882
0.033203125,3883
0.025390625,3884
0.021484375,3885
0.02734375,3886
0.03515625,3887
0.02734375,3888
0.029296875,3889
0.021484375,3890
0.029296875,3891
0.025390625,3892
0.037109375,3893
0.025390625,3894
0.029296875,3895
0.02734375,3896
0.025390625,3897
0.02734375,3898
0.029296875,3899
0.0234375,3900
0.025390625,3901
0.037109375,3902
0.029296875,3903
0.02734375,3904
0.02734375,3905
0.033203125,3906
0.029296875,3907
0.03515625,3908
0.03515625,3909
0.0234375,3910
0.025390625,3911
0.03125,3912
0.029296875,3913
0.0390625,3914
0.05859375,3915
0.046875,3916
0.0390625,3917
0.033203125,3918
0.0390625,3919
0.04296875,3920
0.033203125,3921
0.041015625,3922
0.0390625,3923
0.033203125,3924
0.025390625,3925
0.041015625,3926
0.03125,3927
0.029296875,3928
0.037109375,3929
0.041015625,3930
0.033203125,3931
0.01953125,3932
0.03515625,3933
0.03125,3934
0.041015625,3935
0.03515625,3936
0.041015625,3937
0.041015625,3938
0.037109375,3939
0.041015625,3940
0.0390625,3941
0.029296875,3942
0.03125,3943
0.033203125,3944
0.03515625,3945
0.029296875,3946
0.0234375,3947
0.029296875,3948
0.025390625,3949
0.033203125,3950
0.025390625,3951
0.033203125,3952
0.025390625,3953
0.0234375,3954
0.029296875,3955
0.03515625,3956
0.0234375,3957
0.037109375,3958
0.029296875,3959
0.033203125,3960
0.03125,3961
0.03515625,3962
0.033203125,3963
0.03515625,3964
0.037109375,3965
0.03515625,3966
0.03515625,3967
0.037109375,3968
0.03515625,3969
0.03125,3970
0.03515625,3971
0.033203125,3972
0.03125,3973
0.037109375,3974
0.03515625,3975
0.03515625,3976
0.03125,3977
0.02734375,3978
0.033203125,3979
0.029296875,3980
0.03515625,3981
0.03515625,3982
0.033203125,3983
0.029296875,3984
0.033203125,3985
0.03125,3986
0.029296875,3987
0.03125,3988
0.021484375,3989
0.033203125,3990
0.0390625,3991
0.025390625,3992
0.03125,3993
0.03515625,3994
0.02734375,3995
0.0234375,3996
0.037109375,3997
0.0234375,3998
0.025390625,3999
0.033203125,4000
0.029296875,4001
0.025390625,4002
0.025390625,4003
0.033203125,4004
0.02734375,4005
0.0234375,4006
0.029296875,4007
0.03125,4008
0.021484375,4009
0.02734375,4010
0.029296875,4011
0.025390625,4012
0.025390625,4013
0.03125,4014
0.021484375,4015
0.03125,4016
0.025390625,4017
0.0390625,4018
0.025390625,4019
0.029296875,4020
0.0546875,4021
0.0546875,4022
0.052734375,4023
0.044921875,4024
0.04296875,4025
0.041015625,4026
0.033203125,4027
0.03515625,4028
0.041015625,4029
0.046875,4030
0.046875,4031
0.048828125,4032
0.0390625,4033
0.037109375,4034
0.037109375,4035
0.046875,4036
0.041015625,4037
0.04296875,4038
0.052734375,4039
0.048828125,4040
0.041015625,4041
0.044921875,4042
0.04296875,4043
0.037109375,4044
0.037109375,4045
0.04296875,4046
0.041015625,4047
0.0390625,4048
0.03125,4049
0.052734375,4050
0.041015625,4051
0.03515625,4052
0.03125,4053
0.03125,4054
0.03515625,4055
0.037109375,4056
0.0390625,4057
0.046875,4058
0.044921875,4059
0.044921875,4060
0.046875,4061
0.037109375,4062
0.04296875,4063
0.0390625,4064
0.04296875,4065
0.044921875,4066
0.037109375,4067
0.05078125,4068
0.0546875,4069
0.052734375,4070
0.0546875,4071
0.052734375,4072
0.0546875,4073
0.037109375,4074
0.041015625,4075
0.046875,4076
0.03515625,4077
0.041015625,4078
0.03125,4079
0.029296875,4080
0.029296875,4081
0.03515625,4082
0.03515625,4083
0.037109375,4084
0.029296875,4085
0.0390625,4086
0.046875,4087
0.0390625,4088
0.0390625,4089
0.044921875,4090
0.046875,4091
0.0703125,4092
0.04296875,4093
0.044921875,4094
0.0390625,4095
0.044921875,4096
0.041015625,4097
0.0390625,4098
0.041015625,4099
0.0390625,4100
0.041015625,4101
0.0390625,4102
0.044921875,4103
0.041015625,4104
0.0390625,4105
0.044921875,4106
0.0390625,4107
0.041015625,4108
0.037109375,4109
0.03515625,4110
0.037109375,4111
0.033203125,4112
0.03515625,4113
0.04296875,4114
0.044921875,4115
0.044921875,4116
0.044921875,4117
0.044921875,4118
0.046875,4119
0.044921875,4120
0.04296875,4121
0.04296875,4122
0.044921875,4123
0.041015625,4124
0.044921875,4125
0.041015625,4126
0.041015625,4127
0.041015625,4128
0.03515625,4129
0.0390625,4130
0.041015625,4131
0.03515625,4132
0.041015625,4133
0.037109375,4134
0.037109375,4135
0.041015625,4136
0.033203125,4137
0.041015625,4138
0.029296875,4139
0.033203125,4140
0.03125,4141
0.029296875,4142
0.03125,4143
0.02734375,4144
0.033203125,4145
0.03125,4146
0.0390625,4147
0.029296875,4148
0.033203125,4149
0.037109375,4150
0.03125,4151
0.029296875,4152
0.03125,4153
0.03125,4154
0.029296875,4155
0.025390625,4156
0.033203125,4157
0.033203125,4158
0.029296875,4159
0.02734375,4160
0.029296875,4161
0.021484375,4162
0.033203125,4163
0.037109375,4164
0.03515625,4165
0.03515625,4166
0.03515625,4167
0.033203125,4168
0.029296875,4169
0.03125,4170
0.03125,4171
0.03515625,4172
0.033203125,4173
0.029296875,4174
0.033203125,4175
0.025390625,4176
0.021484375,4177
0.025390625,4178
0.033203125,4179
0.025390625,4180
0.025390625,4181
0.021484375,4182
0.025390625,4183
0.0234375,4184
0.02734375,4185
0.03125,4186
0.029296875,4187
0.025390625,4188
0.033203125,4189
0.029296875,4190
0.0234375,4191
0.025390625,4192
0.025390625,4193
0.029296875,4194
0.052734375,4195
0.052734375,4196
0.0546875,4197
0.052734375,4198
0.0546875,4199
0.048828125,4200
0.052734375,4201
0.041015625,4202
0.046875,4203
0.044921875,4204
0.046875,4205
0.044921875,4206
0.046875,4207
0.044921875,4208
0.04296875,4209
0.037109375,4210
0.046875,4211
0.048828125,4212
0.0546875,4213
0.052734375,4214
0.0546875,4215
0.064453125,4216
0.064453125,4217
0.068359375,4218
0.060546875,4219
0.0625,4220
0.052734375,4221
0.060546875,4222
0.060546875,4223
0.05859375,4224
0.068359375,4225
0.064453125,4226
0.0625,4227
0.064453125,4228
0.060546875,4229
0.052734375,4230
0.0546875,4231
0.052734375,4232
0.0546875,4233
0.056640625,4234
0.0625,4235
0.052734375,4236
0.05859375,4237
0.056640625,4238
0.048828125,4239
0.052734375,4240
0.052734375,4241
0.052734375,4242
0.056640625,4243
0.060546875,4244
0.048828125,4245
0.05078125,4246
0.05078125,4247
0.0546875,4248
0.060546875,4249
0.060546875,4250
0.060546875,4251
0.0390625,4252
0.0390625,4253
0.044921875,4254
0.041015625,4255
0.05078125,4256
0.044921875,4257
0.041015625,4258
0.0390625,4259
0.0390625,4260
0.037109375,4261
0.037109375,4262
0.03125,4263
0.03515625,4264
0.037109375,4265
0.03515625,4266
0.0390625,4267
0.037109375,4268
0.041015625,4269
0.04296875,4270
0.037109375,4271
0.033203125,4272
0.0390625,4273
0.037109375,4274
0.05078125,4275
0.05078125,4276
0.05078125,4277
0.05859375,4278
0.041015625,4279
0.04296875,4280
0.046875,4281
0.046875,4282
0.046875,4283
0.041015625,4284
0.04296875,4285
0.04296875,4286
0.04296875,4287
0.04296875,4288
0.04296875,4289
0.04296875,4290
0.044921875,4291
0.0390625,4292
0.04296875,4293
0.044921875,4294
0.044921875,4295
0.03125,4296
0.037109375,4297
0.04296875,4298
0.03515625,4299
0.037109375,4300
0.03515625,4301
0.044921875,4302
0.044921875,4303
0.033203125,4304
0.041015625,4305
0.04296875,4306
0.02734375,4307
0.0390625,4308
0.03125,4309
0.041015625,4310
0.0390625,4311
0.041015625,4312
0.029296875,4313
0.033203125,4314
0.041015625,4315
0.033203125,4316
0.033203125,4317
0.046875,4318
0.044921875,4319
0.03515625,4320
0.052734375,4321
0.05859375,4322
0.05078125,4323
0.0546875,4324
0.041015625,4325
0.044921875,4326
0.0390625,4327
0.037109375,4328
0.0546875,4329
0.04296875,4330
0.048828125,4331
0.06640625,4332
0.05078125,4333
0.046875,4334
0.037109375,4335
0.03125,4336
0.044921875,4337
0.044921875,4338
0.037109375,4339
0.064453125,4340
0.046875,4341
0.048828125,4342
0.046875,4343
0.048828125,4344
0.046875,4345
0.046875,4346
0.048828125,4347
0.048828125,4348
0.046875,4349
0.046875,4350
0.048828125,4351
0.05078125,4352
0.052734375,4353
0.046875,4354
0.04296875,4355
0.048828125,4356
0.060546875,4357
0.05078125,4358
0.048828125,4359
0.04296875,4360
0.044921875,4361
0.033203125,4362
0.052734375,4363
0.056640625,4364
0.052734375,4365
0.04296875,4366
0.052734375,4367
0.05078125,4368
0.046875,4369
0.060546875,4370
0.048828125,4371
0.033203125,4372
0.046875,4373
0.052734375,4374
0.048828125,4375
0.044921875,4376
0.044921875,4377
0.048828125,4378
0.0390625,4379
0.048828125,4380
0.037109375,4381
0.033203125,4382
0.037109375,4383
0.041015625,4384
0.0390625,4385
0.037109375,4386
0.033203125,4387
0.04296875,4388
0.033203125,4389
0.0390625,4390
0.03515625,4391
0.03515625,4392
0.0390625,4393
0.033203125,4394
0.046875,4395
0.041015625,4396
0.0390625,4397
0.029296875,4398
0.03125,4399
0.033203125,4400
0.044921875,4401
0.037109375,4402
0.044921875,4403
0.037109375,4404
0.04296875,4405
0.03515625,4406
0.041015625,4407
0.03515625,4408
0.041015625,4409
0.05078125,4410
0.048828125,4411
0.05078125,4412
0.04296875,4413
0.044921875,4414
0.04296875,4415
0.0390625,4416
0.046875,4417
0.03515625,4418
0.05078125,4419
0.041015625,4420
0.052734375,4421
0.048828125,4422
0.052734375,4423
0.052734375,4424
0.0546875,4425
0.0546875,4426
0.052734375,4427
0.044921875,4428
0.041015625,4429
0.033203125,4430
0.03515625,4431
0.03515625,4432
0.033203125,4433
0.02734375,4434
0.03125,4435
0.029296875,4436
0.037109375,4437
0.0390625,4438
0.037109375,4439
0.0390625,4440
0.03515625,4441
0.037109375,4442
0.029296875,4443
0.033203125,4444
0.029296875,4445
0.037109375,4446
0.044921875,4447
0.033203125,4448
0.037109375,4449
0.0390625,4450
0.044921875,4451
0.037109375,4452
0.041015625,4453
0.04296875,4454
0.04296875,4455
0.041015625,4456
0.044921875,4457
0.048828125,4458
0.0625,4459
0.052734375,4460
0.04296875,4461
0.048828125,4462
0.05078125,4463
0.0546875,4464
0.05078125,4465
0.044921875,4466
0.048828125,4467
0.052734375,4468
0.046875,4469
0.041015625,4470
0.041015625,4471
0.044921875,4472
0.037109375,4473
0.046875,4474
0.044921875,4475
0.03515625,4476
0.033203125,4477
0.04296875,4478
0.041015625,4479
0.056640625,4480
0.05078125,4481
0.04296875,4482
0.041015625,4483
0.044921875,4484
0.052734375,4485
0.041015625,4486
0.03515625,4487
0.046875,4488
0.048828125,4489
0.0546875,4490
0.0546875,4491
0.056640625,4492
0.056640625,4493
0.05859375,4494
0.060546875,4495
0.0546875,4496
0.060546875,4497
0.05078125,4498
0.05078125,4499
0.046875,4500
0.052734375,4501
0.04296875,4502
0.046875,4503
0.048828125,4504
0.05078125,4505
0.033203125,4506
0.02734375,4507
0.02734375,4508
0.033203125,4509
0.0390625,4510
0.025390625,4511
0.033203125,4512
0.025390625,4513
0.029296875,4514
0.044921875,4515
0.0390625,4516
0.037109375,4517
0.03125,4518
0.03125,4519
0.033203125,4520
0.03515625,4521
0.029296875,4522
0.02734375,4523
0.03125,4524
0.029296875,4525
0.02734375,4526
0.03515625,4527
0.025390625,4528
0.025390625,4529
0.029296875,4530
0.033203125,4531
0.03515625,4532
0.02734375,4533
0.0390625,4534
0.029296875,4535
0.03125,4536
0.02734375,4537
0.025390625,4538
0.03515625,4539
0.03125,4540
0.03515625,4541
0.033203125,4542
0.04296875,4543
0.041015625,4544
0.037109375,4545
0.033203125,4546
0.02734375,4547
0.033203125,4548
0.037109375,4549
0.03125,4550
0.03515625,4551
0.03125,4552
0.041015625,4553
0.03125,4554
0.03515625,4555
0.037109375,4556
0.03125,4557
0.029296875,4558
0.03125,4559
0.033203125,4560
0.03515625,4561
0.04296875,4562
0.029296875,4563
0.03125,4564
0.021484375,4565
0.04296875,4566
0.05078125,4567
0.041015625,4568
0.0390625,4569
0.033203125,4570
0.037109375,4571
0.046875,4572
0.041015625,4573
0.037109375,4574
0.025390625,4575
0.033203125,4576
0.044921875,4577
0.03125,4578
0.037109375,4579
0.03125,4580
0.029296875,4581
0.03125,4582
0.03125,4583
0.03125,4584
0.04296875,4585
0.03125,4586
0.03515625,4587
0.029296875,4588
0.03515625,4589
0.041015625,4590
0.037109375,4591
0.041015625,4592
0.033203125,4593
0.041015625,4594
0.037109375,4595
0.025390625,4596
0.02734375,4597
0.0234375,4598
0.02734375,4599
0.033203125,4600
0.03515625,4601
0.03125,4602
0.037109375,4603
0.03515625,4604
0.03515625,4605
0.03515625,4606
0.037109375,4607
0.03515625,4608
0.03515625,4609
0.033203125,4610
0.03515625,4611
0.03515625,4612
0.033203125,4613
0.03515625,4614
0.0234375,4615
0.029296875,4616
0.033203125,4617
0.041015625,4618
0.03515625,4619
0.03515625,4620
0.037109375,4621
0.033203125,4622
0.03125,4623
0.03515625,4624
0.0390625,4625
0.03125,4626
0.025390625,4627
0.02734375,4628
0.03515625,4629
0.025390625,4630
0.03125,4631
0.025390625,4632
0.03125,4633
0.021484375,4634
0.0234375,4635
0.033203125,4636
0.03125,4637
0.04296875,4638
0.04296875,4639
0.029296875,4640
0.03515625,4641
0.033203125,4642
0.02734375,4643
0.033203125,4644
0.033203125,4645
0.03125,4646
0.029296875,4647
0.029296875,4648
0.025390625,4649
0.029296875,4650
0.041015625,4651
0.03515625,4652
0.037109375,4653
0.033203125,4654
0.03125,4655
0.044921875,4656
0.0546875,4657
0.052734375,4658
0.0390625,4659
0.037109375,4660
0.03515625,4661
0.03125,4662
0.033203125,4663
0.03125,4664
0.03125,4665
0.037109375,4666
0.03125,4667
0.03125,4668
0.03125,4669
0.033203125,4670
0.03515625,4671
0.044921875,4672
0.052734375,4673
0.044921875,4674
0.048828125,4675
0.048828125,4676
0.044921875,4677
0.0390625,4678
0.052734375,4679
0.03515625,4680
0.041015625,4681
0.052734375,4682
0.041015625,4683
0.048828125,4684
0.044921875,4685
0.04296875,4686
0.03515625,4687
0.041015625,4688
0.041015625,4689
0.037109375,4690
0.041015625,4691
0.033203125,4692
0.048828125,4693
0.046875,4694
0.048828125,4695
0.046875,4696
0.048828125,4697
0.046875,4698
0.046875,4699
0.048828125,4700
0.04296875,4701
0.05078125,4702
0.044921875,4703
0.044921875,4704
0.04296875,4705
0.0390625,4706
0.0390625,4707
0.04296875,4708
0.041015625,4709
0.04296875,4710
0.046875,4711
0.044921875,4712
0.03515625,4713
0.03515625,4714
0.0390625,4715
0.037109375,4716
0.04296875,4717
0.044921875,4718
0.037109375,4719
0.04296875,4720
0.04296875,4721
0.037109375,4722
0.0390625,4723
0.033203125,4724
0.04296875,4725
0.041015625,4726
0.041015625,4727
0.037109375,4728
0.03515625,4729
0.03515625,4730
0.05078125,4731
0.03515625,4732
0.03515625,4733
0.033203125,4734
0.03515625,4735
0.0390625,4736
0.029296875,4737
0.025390625,4738
0.025390625,4739
0.029296875,4740
0.02734375,4741
0.02734375,4742
0.03515625,4743
0.04296875,4744
0.037109375,4745
0.033203125,4746
0.037109375,4747
0.033203125,4748
0.01953125,4749
0.029296875,4750
0.0234375,4751
0.0234375,4752
0.0234375,4753
0.029296875,4754
0.03515625,4755
0.025390625,4756
0.033203125,4757
0.0390625,4758
0.033203125,4759
0.033203125,4760
0.025390625,4761
0.03515625,4762
0.037109375,4763
0.03515625,4764
0.03125,4765
0.03515625,4766
0.033203125,4767
0.03125,4768
0.0390625,4769
0.03515625,4770
0.02734375,4771
0.03125,4772
0.03515625,4773
0.0234375,4774
0.02734375,4775
0.029296875,4776
0.02734375,4777
0.03125,4778
0.025390625,4779
0.037109375,4780
0.0234375,4781
0.0234375,4782
0.025390625,4783
0.0234375,4784
0.02734375,4785
0.029296875,4786
0.021484375,4787
0.03125,4788
0.017578125,4789
0.02734375,4790
0.02734375,4791
0.029296875,4792
0.0234375,4793
0.025390625,4794
0.021484375,4795
0.041015625,4796
0.046875,4797
0.04296875,4798
0.046875,4799
0.041015625,4800
0.044921875,4801
0.041015625,4802
0.044921875,4803
0.04296875,4804
0.04296875,4805
0.041015625,4806
0.04296875,4807
0.04296875,4808
0.04296875,4809
0.041015625,4810
0.044921875,4811
0.044921875,4812
0.033203125,4813
0.03515625,4814
0.029296875,4815
0.041015625,4816
0.033203125,4817
0.02734375,4818
0.0234375,4819
0.044921875,4820
0.046875,4821
0.046875,4822
0.048828125,4823
0.046875,4824
0.046875,4825
0.048828125,4826
0.046875,4827
0.048828125,4828
0.046875,4829
0.046875,4830
0.046875,4831
0.048828125,4832
0.046875,4833
0.048828125,4834
0.046875,4835
0.048828125,4836
0.044921875,4837
0.0390625,4838
0.03515625,4839
0.04296875,4840
0.033203125,4841
0.046875,4842
0.041015625,4843
0.037109375,4844
0.04296875,4845
0.05078125,4846
0.041015625,4847
0.03515625,4848
0.041015625,4849
0.03125,4850
0.029296875,4851
0.04296875,4852
0.03515625,4853
0.046875,4854
0.0390625,4855
0.0390625,4856
0.0390625,4857
0.037109375,4858
0.046875,4859
0.03515625,4860
0.04296875,4861
0.033203125,4862
0.025390625,4863
0.03515625,4864
0.029296875,4865
0.048828125,4866
0.05859375,4867
0.0546875,4868
0.046875,4869
0.048828125,4870
0.048828125,4871
0.037109375,4872
0.048828125,4873
0.041015625,4874
0.044921875,4875
0.044921875,4876
0.046875,4877
0.046875,4878
0.041015625,4879
0.0546875,4880
0.046875,4881
0.044921875,4882
0.05859375,4883
0.046875,4884
0.046875,4885
0.044921875,4886
0.044921875,4887
0.04296875,4888
0.04296875,4889
0.04296875,4890
0.044921875,4891
0.052734375,4892
0.056640625,4893
0.060546875,4894
0.0625,4895
0.05859375,4896
0.052734375,4897
0.056640625,4898
0.052734375,4899
0.044921875,4900
0.05859375,4901
0.04296875,4902
0.033203125,4903
0.044921875,4904
0.044921875,4905
0.048828125,4906
0.037109375,4907
0.037109375,4908
0.0390625,4909
0.05078125,4910
0.037109375,4911
0.03515625,4912
0.05078125,4913
0.03125,4914
0.033203125,4915
0.03515625,4916
0.037109375,4917
0.0390625,4918
0.04296875,4919
0.03515625,4920
0.029296875,4921
0.044921875,4922
0.0390625,4923
0.03125,4924
0.021484375,4925
0.033203125,4926
0.0390625,4927
0.033203125,4928
0.029296875,4929
0.029296875,4930
0.03125,4931
0.025390625,4932
0.046875,4933
0.0625,4934
0.060546875,4935
0.064453125,4936
0.0703125,4937
0.064453125,4938
0.0546875,4939
0.064453125,4940
0.056640625,4941
0.064453125,4942
0.05859375,4943
0.060546875,4944
0.046875,4945
0.05078125,4946
0.0546875,4947
0.056640625,4948
0.056640625,4949
0.046875,4950
0.044921875,4951
0.048828125,4952
0.048828125,4953
0.0390625,4954
0.041015625,4955
0.04296875,4956
0.037109375,4957
0.044921875,4958
0.052734375,4959
0.07421875,4960
0.064453125,4961
0.078125,4962
0.07421875,4963
0.0703125,4964
0.0625,4965
0.07421875,4966
0.068359375,4967
0.06640625,4968
0.064453125,4969
0.048828125,4970
0.046875,4971
0.041015625,4972
0.037109375,4973
0.04296875,4974
0.041015625,4975
0.052734375,4976
0.03515625,4977
0.033203125,4978
0.037109375,4979
0.037109375,4980
0.033203125,4981
0.037109375,4982
0.0546875,4983
0.068359375,4984
0.072265625,4985
0.072265625,4986
0.0625,4987
0.0703125,4988
0.060546875,4989
0.06640625,4990
0.0703125,4991
0.07421875,4992
0.072265625,4993
0.072265625,4994
0.052734375,4995
0.048828125,4996
0.048828125,4997
0.04296875,4998
0.0625,4999
0.06640625,5000
0.072265625,5001
0.076171875,5002
0.072265625,5003
0.0625,5004
0.072265625,5005
0.068359375,5006
0.068359375,5007
0.076171875,5008
0.072265625,5009
0.05859375,5010
0.056640625,5011
0.044921875,5012
0.052734375,5013
0.048828125,5014
0.044921875,5015
0.041015625,5016
0.05078125,5017
0.048828125,5018
0.05078125,5019
0.046875,5020
0.046875,5021
0.033203125,5022
0.03125,5023
0.03515625,5024
0.037109375,5025
0.03515625,5026
0.033203125,5027
0.03125,5028
0.0390625,5029
0.037109375,5030
0.037109375,5031
0.04296875,5032
0.03125,5033
0.03125,5034
0.033203125,5035
0.0390625,5036
0.029296875,5037
0.033203125,5038
0.025390625,5039
0.02734375,5040
0.029296875,5041
0.03125,5042
0.03125,5043
0.033203125,5044
0.033203125,5045
0.029296875,5046
0.021484375,5047
0.037109375,5048
0.033203125,5049
0.037109375,5050
0.02734375,5051
0.02734375,5052
0.033203125,5053
0.04296875,5054
0.033203125,5055
0.041015625,5056
0.04296875,5057
0.041015625,5058
0.05078125,5059
0.037109375,5060
0.033203125,5061
0.041015625,5062
0.041015625,5063
0.037109375,5064
0.037109375,5065
0.041015625,5066
0.048828125,5067
0.04296875,5068
0.041015625,5069
0.03515625,5070
0.037109375,5071
0.0390625,5072
0.037109375,5073
0.037109375,5074
0.04296875,5075
0.033203125,5076
0.03515625,5077
0.03515625,5078
0.033203125,5079
0.033203125,5080
0.046875,5081
0.03515625,5082
0.033203125,5083
0.029296875,5084
0.033203125,5085
0.029296875,5086
0.037109375,5087
0.03125,5088
0.033203125,5089
0.037109375,5090
0.0625,5091
0.05859375,5092
0.05859375,5093
0.052734375,5094
0.05859375,5095
0.046875,5096
0.052734375,5097
0.0546875,5098
0.0546875,5099
0.060546875,5100
0.060546875,5101
0.052734375,5102
0.046875,5103
0.046875,5104
0.05078125,5105
0.037109375,5106
0.0390625,5107
0.03125,5108
0.029296875,5109
0.02734375,5110
0.02734375,5111
0.037109375,5112
0.03515625,5113
0.03515625,5114
0.033203125,5115
0.029296875,5116
0.029296875,5117
0.02734375,5118
0.029296875,5119
0.03125,5120
0.03125,5121
0.029296875,5122
0.037109375,5123
0.02734375,5124
0.025390625,5125
0.025390625,5126
0.0234375,5127
0.03125,5128
0.03125,5129
0.03515625,5130
0.033203125,5131
0.03515625,5132
0.029296875,5133
0.0234375,5134
0.0234375,5135
0.0234375,5136
0.021484375,5137
0.03515625,5138
0.029296875,5139
0.03125,5140
0.03125,5141
0.03125,5142
0.037109375,5143
0.03515625,5144
0.041015625,5145
0.0390625,5146
0.04296875,5147
0.041015625,5148
0.033203125,5149
0.037109375,5150
0.03125,5151
0.033203125,5152
0.03125,5153
0.025390625,5154
0.02734375,5155
0.021484375,5156
0.029296875,5157
0.021484375,5158
0.017578125,5159
0.021484375,5160
0.029296875,5161
0.046875,5162
0.056640625,5163
0.052734375,5164
0.041015625,5165
0.037109375,5166
0.046875,5167
0.048828125,5168
0.044921875,5169
0.046875,5170
0.046875,5171
0.04296875,5172
0.048828125,5173
0.048828125,5174
0.041015625,5175
0.05078125,5176
0.03515625,5177
0.03515625,5178
0.03125,5179
0.04296875,5180
0.046875,5181
0.044921875,5182
0.046875,5183
0.048828125,5184
0.052734375,5185
0.048828125,5186
0.046875,5187
0.037109375,5188
0.029296875,5189
0.029296875,5190
0.0390625,5191
0.03515625,5192
0.033203125,5193
0.0234375,5194
0.037109375,5195
0.03125,5196
0.03125,5197
0.0390625,5198
0.029296875,5199
0.029296875,5200
0.0234375,5201
0.037109375,5202
0.03515625,5203
0.03515625,5204
0.0234375,5205
0.041015625,5206
0.03125,5207
0.03125,5208
0.033203125,5209
0.03515625,5210
0.03515625,5211
0.03515625,5212
0.033203125,5213
0.0390625,5214
0.03515625,5215
0.037109375,5216
0.029296875,5217
0.03515625,5218
0.044921875,5219
0.037109375,5220
0.03515625,5221
0.041015625,5222
0.0390625,5223
0.0390625,5224
0.033203125,5225
0.029296875,5226
0.033203125,5227
0.025390625,5228
0.03515625,5229
0.03125,5230
0.033203125,5231
0.02734375,5232
0.037109375,5233
0.03515625,5234
0.033203125,5235
0.033203125,5236
0.037109375,5237
0.033203125,5238
0.037109375,5239
0.029296875,5240
0.03125,5241
0.02734375,5242
0.029296875,5243
0.029296875,5244
0.033203125,5245
0.029296875,5246
0.025390625,5247
0.029296875,5248
0.029296875,5249
0.037109375,5250
0.025390625,5251
0.03515625,5252
0.029296875,5253
0.029296875,5254
0.03125,5255
0.02734375,5256
0.033203125,5257
0.021484375,5258
0.0390625,5259
0.025390625,5260
0.029296875,5261
0.03125,5262
0.029296875,5263
0.03125,5264
0.037109375,5265
0.037109375,5266
0.03125,5267
0.025390625,5268
0.037109375,5269
0.029296875,5270
0.05078125,5271
0.052734375,5272
0.05078125,5273
0.052734375,5274
0.0546875,5275
0.05078125,5276
0.048828125,5277
0.052734375,5278
0.0390625,5279
0.046875,5280
0.044921875,5281
0.037109375,5282
0.037109375,5283
0.033203125,5284
0.033203125,5285
0.03125,5286
0.025390625,5287
0.033203125,5288
0.03515625,5289
0.029296875,5290
0.03515625,5291
0.03515625,5292
0.041015625,5293
0.029296875,5294
0.060546875,5295
0.052734375,5296
0.046875,5297
0.041015625,5298
0.037109375,5299
0.044921875,5300
0.046875,5301
0.048828125,5302
0.048828125,5303
0.056640625,5304
0.052734375,5305
0.04296875,5306
0.0625,5307
0.060546875,5308
0.05078125,5309
0.0546875,5310
0.048828125,5311
0.0546875,5312
0.044921875,5313
0.048828125,5314
0.05078125,5315
0.0537109375,5316
0.052734375,5317
0.052734375,5318
0.05078125,5319
0.05078125,5320
0.044921875,5321
0.04296875,5322
0.048828125,5323
0.041015625,5324
0.041015625,5325
0.041015625,5326
0.0390625,5327
0.037109375,5328
0.037109375,5329
0.046875,5330
0.044921875,5331
0.0546875,5332
0.046875,5333
0.04296875,5334
0.041015625,5335
0.0390625,5336
0.046875,5337
0.037109375,5338
0.041015625,5339
0.04296875,5340
0.041015625,5341
0.03125,5342
0.0390625,5343
0.033203125,5344
0.033203125,5345
0.03125,5346
0.02734375,5347
0.025390625,5348
0.02734375,5349
0.02734375,5350
0.02734375,5351
0.025390625,5352
0.02734375,5353
0.037109375,5354
0.044921875,5355
0.044921875,5356
0.044921875,5357
0.044921875,5358
0.044921875,5359
0.044921875,5360
0.044921875,5361
0.044921875,5362
0.046875,5363
0.041015625,5364
0.041015625,5365
0.041015625,5366
0.044921875,5367
0.041015625,5368
0.044921875,5369
0.033203125,5370
0.037109375,5371
0.041015625,5372
0.037109375,5373
0.0390625,5374
0.02734375,5375
0.033203125,5376
0.033203125,5377
0.029296875,5378
0.033203125,5379
0.033203125,5380
0.037109375,5381
0.03125,5382
0.03125,5383
0.03125,5384
0.029296875,5385
0.03125,5386
0.03515625,5387
0.033203125,5388
0.03125,5389
0.037109375,5390
0.029296875,5391
0.0390625,5392
0.0390625,5393
0.03125,5394
0.037109375,5395
0.03515625,5396
0.033203125,5397
0.0390625,5398
0.03125,5399
0.033203125,5400
0.03515625,5401
0.03125,5402
0.03515625,5403
0.037109375,5404
0.044921875,5405
0.029296875,5406
0.033203125,5407
0.03515625,5408
0.03515625,5409
0.03125,5410
0.033203125,5411
0.0390625,5412
0.041015625,5413
0.029296875,5414
0.03515625,5415
0.03515625,5416
0.037109375,5417
0.03515625,5418
0.03125,5419
0.033203125,5420
0.033203125,5421
0.025390625,5422
0.025390625,5423
0.03125,5424
0.03125,5425
0.03515625,5426
0.029296875,5427
0.03125,5428
0.02734375,5429
0.029296875,5430
0.0234375,5431
0.0234375,5432
0.033203125,5433
0.021484375,5434
0.033203125,5435
0.05078125,5436
0.052734375,5437
0.0546875,5438
0.052734375,5439
0.0546875,5440
0.052734375,5441
0.048828125,5442
0.05078125,5443
0.0390625,5444
0.037109375,5445
0.03515625,5446
0.029296875,5447
0.041015625,5448
0.033203125,5449
0.03515625,5450
0.03125,5451
0.0390625,5452
0.037109375,5453
0.0390625,5454
0.0390625,5455
0.044921875,5456
0.037109375,5457
0.03515625,5458
0.044921875,5459
0.05078125,5460
0.052734375,5461
0.048828125,5462
0.041015625,5463
0.046875,5464
0.044921875,5465
0.056640625,5466
0.052734375,5467
0.05859375,5468
0.060546875,5469
0.052734375,5470
0.0546875,5471
0.060546875,5472
0.056640625,5473
0.060546875,5474
0.0546875,5475
0.052734375,5476
0.0546875,5477
0.052734375,5478
0.0546875,5479
0.052734375,5480
0.05078125,5481
0.046875,5482
0.05078125,5483
0.044921875,5484
0.048828125,5485
0.05078125,5486
0.048828125,5487
0.052734375,5488
0.044921875,5489
0.046875,5490
0.048828125,5491
0.05078125,5492
0.041015625,5493
0.037109375,5494
0.04296875,5495
0.044921875,5496
0.056640625,5497
0.060546875,5498
0.0703125,5499
0.064453125,5500
0.04296875,5501
0.04296875,5502
0.046875,5503
0.044921875,5504
0.0390625,5505
0.04296875,5506
0.041015625,5507
0.0390625,5508
0.041015625,5509
0.0390625,5510
0.041015625,5511
0.041015625,5512
0.0390625,5513
0.041015625,5514
0.041015625,5515
0.0390625,5516
0.03515625,5517
0.037109375,5518
0.037109375,5519
0.0390625,5520
0.04296875,5521
0.041015625,5522
0.04296875,5523
0.037109375,5524
0.048828125,5525
0.046875,5526
0.048828125,5527
0.05078125,5528
0.0625,5529
0.04296875,5530
0.046875,5531
0.041015625,5532
0.04296875,5533
0.046875,5534
0.04296875,5535
0.04296875,5536
0.04296875,5537
0.041015625,5538
0.04296875,5539
0.046875,5540
0.04296875,5541
0.04296875,5542
0.04296875,5543
0.041015625,5544
0.04296875,5545
0.04296875,5546
0.046875,5547
0.04296875,5548
0.056640625,5549
0.048828125,5550
0.041015625,5551
0.037109375,5552
0.037109375,5553
0.037109375,5554
0.037109375,5555
0.046875,5556
0.048828125,5557
0.044921875,5558
0.037109375,5559
0.046875,5560
0.04296875,5561
0.048828125,5562
0.04296875,5563
0.048828125,5564
0.03515625,5565
0.048828125,5566
0.05078125,5567
0.03515625,5568
0.041015625,5569
0.041015625,5570
0.05078125,5571
0.0390625,5572
0.04296875,5573
0.041015625,5574
0.044921875,5575
0.033203125,5576
0.03515625,5577
0.05078125,5578
0.041015625,5579
0.04296875,5580
0.033203125,5581
0.029296875,5582
0.029296875,5583
0.02734375,5584
0.03125,5585
0.048828125,5586
0.0390625,5587
0.033203125,5588
0.029296875,5589
0.033203125,5590
0.044921875,5591
0.02734375,5592
0.03125,5593
0.041015625,5594
0.02734375,5595
0.052734375,5596
0.046875,5597
0.048828125,5598
0.046875,5599
0.048828125,5600
0.046875,5601
0.04296875,5602
0.0546875,5603
0.0625,5604
0.060546875,5605
0.048828125,5606
0.05078125,5607
0.046875,5608
0.0546875,5609
0.04296875,5610
0.048828125,5611
0.05078125,5612
0.041015625,5613
0.052734375,5614
0.05078125,5615
0.05078125,5616
0.044921875,5617
0.04296875,5618
0.044921875,5619
0.044921875,5620
0.04296875,5621
0.052734375,5622
0.048828125,5623
0.044921875,5624
0.0546875,5625
0.064453125,5626
0.05078125,5627
0.046875,5628
0.04296875,5629
0.041015625,5630
0.03515625,5631
0.044921875,5632
0.037109375,5633
0.05078125,5634
0.044921875,5635
0.041015625,5636
0.033203125,5637
0.03515625,5638
0.0546875,5639
0.0390625,5640
0.041015625,5641
0.04296875,5642
0.0390625,5643
0.029296875,5644
0.048828125,5645
0.044921875,5646
0.046875,5647
0.0390625,5648
0.04296875,5649
0.04296875,5650
0.041015625,5651
0.0390625,5652
0.037109375,5653
0.0234375,5654
0.041015625,5655
0.037109375,5656
0.037109375,5657
0.03125,5658
0.033203125,5659
0.044921875,5660
0.05078125,5661
0.03515625,5662
0.025390625,5663
0.044921875,5664
0.05078125,5665
0.05078125,5666
0.05859375,5667
0.046875,5668
0.052734375,5669
0.068359375,5670
0.0546875,5671
0.056640625,5672
0.05859375,5673
0.060546875,5674
0.048828125,5675
0.0546875,5676
0.0546875,5677
0.056640625,5678
0.052734375,5679
0.05078125,5680
0.052734375,5681
0.0625,5682
0.060546875,5683
0.044921875,5684
0.04296875,5685
0.05078125,5686
0.037109375,5687
0.056640625,5688
0.037109375,5689
0.0390625,5690
0.037109375,5691
0.04296875,5692
0.041015625,5693
0.044921875,5694
0.0546875,5695
0.037109375,5696
0.04296875,5697
0.029296875,5698
0.04296875,5699
0.0390625,5700
0.04296875,5701
0.037109375,5702
0.037109375,5703
0.02734375,5704
0.03125,5705
0.02734375,5706
0.037109375,5707
0.03125,5708
0.029296875,5709
0.033203125,5710
0.033203125,5711
0.037109375,5712
0.04296875,5713
0.037109375,5714
0.03125,5715
0.041015625,5716
0.0390625,5717
0.04296875,5718
0.041015625,5719
0.052734375,5720
0.03125,5721
0.0546875,5722
0.044921875,5723
0.03515625,5724
0.041015625,5725
0.03515625,5726
0.03515625,5727
0.033203125,5728
0.03125,5729
0.044921875,5730
0.041015625,5731
0.041015625,5732
0.03515625,5733
0.03125,5734
0.044921875,5735
0.07421875,5736
0.06640625,5737
0.056640625,5738
0.056640625,5739
0.05859375,5740
0.060546875,5741
0.056640625,5742
0.060546875,5743
0.060546875,5744
0.064453125,5745
0.0625,5746
0.064453125,5747
0.056640625,5748
0.056640625,5749
0.056640625,5750
0.056640625,5751
0.060546875,5752
0.060546875,5753
0.052734375,5754
0.056640625,5755
0.060546875,5756
0.0546875,5757
0.046875,5758
0.052734375,5759
0.033203125,5760
0.037109375,5761
0.044921875,5762
0.0390625,5763
0.048828125,5764
0.04296875,5765
0.037109375,5766
0.0390625,5767
0.041015625,5768
0.03515625,5769
0.037109375,5770
0.0390625,5771
0.037109375,5772
0.041015625,5773
0.0390625,5774
0.037109375,5775
0.03125,5776
0.033203125,5777
0.0390625,5778
0.03125,5779
0.0390625,5780
0.044921875,5781
0.037109375,5782
0.037109375,5783
0.03515625,5784
0.029296875,5785
0.03515625,5786
0.02734375,5787
0.0234375,5788
0.025390625,5789
0.037109375,5790
0.044921875,5791
0.03515625,5792
0.04296875,5793
0.056640625,5794
0.05078125,5795
0.052734375,5796
0.0546875,5797
0.048828125,5798
0.05078125,5799
0.05078125,5800
0.0625,5801
0.0625,5802
0.064453125,5803
0.056640625,5804
0.060546875,5805
0.0625,5806
0.060546875,5807
0.046875,5808
0.05859375,5809
0.05078125,5810
0.046875,5811
0.05078125,5812
0.056640625,5813
0.05078125,5814
0.060546875,5815
0.0546875,5816
0.0546875,5817
0.056640625,5818
0.0390625,5819
0.052734375,5820
0.041015625,5821
0.048828125,5822
0.05078125,5823
0.041015625,5824
0.046875,5825
0.037109375,5826
0.046875,5827
0.0390625,5828
0.03515625,5829
0.041015625,5830
0.04296875,5831
0.0390625,5832
0.03515625,5833
0.03125,5834
0.044921875,5835
0.037109375,5836
0.041015625,5837
0.044921875,5838
0.03515625,5839
0.037109375,5840
0.04296875,5841
0.033203125,5842
0.041015625,5843
0.0390625,5844
0.041015625,5845
0.05078125,5846
0.05078125,5847
0.041015625,5848
0.044921875,5849
0.041015625,5850
0.04296875,5851
0.0625,5852
0.044921875,5853
0.0390625,5854
0.05078125,5855
0.046875,5856
0.044921875,5857
0.0390625,5858
0.0546875,5859
0.048828125,5860
0.041015625,5861
0.04296875,5862
0.044921875,5863
0.044921875,5864
0.041015625,5865
0.041015625,5866
0.046875,5867
0.0546875,5868
0.0625,5869
0.06640625,5870
0.060546875,5871
0.06640625,5872
0.05859375,5873
0.048828125,5874
0.0546875,5875
0.048828125,5876
0.033203125,5877
0.04296875,5878
0.048828125,5879
0.048828125,5880
0.037109375,5881
0.037109375,5882
0.033203125,5883
0.03515625,5884
0.033203125,5885
0.041015625,5886
0.029296875,5887
0.037109375,5888
0.046875,5889
0.044921875,5890
0.052734375,5891
0.044921875,5892
0.03125,5893
0.04296875,5894
0.056640625,5895
0.064453125,5896
0.064453125,5897
0.0625,5898
0.0625,5899
0.0546875,5900
0.0625,5901
0.05859375,5902
0.064453125,5903
0.0546875,5904
0.060546875,5905
0.05078125,5906
0.052734375,5907
0.04296875,5908
0.05078125,5909
0.06640625,5910
0.056640625,5911
0.048828125,5912
0.04296875,5913
0.060546875,5914
0.041015625,5915
0.044921875,5916
0.046875,5917
0.037109375,5918
0.044921875,5919
0.052734375,5920
0.072265625,5921
0.06640625,5922
0.068359375,5923
0.056640625,5924
0.068359375,5925
0.06640625,5926
0.072265625,5927
0.087890625,5928
0.087890625,5929
0.083984375,5930
0.080078125,5931
0.072265625,5932
0.0703125,5933
0.0703125,5934
0.064453125,5935
0.05859375,5936
0.0703125,5937
0.068359375,5938
0.072265625,5939
0.0859375,5940
0.072265625,5941
0.064453125,5942
0.0703125,5943
0.0625,5944
0.0703125,5945
0.068359375,5946
0.056640625,5947
0.046875,5948
0.05078125,5949
0.044921875,5950
0.04296875,5951
0.046875,5952
0.02734375,5953
0.05078125,5954
0.048828125,5955
0.0390625,5956
0.05078125,5957
0.046875,5958
0.044921875,5959
0.0625,5960
0.08203125,5961
0.0546875,5962
0.041015625,5963
0.048828125,5964
0.052734375,5965
0.056640625,5966
0.046875,5967
0.0546875,5968
0.03125,5969
0.0390625,5970
0.0390625,5971
0.052734375,5972
0.04296875,5973
0.041015625,5974
0.05078125,5975
0.052734375,5976
0.0390625,5977
0.041015625,5978
0.07421875,5979
0.076171875,5980
0.076171875,5981
0.076171875,5982
0.078125,5983
0.076171875,5984
0.076171875,5985
0.07421875,5986
0.076171875,5987
0.076171875,5988
0.07421875,5989
0.0703125,5990
0.076171875,5991
0.072265625,5992
0.064453125,5993
0.072265625,5994
0.060546875,5995
0.0546875,5996
0.05859375,5997
0.046875,5998
0.041015625,5999
0.0390625,6000
0.04296875,6001
0.03125,6002
0.03125,6003
0.0390625,6004
0.02734375,6005
0.033203125,6006
0.01953125,6007
0.03125,6008
0.0390625,6009
0.04296875,6010
0.03125,6011
0.046875,6012
0.033203125,6013
0.02734375,6014
0.0390625,6015
0.041015625,6016
0.044921875,6017
0.03125,6018
0.04296875,6019
0.033203125,6020
0.046875,6021
0.041015625,6022
0.0390625,6023
0.083984375,6024
0.08203125,6025
0.06640625,6026
0.080078125,6027
0.07421875,6028
0.068359375,6029
0.072265625,6030
0.07421875,6031
0.0546875,6032
0.05078125,6033
0.052734375,6034
0.052734375,6035
0.05078125,6036
0.048828125,6037
0.048828125,6038
0.056640625,6039
0.064453125,6040
0.068359375,6041
0.068359375,6042
0.068359375,6043
0.068359375,6044
0.0546875,6045
0.060546875,6046
0.076171875,6047
0.072265625,6048
0.07421875,6049
0.0703125,6050
0.060546875,6051
0.06640625,6052
0.060546875,6053
0.060546875,6054
0.046875,6055
0.05078125,6056
0.052734375,6057
0.044921875,6058
0.06640625,6059
0.044921875,6060
0.046875,6061
0.05078125,6062
0.052734375,6063
0.04296875,6064
0.044921875,6065
0.041015625,6066
0.03515625,6067
0.046875,6068
0.037109375,6069
0.0546875,6070
0.0703125,6071
0.0703125,6072
0.056640625,6073
0.060546875,6074
0.064453125,6075
0.0625,6076
0.064453125,6077
0.05859375,6078
0.064453125,6079
0.060546875,6080
0.0546875,6081
0.05078125,6082
0.04296875,6083
0.056640625,6084
0.046875,6085
0.052734375,6086
0.0390625,6087
0.048828125,6088
0.048828125,6089
0.044921875,6090
0.0546875,6091
0.044921875,6092
0.046875,6093
0.056640625,6094
0.05859375,6095
0.060546875,6096
0.056640625,6097
0.044921875,6098
0.05078125,6099
0.033203125,6100
0.041015625,6101
0.041015625,6102
0.0390625,6103
0.044921875,6104
0.052734375,6105
0.041015625,6106
0.05078125,6107
0.044921875,6108
0.04296875,6109
0.033203125,6110
0.03515625,6111
0.048828125,6112
0.056640625,6113
0.0546875,6114
0.060546875,6115
0.04296875,6116
0.056640625,6117
0.04296875,6118
0.056640625,6119
0.044921875,6120
0.044921875,6121
0.05078125,6122
0.0546875,6123
0.05078125,6124
0.056640625,6125
0.052734375,6126
0.056640625,6127
0.056640625,6128
0.056640625,6129
0.056640625,6130
0.060546875,6131
0.044921875,6132
0.033203125,6133
0.03125,6134
0.0390625,6135
0.03125,6136
0.037109375,6137
0.037109375,6138
0.041015625,6139
0.041015625,6140
0.037109375,6141
0.048828125,6142
0.041015625,6143
0.056640625,6144
0.056640625,6145
0.056640625,6146
0.0546875,6147
0.05859375,6148
0.056640625,6149
0.056640625,6150
0.052734375,6151
0.052734375,6152
0.052734375,6153
0.05078125,6154
0.052734375,6155
0.0546875,6156
0.056640625,6157
0.05078125,6158
0.052734375,6159
0.048828125,6160
0.0546875,6161
0.046875,6162
0.048828125,6163
0.041015625,6164
0.044921875,6165
0.044921875,6166
0.056640625,6167
0.037109375,6168
0.0390625,6169
0.048828125,6170
0.046875,6171
0.041015625,6172
0.0390625,6173
0.033203125,6174
0.044921875,6175
0.03515625,6176
0.033203125,6177
0.0390625,6178
0.041015625,6179
0.037109375,6180
0.04296875,6181
0.046875,6182
0.041015625,6183
0.0390625,6184
0.03515625,6185
0.052734375,6186
0.05078125,6187
0.048828125,6188
0.0390625,6189
0.0546875,6190
0.03125,6191
0.044921875,6192
0.046875,6193
0.04296875,6194
0.048828125,6195
0.04296875,6196
0.044921875,6197
0.0390625,6198
0.04296875,6199
0.037109375,6200
0.033203125,6201
0.037109375,6202
0.03125,6203
0.041015625,6204
0.03515625,6205
0.0390625,6206
0.041015625,6207
0.037109375,6208
0.03125,6209
0.033203125,6210
0.0390625,6211
0.033203125,6212
0.029296875,6213
0.0390625,6214
0.033203125,6215
0.02734375,6216
0.029296875,6217
0.03125,6218
0.0234375,6219
0.029296875,6220
0.03125,6221
0.0234375,6222
0.025390625,6223
0.029296875,6224
0.033203125,6225
0.037109375,6226
0.029296875,6227
0.03515625,6228
0.0234375,6229
0.029296875,6230
0.02734375,6231
0.0234375,6232
0.0234375,6233
0.025390625,6234
0.02734375,6235
0.01953125,6236
0.02734375,6237
0.029296875,6238
0.02734375,6239
0.025390625,6240
0.025390625,6241
0.03125,6242
0.03515625,6243
0.03515625,6244
0.0234375,6245
0.033203125,6246
0.03125,6247
0.02734375,6248
0.015625,6249
0.02734375,6250
0.0390625,6251
0.041015625,6252
0.037109375,6253
0.052734375,6254
0.04296875,6255
0.046875,6256
0.046875,6257
0.05078125,6258
0.0390625,6259
0.046875,6260
0.0546875,6261
0.037109375,6262
0.037109375,6263
0.029296875,6264
0.0390625,6265
0.04296875,6266
0.029296875,6267
0.03515625,6268
0.025390625,6269
0.03125,6270
0.029296875,6271
0.02734375,6272
0.02734375,6273
0.0390625,6274
0.0234375,6275
0.025390625,6276
0.033203125,6277
0.03515625,6278
0.03515625,6279
0.02734375,6280
0.029296875,6281
0.02734375,6282
0.03125,6283
0.0234375,6284
0.0234375,6285
0.02734375,6286
0.037109375,6287
0.064453125,6288
0.0625,6289
0.052734375,6290
0.060546875,6291
0.0546875,6292
0.056640625,6293
0.056640625,6294
0.044921875,6295
0.046875,6296
0.041015625,6297
0.041015625,6298
0.044921875,6299
0.046875,6300
0.04296875,6301
0.048828125,6302
0.03515625,6303
0.03515625,6304
0.0390625,6305
0.02734375,6306
0.037109375,6307
0.02734375,6308
0.025390625,6309
0.025390625,6310
0.03515625,6311
0.02734375,6312
0.03125,6313
0.029296875,6314
0.03125,6315
0.025390625,6316
0.033203125,6317
0.025390625,6318
0.02734375,6319
0.033203125,6320
0.029296875,6321
0.025390625,6322
0.021484375,6323
0.021484375,6324
0.029296875,6325
0.025390625,6326
0.021484375,6327
0.021484375,6328
0.025390625,6329
0.025390625,6330
0.029296875,6331
0.029296875,6332
0.02734375,6333
0.033203125,6334
0.0234375,6335
0.021484375,6336
0.02734375,6337
0.025390625,6338
0.033203125,6339
0.03515625,6340
0.041015625,6341
0.03515625,6342
0.0390625,6343
0.033203125,6344
0.02734375,6345
0.033203125,6346
0.03515625,6347
0.03515625,6348
0.0234375,6349
0.0390625,6350
0.03125,6351
0.0390625,6352
0.037109375,6353
0.03125,6354
0.033203125,6355
0.033203125,6356
0.03515625,6357
0.029296875,6358
0.025390625,6359
0.0234375,6360
0.029296875,6361
0.0546875,6362
0.05859375,6363
0.05859375,6364
0.041015625,6365
0.037109375,6366
0.05078125,6367
0.0546875,6368
0.046875,6369
0.04296875,6370
0.044921875,6371
0.05078125,6372
0.0390625,6373
0.041015625,6374
0.056640625,6375
0.03515625,6376
0.029296875,6377
0.029296875,6378
0.0390625,6379
0.0390625,6380
0.044921875,6381
0.048828125,6382
0.044921875,6383
0.052734375,6384
0.03515625,6385
0.044921875,6386
0.048828125,6387
0.037109375,6388
0.041015625,6389
0.044921875,6390
0.03125,6391
0.041015625,6392
0.044921875,6393
0.044921875,6394
0.029296875,6395
0.03125,6396
0.029296875,6397
0.033203125,6398
0.037109375,6399
0.041015625,6400
0.033203125,6401
0.03125,6402
0.037109375,6403
0.029296875,6404
0.03125,6405
0.03125,6406
0.037109375,6407
0.02734375,6408
0.04296875,6409
0.029296875,6410
0.03125,6411
0.0390625,6412
0.03125,6413
0.033203125,6414
0.02734375,6415
0.03515625,6416
0.03515625,6417
0.037109375,6418
0.03125,6419
0.0390625,6420
0.033203125,6421
0.046875,6422
0.04296875,6423
0.029296875,6424
0.03515625,6425
0.033203125,6426
0.04296875,6427
0.0390625,6428
0.025390625,6429
0.033203125,6430
0.044921875,6431
0.046875,6432
0.041015625,6433
0.033203125,6434
0.03515625,6435
0.03125,6436
0.037109375,6437
0.03515625,6438
0.03125,6439
0.037109375,6440
0.02734375,6441
0.02734375,6442
0.02734375,6443
0.037109375,6444
0.029296875,6445
0.037109375,6446
0.029296875,6447
0.0234375,6448
0.025390625,6449
0.03125,6450
0.02734375,6451
0.02734375,6452
0.029296875,6453
0.02734375,6454
0.03125,6455
0.025390625,6456
0.025390625,6457
0.033203125,6458
0.01953125,6459
0.033203125,6460
0.02734375,6461
0.02734375,6462
0.029296875,6463
0.025390625,6464
0.025390625,6465
0.029296875,6466
0.03125,6467
0.03125,6468
0.025390625,6469
0.029296875,6470
0.02734375,6471
0.037109375,6472
0.029296875,6473
0.044921875,6474
0.048828125,6475
0.0546875,6476
0.052734375,6477
0.05078125,6478
0.052734375,6479
0.0390625,6480
0.044921875,6481
0.04296875,6482
0.044921875,6483
0.046875,6484
0.05078125,6485
0.044921875,6486
0.037109375,6487
0.037109375,6488
0.04296875,6489
0.03125,6490
0.025390625,6491
0.02734375,6492
0.017578125,6493
0.021484375,6494
0.02734375,6495
0.025390625,6496
0.025390625,6497
0.025390625,6498
0.029296875,6499
0.03515625,6500
0.029296875,6501
0.03125,6502
0.03515625,6503
0.037109375,6504
0.048828125,6505
0.041015625,6506
0.02734375,6507
0.02734375,6508
0.033203125,6509
0.02734375,6510
0.0400390625,6511
0.037109375,6512
0.037109375,6513
0.04296875,6514
0.033203125,6515
0.0390625,6516
0.037109375,6517
0.044921875,6518
0.046875,6519
0.0546875,6520
0.052734375,6521
0.0546875,6522
0.052734375,6523
0.05859375,6524
0.0546875,6525
0.041015625,6526
0.05078125,6527
0.048828125,6528
0.046875,6529
0.037109375,6530
0.037109375,6531
0.03125,6532
0.037109375,6533
0.04296875,6534
0.03515625,6535
0.033203125,6536
0.03515625,6537
0.033203125,6538
0.029296875,6539
0.029296875,6540
0.0390625,6541
0.037109375,6542
0.044921875,6543
0.037109375,6544
0.04296875,6545
0.044921875,6546
0.048828125,6547
0.041015625,6548
0.0390625,6549
0.04296875,6550
0.037109375,6551
0.041015625,6552
0.0390625,6553
0.03515625,6554
0.037109375,6555
0.033203125,6556
0.03125,6557
0.029296875,6558
0.025390625,6559
0.03125,6560
0.029296875,6561
0.0390625,6562
0.041015625,6563
0.037109375,6564
0.044921875,6565
0.044921875,6566
0.044921875,6567
0.044921875,6568
0.044921875,6569
0.046875,6570
0.044921875,6571
0.037109375,6572
0.04296875,6573
0.03515625,6574
0.041015625,6575
0.041015625,6576
0.033203125,6577
0.02734375,6578
0.041015625,6579
0.02734375,6580
0.037109375,6581
0.037109375,6582
0.033203125,6583
0.037109375,6584
0.021484375,6585
0.033203125,6586
0.0234375,6587
0.029296875,6588
0.033203125,6589
0.033203125,6590
0.033203125,6591
0.033203125,6592
0.033203125,6593
0.029296875,6594
0.03515625,6595
0.03125,6596
0.03515625,6597
0.025390625,6598
0.033203125,6599
0.025390625,6600
0.025390625,6601
0.03125,6602
0.02734375,6603
0.029296875,6604
0.02734375,6605
0.029296875,6606
0.025390625,6607
0.029296875,6608
0.03125,6609
0.03125,6610
0.029296875,6611
0.0234375,6612
0.025390625,6613
0.0234375,6614
0.0234375,6615
0.02734375,6616
0.025390625,6617
0.02734375,6618
0.02734375,6619
0.025390625,6620
0.0234375,6621
0.02734375,6622
0.021484375,6623
0.02734375,6624
0.02734375,6625
0.017578125,6626
0.017578125,6627
0.021484375,6628
0.02734375,6629
0.029296875,6630
0.02734375,6631
0.02734375,6632
0.033203125,6633
0.0234375,6634
0.0234375,6635
0.021484375,6636
0.01953125,6637
0.02734375,6638
0.025390625,6639
0.025390625,6640
0.02734375,6641
0.0234375,6642
0.02734375,6643
0.0390625,6644
0.052734375,6645
0.052734375,6646
0.05078125,6647
0.052734375,6648
0.05078125,6649
0.05078125,6650
0.044921875,6651
0.044921875,6652
0.0390625,6653
0.041015625,6654
0.0390625,6655
0.041015625,6656
0.04296875,6657
0.033203125,6658
0.03515625,6659
0.025390625,6660
0.0390625,6661
0.037109375,6662
0.037109375,6663
0.0390625,6664
0.037109375,6665
0.0390625,6666
0.0546875,6667
0.0546875,6668
0.046875,6669
0.037109375,6670
0.033203125,6671
0.048828125,6672
0.05078125,6673
0.052734375,6674
0.046875,6675
0.05078125,6676
0.048828125,6677
0.048828125,6678
0.048828125,6679
0.048828125,6680
0.0546875,6681
0.052734375,6682
0.0546875,6683
0.052734375,6684
0.0546875,6685
0.052734375,6686
0.0546875,6687
0.052734375,6688
0.052734375,6689
0.056640625,6690
0.044921875,6691
0.048828125,6692
0.05078125,6693
0.033203125,6694
0.05078125,6695
0.04296875,6696
0.041015625,6697
0.04296875,6698
0.044921875,6699
0.041015625,6700
0.052734375,6701
0.046875,6702
0.041015625,6703
0.041015625,6704
0.0390625,6705
0.041015625,6706
0.041015625,6707
0.0390625,6708
0.041015625,6709
0.0390625,6710
0.041015625,6711
0.0390625,6712
0.041015625,6713
0.041015625,6714
0.0390625,6715
0.041015625,6716
0.0390625,6717
0.041015625,6718
0.041015625,6719
0.0390625,6720
0.041015625,6721
0.0390625,6722
0.041015625,6723
0.03515625,6724
0.037109375,6725
0.0390625,6726
0.037109375,6727
0.041015625,6728
0.046875,6729
0.04296875,6730
0.037109375,6731
0.04296875,6732
0.041015625,6733
0.03515625,6734
0.037109375,6735
0.041015625,6736
0.041015625,6737
0.0390625,6738
0.04296875,6739
0.041015625,6740
0.0390625,6741
0.04296875,6742
0.037109375,6743
0.033203125,6744
0.03515625,6745
0.033203125,6746
0.029296875,6747
0.029296875,6748
0.029296875,6749
0.033203125,6750
0.029296875,6751
0.029296875,6752
0.0234375,6753
0.029296875,6754
0.0390625,6755
0.021484375,6756
0.02734375,6757
0.03125,6758
0.01953125,6759
0.03125,6760
0.033203125,6761
0.033203125,6762
0.03515625,6763
0.02734375,6764
0.02734375,6765
0.037109375,6766
0.03515625,6767
0.03125,6768
0.033203125,6769
0.033203125,6770
0.033203125,6771
0.0390625,6772
0.017578125,6773
0.021484375,6774
0.02734375,6775
0.013671875,6776
0.02734375,6777
0.0234375,6778
0.017578125,6779
0.0390625,6780
0.033203125,6781
0.02734375,6782
0.0234375,6783
0.03515625,6784
0.02734375,6785
0.029296875,6786
0.03125,6787
0.02734375,6788
0.025390625,6789
0.02734375,6790
0.029296875,6791
0.0234375,6792
0.044921875,6793
0.046875,6794
0.046875,6795
0.048828125,6796
0.048828125,6797
0.046875,6798
0.046875,6799
0.048828125,6800
0.046875,6801
0.048828125,6802
0.046875,6803
0.048828125,6804
0.046875,6805
0.048828125,6806
0.046875,6807
0.046875,6808
0.046875,6809
0.048828125,6810
0.046875,6811
0.046875,6812
0.046875,6813
0.048828125,6814
0.046875,6815
0.048828125,6816
0.04296875,6817
0.03515625,6818
0.03515625,6819
0.0390625,6820
0.02734375,6821
0.037109375,6822
0.041015625,6823
0.044921875,6824
0.0234375,6825
0.033203125,6826
0.025390625,6827
0.0390625,6828
0.029296875,6829
0.0390625,6830
0.037109375,6831
0.03515625,6832
0.037109375,6833
0.03125,6834
0.037109375,6835
0.04296875,6836
0.041015625,6837
0.0390625,6838
0.037109375,6839
0.03515625,6840
0.033203125,6841
0.03515625,6842
0.03515625,6843
0.03515625,6844
0.041015625,6845
0.02734375,6846
0.0390625,6847
0.03515625,6848
0.037109375,6849
0.041015625,6850
0.041015625,6851
0.037109375,6852
0.033203125,6853
0.03125,6854
0.033203125,6855
0.03125,6856
0.041015625,6857
0.033203125,6858
0.029296875,6859
0.046875,6860
0.037109375,6861
0.037109375,6862
0.04296875,6863
0.03515625,6864
0.03515625,6865
0.046875,6866
0.041015625,6867
0.03515625,6868
0.048828125,6869
0.0546875,6870
0.05078125,6871
0.044921875,6872
0.041015625,6873
0.044921875,6874
0.041015625,6875
0.041015625,6876
0.046875,6877
0.041015625,6878
0.037109375,6879
0.041015625,6880
0.044921875,6881
0.044921875,6882
0.04296875,6883
0.0546875,6884
0.052734375,6885
0.046875,6886
0.048828125,6887
0.041015625,6888
0.033203125,6889
0.041015625,6890
0.03125,6891
0.037109375,6892
0.0390625,6893
0.02734375,6894
0.04296875,6895
0.037109375,6896
0.03125,6897
0.03515625,6898
0.037109375,6899
0.04296875,6900
0.046875,6901
0.048828125,6902
0.041015625,6903
0.03125,6904
0.03125,6905
0.041015625,6906
0.0390625,6907
0.041015625,6908
0.0390625,6909
0.0390625,6910
0.041015625,6911
0.041015625,6912
0.02734375,6913
0.029296875,6914
0.03515625,6915
0.033203125,6916
0.03515625,6917
0.03125,6918
0.0390625,6919
0.0390625,6920
0.064453125,6921
0.044921875,6922
0.044921875,6923
0.044921875,6924
0.041015625,6925
0.03515625,6926
0.037109375,6927
0.044921875,6928
0.05859375,6929
0.052734375,6930
0.0546875,6931
0.052734375,6932
0.052734375,6933
0.044921875,6934
0.044921875,6935
0.037109375,6936
0.041015625,6937
0.044921875,6938
0.048828125,6939
0.078125,6940
0.052734375,6941
0.06640625,6942
0.056640625,6943
0.0546875,6944
0.060546875,6945
0.056640625,6946
0.068359375,6947
0.068359375,6948
0.056640625,6949
0.0625,6950
0.05078125,6951
0.048828125,6952
0.048828125,6953
0.0546875,6954
0.05078125,6955
0.05078125,6956
0.05078125,6957
0.0546875,6958
0.037109375,6959
0.044921875,6960
0.052734375,6961
0.052734375,6962
0.052734375,6963
0.046875,6964
0.0390625,6965
0.04296875,6966
0.033203125,6967
0.044921875,6968
0.044921875,6969
0.037109375,6970
0.03515625,6971
0.033203125,6972
0.03515625,6973
0.033203125,6974
0.029296875,6975
0.03125,6976
0.02734375,6977
0.025390625,6978
0.02734375,6979
0.03125,6980
0.029296875,6981
0.03125,6982
0.0390625,6983
0.041015625,6984
0.041015625,6985
0.041015625,6986
0.03125,6987
0.044921875,6988
0.041015625,6989
0.046875,6990
0.044921875,6991
0.044921875,6992
0.033203125,6993
0.03515625,6994
0.048828125,6995
0.0390625,6996
0.05078125,6997
0.052734375,6998
0.04296875,6999
0.044921875,7000
0.046875,7001
0.044921875,7002
0.04296875,7003
0.05078125,7004
0.060546875,7005
0.0703125,7006
0.05859375,7007
0.060546875,7008
0.0546875,7009
0.0546875,7010
0.064453125,7011
0.05859375,7012
0.052734375,7013
0.060546875,7014
0.0546875,7015
0.064453125,7016
0.060546875,7017
0.04296875,7018
0.056640625,7019
0.05078125,7020
0.0546875,7021
0.056640625,7022
0.04296875,7023
0.048828125,7024
0.04296875,7025
0.0390625,7026
0.0390625,7027
0.044921875,7028
0.0546875,7029
0.05078125,7030
0.033203125,7031
0.05078125,7032
0.03515625,7033
0.033203125,7034
0.04296875,7035
0.04296875,7036
0.04296875,7037
0.041015625,7038
0.04296875,7039
0.05078125,7040
0.05078125,7041
0.052734375,7042
0.05078125,7043
0.048828125,7044
0.046875,7045
0.0390625,7046
0.04296875,7047
0.0546875,7048
0.05078125,7049
0.056640625,7050
0.046875,7051
0.046875,7052
0.037109375,7053
0.037109375,7054
0.037109375,7055
0.046875,7056
0.0390625,7057
0.044921875,7058
0.046875,7059
0.048828125,7060
0.046875,7061
0.044921875,7062
0.046875,7063
0.044921875,7064
0.0625,7065
0.064453125,7066
0.060546875,7067
0.068359375,7068
0.068359375,7069
0.044921875,7070
0.052734375,7071
0.056640625,7072
0.041015625,7073
0.04296875,7074
0.048828125,7075
0.044921875,7076
0.041015625,7077
0.05078125,7078
0.0390625,7079
0.0390625,7080
0.037109375,7081
0.03515625,7082
0.0390625,7083
0.029296875,7084
0.033203125,7085
0.041015625,7086
0.041015625,7087
0.0390625,7088
0.044921875,7089
0.048828125,7090
0.060546875,7091
0.064453125,7092
0.05859375,7093
0.064453125,7094
0.046875,7095
0.056640625,7096
0.0625,7097
0.068359375,7098
0.052734375,7099
0.052734375,7100
0.046875,7101
0.052734375,7102
0.0390625,7103
0.05078125,7104
0.056640625,7105
0.06640625,7106
0.041015625,7107
0.068359375,7108
0.046875,7109
0.056640625,7110
0.052734375,7111
0.037109375,7112
0.0546875,7113
0.076171875,7114
0.076171875,7115
0.076171875,7116
0.07421875,7117
0.068359375,7118
0.068359375,7119
0.072265625,7120
0.0703125,7121
0.08203125,7122
0.076171875,7123
0.080078125,7124
0.08203125,7125
0.076171875,7126
0.064453125,7127
0.078125,7128
0.068359375,7129
0.0625,7130
0.078125,7131
0.08203125,7132
0.080078125,7133
0.078125,7134
0.07421875,7135
0.0625,7136
0.076171875,7137
0.07421875,7138
0.0625,7139
0.0546875,7140
0.060546875,7141
0.0546875,7142
0.05078125,7143
0.044921875,7144
0.044921875,7145
0.048828125,7146
0.04296875,7147
0.056640625,7148
0.03125,7149
0.041015625,7150
0.04296875,7151
0.0390625,7152
0.08984375,7153
0.056640625,7154
0.056640625,7155
0.056640625,7156
0.0546875,7157
0.0546875,7158
0.056640625,7159
0.0546875,7160
0.05859375,7161
0.052734375,7162
0.048828125,7163
0.041015625,7164
0.048828125,7165
0.052734375,7166
0.048828125,7167
0.048828125,7168
0.0390625,7169
0.0546875,7170
0.068359375,7171
0.076171875,7172
0.076171875,7173
0.078125,7174
0.0703125,7175
0.0546875,7176
0.068359375,7177
0.060546875,7178
0.0625,7179
0.068359375,7180
0.064453125,7181
0.06640625,7182
0.072265625,7183
0.04296875,7184
0.048828125,7185
0.052734375,7186
0.05078125,7187
0.04296875,7188
0.03515625,7189
0.037109375,7190
0.025390625,7191
0.041015625,7192
0.060546875,7193
0.03125,7194
0.048828125,7195
0.03515625,7196
0.0234375,7197
0.03515625,7198
0.01953125,7199
0.0390625,7200
0.0390625,7201
0.046875,7202
0.0546875,7203
0.0546875,7204
0.04296875,7205
0.03515625,7206
0.0390625,7207
0.03515625,7208
0.044921875,7209
0.041015625,7210
0.05859375,7211
0.083984375,7212
0.08203125,7213
0.08203125,7214
0.080078125,7215
0.076171875,7216
0.0625,7217
0.056640625,7218
0.068359375,7219
0.05859375,7220
0.048828125,7221
0.060546875,7222
0.05078125,7223
0.05859375,7224
0.064453125,7225
0.04296875,7226
0.072265625,7227
0.0703125,7228
0.076171875,7229
0.076171875,7230
0.068359375,7231
0.076171875,7232
0.07421875,7233
0.076171875,7234
0.072265625,7235
0.07421875,7236
0.076171875,7237
0.06640625,7238
0.060546875,7239
0.052734375,7240
0.0546875,7241
0.056640625,7242
0.044921875,7243
0.04296875,7244
0.041015625,7245
0.056640625,7246
0.056640625,7247
0.044921875,7248
0.05859375,7249
0.037109375,7250
0.05859375,7251
0.037109375,7252
0.052734375,7253
0.037109375,7254
0.046875,7255
0.033203125,7256
0.056640625,7257
0.0703125,7258
0.060546875,7259
0.0546875,7260
0.056640625,7261
0.060546875,7262
0.0625,7263
0.064453125,7264
0.064453125,7265
0.06640625,7266
0.072265625,7267
0.060546875,7268
0.056640625,7269
0.0546875,7270
0.056640625,7271
0.05859375,7272
0.046875,7273
0.046875,7274
0.060546875,7275
0.05859375,7276
0.048828125,7277
0.05859375,7278
0.03515625,7279
0.056640625,7280
0.064453125,7281
0.05078125,7282
0.048828125,7283
0.052734375,7284
0.05859375,7285
0.044921875,7286
0.052734375,7287
0.0546875,7288
0.044921875,7289
0.041015625,7290
0.03515625,7291
0.04296875,7292
0.044921875,7293
0.03515625,7294
0.041015625,7295
0.033203125,7296
0.044921875,7297
0.03515625,7298
0.037109375,7299
0.046875,7300
0.04296875,7301
0.046875,7302
0.044921875,7303
0.03515625,7304
0.033203125,7305
0.0390625,7306
0.037109375,7307
0.044921875,7308
0.033203125,7309
0.03125,7310
0.033203125,7311
0.064453125,7312
0.046875,7313
0.048828125,7314
0.048828125,7315
0.052734375,7316
0.046875,7317
0.048828125,7318
0.0546875,7319
0.056640625,7320
0.0390625,7321
0.04296875,7322
0.03515625,7323
0.03515625,7324
0.037109375,7325
0.037109375,7326
0.029296875,7327
0.041015625,7328
0.041015625,7329
0.029296875,7330
0.037109375,7331
0.041015625,7332
0.041015625,7333
0.03515625,7334
0.048828125,7335
0.041015625,7336
0.04296875,7337
0.03515625,7338
0.0390625,7339
0.037109375,7340
0.029296875,7341
0.033203125,7342
0.03125,7343
0.033203125,7344
0.03515625,7345
0.044921875,7346
0.05078125,7347
0.044921875,7348
0.03515625,7349
0.041015625,7350
0.048828125,7351
0.041015625,7352
0.02734375,7353
0.041015625,7354
0.037109375,7355
0.041015625,7356
0.033203125,7357
0.03125,7358
0.03125,7359
0.044921875,7360
0.04296875,7361
0.041015625,7362
0.044921875,7363
0.04296875,7364
0.037109375,7365
0.03125,7366
0.0390625,7367
0.029296875,7368
0.03125,7369
0.033203125,7370
0.03125,7371
0.0234375,7372
0.025390625,7373
0.033203125,7374
0.033203125,7375
0.0390625,7376
0.029296875,7377
0.03125,7378
0.03515625,7379
0.03125,7380
0.029296875,7381
0.029296875,7382
0.046875,7383
0.04296875,7384
0.0390625,7385
0.037109375,7386
0.03515625,7387
0.03515625,7388
0.044921875,7389
0.03515625,7390
0.0390625,7391
0.046875,7392
0.0390625,7393
0.037109375,7394
0.0390625,7395
0.037109375,7396
0.04296875,7397
0.03515625,7398
0.037109375,7399
0.041015625,7400
0.02734375,7401
0.025390625,7402
0.025390625,7403
0.029296875,7404
0.033203125,7405
0.037109375,7406
0.0390625,7407
0.033203125,7408
0.02734375,7409
0.02734375,7410
0.029296875,7411
0.025390625,7412
0.03515625,7413
0.033203125,7414
0.0390625,7415
0.02734375,7416
0.03515625,7417
0.033203125,7418
0.0390625,7419
0.0390625,7420
0.03125,7421
0.02734375,7422
0.029296875,7423
0.03125,7424
0.02734375,7425
0.025390625,7426
0.0234375,7427
0.033203125,7428
0.025390625,7429
0.025390625,7430
0.0390625,7431
0.029296875,7432
0.029296875,7433
0.02734375,7434
0.029296875,7435
0.02734375,7436
0.03125,7437
0.02734375,7438
0.0390625,7439
0.02734375,7440
0.046875,7441
0.03125,7442
0.04296875,7443
0.03515625,7444
0.029296875,7445
0.04296875,7446
0.052734375,7447
0.041015625,7448
0.033203125,7449
0.03125,7450
0.029296875,7451
0.033203125,7452
0.041015625,7453
0.03125,7454
0.03125,7455
0.03125,7456
0.037109375,7457
0.025390625,7458
0.033203125,7459
0.041015625,7460
0.03125,7461
0.03125,7462
0.029296875,7463
0.02734375,7464
0.0390625,7465
0.025390625,7466
0.02734375,7467
0.0390625,7468
0.02734375,7469
0.0234375,7470
0.02734375,7471
0.025390625,7472
0.03515625,7473
0.029296875,7474
0.033203125,7475
0.03515625,7476
0.0234375,7477
0.02734375,7478
0.025390625,7479
0.033203125,7480
0.029296875,7481
0.033203125,7482
0.03125,7483
0.03125,7484
0.025390625,7485
0.041015625,7486
0.064453125,7487
0.05859375,7488
0.064453125,7489
0.0625,7490
0.05859375,7491
0.060546875,7492
0.05859375,7493
0.064453125,7494
0.064453125,7495
0.064453125,7496
0.05078125,7497
0.041015625,7498
0.03515625,7499
0.03515625,7500
0.0390625,7501
0.044921875,7502
0.0390625,7503
0.041015625,7504
0.0390625,7505
0.0390625,7506
0.037109375,7507
0.03125,7508
0.03125,7509
0.033203125,7510
0.029296875,7511
0.02734375,7512
0.02734375,7513
0.033203125,7514
0.03125,7515
0.02734375,7516
0.025390625,7517
0.03125,7518
0.029296875,7519
0.03125,7520
0.0390625,7521
0.029296875,7522
0.029296875,7523
0.03125,7524
0.029296875,7525
0.02734375,7526
0.0234375,7527
0.025390625,7528
0.0234375,7529
0.0234375,7530
0.025390625,7531
0.02734375,7532
0.03515625,7533
0.03515625,7534
0.033203125,7535
0.03125,7536
0.0234375,7537
0.02734375,7538
0.025390625,7539
0.03125,7540
0.029296875,7541
0.03125,7542
0.033203125,7543
0.029296875,7544
0.037109375,7545
0.04296875,7546
0.0390625,7547
0.033203125,7548
0.029296875,7549
0.029296875,7550
0.041015625,7551
0.03515625,7552
0.03515625,7553
0.033203125,7554
0.03125,7555
0.021484375,7556
0.029296875,7557
0.03125,7558
0.02734375,7559
0.01953125,7560
0.017578125,7561
0.0234375,7562
0.0546875,7563
0.041015625,7564
0.044921875,7565
0.0390625,7566
0.041015625,7567
0.044921875,7568
0.041015625,7569
0.03125,7570
0.044921875,7571
0.048828125,7572
0.03515625,7573
0.044921875,7574
0.048828125,7575
0.052734375,7576
0.037109375,7577
0.041015625,7578
0.03125,7579
0.033203125,7580
0.033203125,7581
0.03515625,7582
0.046875,7583
0.04296875,7584
0.048828125,7585
0.048828125,7586
0.05078125,7587
0.037109375,7588
0.033203125,7589
0.025390625,7590
0.037109375,7591
0.033203125,7592
0.02734375,7593
0.029296875,7594
0.029296875,7595
0.029296875,7596
0.029296875,7597
0.037109375,7598
0.029296875,7599
0.03125,7600
0.03125,7601
0.037109375,7602
0.0390625,7603
0.03125,7604
0.033203125,7605
0.03125,7606
0.03125,7607
0.037109375,7608
0.03515625,7609
0.03515625,7610
0.03125,7611
0.037109375,7612
0.0390625,7613
0.03515625,7614
0.029296875,7615
0.03125,7616
0.03125,7617
0.033203125,7618
0.03515625,7619
0.03125,7620
0.04296875,7621
0.037109375,7622
0.0390625,7623
0.033203125,7624
0.03125,7625
0.03125,7626
0.03515625,7627
0.041015625,7628
0.029296875,7629
0.04296875,7630
0.0390625,7631
0.03125,7632
0.041015625,7633
0.025390625,7634
0.041015625,7635
0.033203125,7636
0.033203125,7637
0.033203125,7638
0.029296875,7639
0.02734375,7640
0.03125,7641
0.033203125,7642
0.03125,7643
0.041015625,7644
0.03125,7645
0.02734375,7646
0.025390625,7647
0.02734375,7648
0.033203125,7649
0.033203125,7650
0.03125,7651
0.041015625,7652
0.033203125,7653
0.025390625,7654
0.029296875,7655
0.025390625,7656
0.029296875,7657
0.03125,7658
0.03515625,7659
0.03125,7660
0.02734375,7661
0.03515625,7662
0.02734375,7663
0.021484375,7664
0.0390625,7665
0.048828125,7666
0.052734375,7667
0.0546875,7668
0.048828125,7669
0.046875,7670
0.03515625,7671
0.029296875,7672
0.03515625,7673
0.03515625,7674
0.041015625,7675
0.037109375,7676
0.037109375,7677
0.04296875,7678
0.044921875,7679
0.0390625,7680
0.0390625,7681
0.041015625,7682
0.037109375,7683
0.0390625,7684
0.033203125,7685
0.04296875,7686
0.029296875,7687
0.03515625,7688
0.033203125,7689
0.04296875,7690
0.05078125,7691
0.052734375,7692
0.033203125,7693
0.033203125,7694
0.033203125,7695
0.048828125,7696
0.044921875,7697
0.0390625,7698
0.048828125,7699
0.052734375,7700
0.052734375,7701
0.04296875,7702
0.0390625,7703
0.04296875,7704
0.052734375,7705
0.052734375,7706
0.052734375,7707
0.04296875,7708
0.041015625,7709
0.0390625,7710
0.041015625,7711
0.0390625,7712
0.033203125,7713
0.033203125,7714
0.03515625,7715
0.037109375,7716
0.03515625,7717
0.033203125,7718
0.03515625,7719
0.037109375,7720
0.0390625,7721
0.03515625,7722
0.041015625,7723
0.041015625,7724
0.046875,7725
0.044921875,7726
0.0546875,7727
0.041015625,7728
0.0390625,7729
0.041015625,7730
0.041015625,7731
0.0390625,7732
0.041015625,7733
0.0390625,7734
0.041015625,7735
0.0390625,7736
0.0390625,7737
0.041015625,7738
0.0390625,7739
0.041015625,7740
0.0390625,7741
0.041015625,7742
0.041015625,7743
0.0390625,7744
0.041015625,7745
0.0390625,7746
0.041015625,7747
0.0390625,7748
0.041015625,7749
0.046875,7750
0.044921875,7751
0.044921875,7752
0.044921875,7753
0.046875,7754
0.044921875,7755
0.044921875,7756
0.04296875,7757
0.04296875,7758
0.041015625,7759
0.044921875,7760
0.044921875,7761
0.041015625,7762
0.037109375,7763
0.037109375,7764
0.037109375,7765
0.037109375,7766
0.033203125,7767
0.03515625,7768
0.041015625,7769
0.01953125,7770
0.01953125,7771
0.025390625,7772
0.021484375,7773
0.029296875,7774
0.025390625,7775
0.033203125,7776
0.029296875,7777
0.03125,7778
0.037109375,7779
0.02734375,7780
0.03125,7781
0.029296875,7782
0.02734375,7783
0.02734375,7784
0.029296875,7785
0.044921875,7786
0.037109375,7787
0.041015625,7788
0.0390625,7789
0.037109375,7790
0.037109375,7791
0.037109375,7792
0.041015625,7793
0.03515625,7794
0.0390625,7795
0.03515625,7796
0.037109375,7797
0.037109375,7798
0.029296875,7799
0.033203125,7800
0.03515625,7801
0.033203125,7802
0.021484375,7803
0.033203125,7804
0.021484375,7805
0.0390625,7806
0.03515625,7807
0.025390625,7808
0.02734375,7809
0.029296875,7810
0.02734375,7811
0.02734375,7812
0.021484375,7813
0.0234375,7814
0.03125,7815
0.03125,7816
0.03125,7817
0.02734375,7818
0.03125,7819
0.033203125,7820
0.02734375,7821
0.037109375,7822
0.037109375,7823
0.02734375,7824
0.03515625,7825
0.0546875,7826
0.052734375,7827
0.048828125,7828
0.048828125,7829
0.048828125,7830
0.044921875,7831
0.04296875,7832
0.04296875,7833
0.044921875,7834
0.03515625,7835
0.033203125,7836
0.033203125,7837
0.03125,7838
0.025390625,7839
0.02734375,7840
0.01953125,7841
0.021484375,7842
0.0234375,7843
0.01953125,7844
0.03125,7845
0.037109375,7846
0.046875,7847
0.04296875,7848
0.03515625,7849
0.033203125,7850
0.03125,7851
0.04296875,7852
0.048828125,7853
0.0390625,7854
0.044921875,7855
0.05078125,7856
0.044921875,7857
0.05078125,7858
0.03515625,7859
0.0390625,7860
0.04296875,7861
0.052734375,7862
0.046875,7863
0.037109375,7864
0.03515625,7865
0.03515625,7866
0.033203125,7867
0.03515625,7868
0.03515625,7869
0.044921875,7870
0.037109375,7871
0.0390625,7872
0.041015625,7873
0.041015625,7874
0.046875,7875
0.04296875,7876
0.046875,7877
0.037109375,7878
0.037109375,7879
0.044921875,7880
0.046875,7881
0.041015625,7882
0.056640625,7883
0.05859375,7884
0.05078125,7885
0.04296875,7886
0.044921875,7887
0.048828125,7888
0.0390625,7889
0.044921875,7890
0.04296875,7891
0.041015625,7892
0.0390625,7893
0.041015625,7894
0.041015625,7895
0.0390625,7896
0.041015625,7897
0.0390625,7898
0.041015625,7899
0.041015625,7900
0.0390625,7901
0.041015625,7902
0.0390625,7903
0.041015625,7904
0.0390625,7905
0.041015625,7906
0.0390625,7907
0.03515625,7908
0.03125,7909
0.046875,7910
0.041015625,7911
0.04296875,7912
0.046875,7913
0.04296875,7914
0.046875,7915
0.041015625,7916
0.041015625,7917
0.044921875,7918
0.041015625,7919
0.04296875,7920
0.04296875,7921
0.04296875,7922
0.04296875,7923
0.041015625,7924
0.05078125,7925
0.04296875,7926
0.05078125,7927
0.041015625,7928
0.046875,7929
0.046875,7930
0.046875,7931
0.048828125,7932
0.044921875,7933
0.04296875,7934
0.037109375,7935
0.037109375,7936
0.03125,7937
0.03125,7938
0.0390625,7939
0.029296875,7940
0.03515625,7941
0.03125,7942
0.029296875,7943
0.03515625,7944
0.048828125,7945
0.03515625,7946
0.029296875,7947
0.037109375,7948
0.03125,7949
0.03125,7950
0.03125,7951
0.041015625,7952
0.0390625,7953
0.033203125,7954
0.03515625,7955
0.037109375,7956
0.029296875,7957
0.041015625,7958
0.03515625,7959
0.033203125,7960
0.0234375,7961
0.03125,7962
0.029296875,7963
0.02734375,7964
0.03125,7965
0.017578125,7966
0.025390625,7967
0.01953125,7968
0.0234375,7969
0.029296875,7970
0.03515625,7971
0.03515625,7972
0.044921875,7973
0.037109375,7974
0.041015625,7975
0.033203125,7976
0.03125,7977
0.04296875,7978
0.03125,7979
0.046875,7980
0.048828125,7981
0.046875,7982
0.048828125,7983
0.046875,7984
0.046875,7985
0.046875,7986
0.0546875,7987
0.048828125,7988
0.046875,7989
0.046875,7990
0.05078125,7991
0.05078125,7992
0.046875,7993
0.0546875,7994
0.04296875,7995
0.052734375,7996
0.052734375,7997
0.046875,7998
0.04296875,7999
0.052734375,8000
0.03515625,8001
0.044921875,8002
0.048828125,8003
0.0390625,8004
0.052734375,8005
0.03125,8006
0.048828125,8007
0.046875,8008
0.046875,8009
0.048828125,8010
0.033203125,8011
0.033203125,8012
0.044921875,8013
0.041015625,8014
0.0390625,8015
0.04296875,8016
0.052734375,8017
0.04296875,8018
0.04296875,8019
0.046875,8020
0.037109375,8021
0.0390625,8022
0.048828125,8023
0.0390625,8024
0.048828125,8025
0.033203125,8026
0.046875,8027
0.046875,8028
0.037109375,8029
0.046875,8030
0.033203125,8031
0.041015625,8032
0.03515625,8033
0.048828125,8034
0.044921875,8035
0.044921875,8036
0.044921875,8037
0.044921875,8038
0.041015625,8039
0.0546875,8040
0.041015625,8041
0.044921875,8042
0.04296875,8043
0.048828125,8044
0.0390625,8045
0.05078125,8046
0.044921875,8047
0.04296875,8048
0.0546875,8049
0.0546875,8050
0.05859375,8051
0.046875,8052
0.044921875,8053
0.044921875,8054
0.041015625,8055
0.05078125,8056
0.041015625,8057
0.046875,8058
0.056640625,8059
0.048828125,8060
0.0546875,8061
0.05078125,8062
0.0546875,8063
0.05859375,8064
0.05078125,8065
0.046875,8066
0.044921875,8067
0.046875,8068
0.056640625,8069
0.041015625,8070
0.037109375,8071
0.041015625,8072
0.044921875,8073
0.044921875,8074
0.048828125,8075
0.03515625,8076
0.0390625,8077
0.052734375,8078
0.046875,8079
0.052734375,8080
0.0546875,8081
0.046875,8082
0.0546875,8083
0.046875,8084
0.0546875,8085
0.04296875,8086
0.046875,8087
0.05078125,8088
0.041015625,8089
0.037109375,8090
0.041015625,8091
0.04296875,8092
0.05078125,8093
0.048828125,8094
0.041015625,8095
0.048828125,8096
0.05078125,8097
0.044921875,8098
0.046875,8099
0.0546875,8100
0.041015625,8101
0.048828125,8102
0.037109375,8103
0.037109375,8104
0.05078125,8105
0.044921875,8106
0.052734375,8107
0.05078125,8108
0.03515625,8109
0.048828125,8110
0.041015625,8111
0.03125,8112
0.046875,8113
0.037109375,8114
0.04296875,8115
0.037109375,8116
0.0390625,8117
0.033203125,8118
0.03515625,8119
0.048828125,8120
0.05078125,8121
0.048828125,8122
0.04296875,8123
0.04296875,8124
0.048828125,8125
0.04296875,8126
0.078125,8127
0.052734375,8128
0.05078125,8129
0.052734375,8130
0.05078125,8131
0.044921875,8132
0.05859375,8133
0.048828125,8134
0.052734375,8135
0.044921875,8136
0.048828125,8137
0.044921875,8138
0.04296875,8139
0.046875,8140
0.041015625,8141
0.05078125,8142
0.0546875,8143
0.052734375,8144
0.05078125,8145
0.0390625,8146
0.044921875,8147
0.041015625,8148
0.060546875,8149
0.0546875,8150
0.056640625,8151
0.03515625,8152
0.041015625,8153
0.044921875,8154
0.046875,8155
0.052734375,8156
0.04296875,8157
0.048828125,8158
0.0390625,8159
0.0390625,8160
0.04296875,8161
0.04296875,8162
0.04296875,8163
0.048828125,8164
0.03515625,8165
0.03515625,8166
0.037109375,8167
0.03515625,8168
0.0390625,8169
0.033203125,8170
0.03515625,8171
0.0390625,8172
0.03515625,8173
0.076171875,8174
0.060546875,8175
0.060546875,8176
0.056640625,8177
0.060546875,8178
0.056640625,8179
0.046875,8180
0.060546875,8181
0.064453125,8182
0.060546875,8183
0.064453125,8184
0.072265625,8185
0.05859375,8186
0.06640625,8187
0.05859375,8188
0.048828125,8189
0.0546875,8190
0.048828125,8191
0.056640625,8192
0.05078125,8193
0.05078125,8194
0.056640625,8195
0.056640625,8196
0.052734375,8197
0.048828125,8198
0.044921875,8199
0.048828125,8200
0.046875,8201
0.048828125,8202
0.048828125,8203
0.044921875,8204
0.037109375,8205
0.041015625,8206
0.052734375,8207
0.056640625,8208
0.064453125,8209
0.044921875,8210
0.05859375,8211
0.044921875,8212
0.046875,8213
0.048828125,8214
0.046875,8215
0.056640625,8216
0.064453125,8217
0.048828125,8218
0.052734375,8219
0.052734375,8220
0.05078125,8221
0.0546875,8222
0.060546875,8223
0.0546875,8224
0.048828125,8225
0.048828125,8226
0.048828125,8227
0.060546875,8228
0.048828125,8229
0.060546875,8230
0.048828125,8231
0.05078125,8232
0.05078125,8233
0.05078125,8234
0.05078125,8235
0.05078125,8236
0.046875,8237
0.046875,8238
0.05859375,8239
0.060546875,8240
0.0546875,8241
0.052734375,8242
0.044921875,8243
0.0546875,8244
0.046875,8245
0.0390625,8246
0.048828125,8247
0.044921875,8248
0.052734375,8249
0.044921875,8250
0.046875,8251
0.0390625,8252
0.046875,8253
0.04296875,8254
0.044921875,8255
0.078125,8256
0.07421875,8257
0.072265625,8258
0.07421875,8259
0.06640625,8260
0.0625,8261
0.0625,8262
0.068359375,8263
0.072265625,8264
0.076171875,8265
0.076171875,8266
0.0703125,8267
0.076171875,8268
0.072265625,8269
0.072265625,8270
0.048828125,8271
0.052734375,8272
0.056640625,8273
0.05078125,8274
0.048828125,8275
0.052734375,8276
0.056640625,8277
0.04296875,8278
0.046875,8279
0.052734375,8280
0.052734375,8281
0.03515625,8282
0.03515625,8283
0.041015625,8284
0.03515625,8285
0.033203125,8286
0.03515625,8287
0.0390625,8288
0.033203125,8289
0.03125,8290
0.0703125,8291
0.080078125,8292
0.080078125,8293
0.08203125,8294
0.072265625,8295
0.078125,8296
0.068359375,8297
0.07421875,8298
0.0625,8299
0.064453125,8300
0.0703125,8301
0.046875,8302
0.056640625,8303
0.060546875,8304
0.068359375,8305
0.064453125,8306
0.078125,8307
0.060546875,8308
0.048828125,8309
0.060546875,8310
0.060546875,8311
0.060546875,8312
0.072265625,8313
0.06640625,8314
0.08203125,8315
0.07421875,8316
0.076171875,8317
0.06640625,8318
0.06640625,8319
0.06640625,8320
0.0625,8321
0.068359375,8322
0.06640625,8323
0.064453125,8324
0.06640625,8325
0.05859375,8326
0.0703125,8327
0.060546875,8328
0.064453125,8329
0.048828125,8330
0.060546875,8331
0.056640625,8332
0.068359375,8333
0.056640625,8334
0.0625,8335
0.068359375,8336
0.064453125,8337
0.064453125,8338
0.052734375,8339
0.060546875,8340
0.052734375,8341
0.06640625,8342
0.06640625,8343
0.048828125,8344
0.056640625,8345
0.046875,8346
0.05078125,8347
0.0625,8348
0.044921875,8349
0.0390625,8350
0.041015625,8351
0.044921875,8352
0.041015625,8353
0.044921875,8354
0.044921875,8355
0.0546875,8356
0.0546875,8357
0.041015625,8358
0.044921875,8359
0.04296875,8360
0.0546875,8361
0.037109375,8362
0.0546875,8363
0.044921875,8364
0.0390625,8365
0.052734375,8366
0.041015625,8367
0.033203125,8368
0.0546875,8369
0.048828125,8370
0.04296875,8371
0.044921875,8372
0.0546875,8373
0.04296875,8374
0.0390625,8375
0.044921875,8376
0.048828125,8377
0.05859375,8378
0.04296875,8379
0.048828125,8380
0.0546875,8381
0.056640625,8382
0.068359375,8383
0.052734375,8384
0.060546875,8385
0.052734375,8386
0.0625,8387
0.0546875,8388
0.060546875,8389
0.052734375,8390
0.044921875,8391
0.0546875,8392
0.052734375,8393
0.052734375,8394
0.041015625,8395
0.060546875,8396
0.046875,8397
0.060546875,8398
0.048828125,8399
0.041015625,8400
0.056640625,8401
0.046875,8402
0.048828125,8403
0.041015625,8404
0.056640625,8405
0.056640625,8406
0.05078125,8407
0.041015625,8408
0.0390625,8409
0.048828125,8410
0.048828125,8411
0.041015625,8412
0.041015625,8413
0.052734375,8414
0.041015625,8415
0.052734375,8416
0.05078125,8417
0.037109375,8418
0.048828125,8419
0.04296875,8420
0.056640625,8421
0.0390625,8422
0.048828125,8423
0.044921875,8424
0.04296875,8425
0.0439453125,8426
0.0390625,8427
0.0625,8428
0.056640625,8429
0.068359375,8430
0.056640625,8431
0.05859375,8432
0.05859375,8433
0.060546875,8434
0.072265625,8435
0.064453125,8436
0.056640625,8437
0.072265625,8438
0.068359375,8439
0.060546875,8440
0.05859375,8441
0.080078125,8442
0.05859375,8443
0.068359375,8444
0.0703125,8445
0.060546875,8446
0.064453125,8447
0.060546875,8448
0.0625,8449
0.056640625,8450
0.044921875,8451
0.056640625,8452
0.091796875,8453
0.068359375,8454
0.060546875,8455
0.056640625,8456
0.0546875,8457
0.064453125,8458
0.0546875,8459
0.0546875,8460
0.041015625,8461
0.0546875,8462
0.05859375,8463
0.052734375,8464
0.044921875,8465
0.052734375,8466
0.056640625,8467
0.0546875,8468
0.048828125,8469
0.060546875,8470
0.04296875,8471
0.052734375,8472
0.05078125,8473
0.046875,8474
0.0546875,8475
0.048828125,8476
0.052734375,8477
0.05078125,8478
0.052734375,8479
0.060546875,8480
0.0390625,8481
0.04296875,8482
0.029296875,8483
0.03515625,8484
0.02734375,8485
0.044921875,8486
0.037109375,8487
0.05859375,8488
0.05078125,8489
0.05859375,8490
0.046875,8491
0.06640625,8492
0.0703125,8493
0.0625,8494
0.060546875,8495
0.046875,8496
0.0546875,8497
0.0546875,8498
0.056640625,8499
0.048828125,8500
0.046875,8501
0.04296875,8502
0.05859375,8503
0.05078125,8504
0.04296875,8505
0.0390625,8506
0.037109375,8507
0.037109375,8508
0.04296875,8509
0.072265625,8510
0.076171875,8511
0.076171875,8512
0.0703125,8513
0.07421875,8514
0.072265625,8515
0.0625,8516
0.06640625,8517
0.056640625,8518
0.07421875,8519
0.07421875,8520
0.072265625,8521
0.068359375,8522
0.060546875,8523
0.072265625,8524
0.05859375,8525
0.056640625,8526
0.046875,8527
0.07421875,8528
0.078125,8529
0.068359375,8530
0.076171875,8531
0.0703125,8532
0.06640625,8533
0.056640625,8534
0.06640625,8535
0.044921875,8536
0.0546875,8537
0.052734375,8538
0.041015625,8539
0.05078125,8540
0.072265625,8541
0.060546875,8542
0.05859375,8543
0.064453125,8544
0.048828125,8545
0.048828125,8546
0.064453125,8547
0.056640625,8548
0.072265625,8549
0.072265625,8550
0.07421875,8551
0.064453125,8552
0.06640625,8553
0.06640625,8554
0.064453125,8555
0.064453125,8556
0.05859375,8557
0.0625,8558
0.048828125,8559
0.06640625,8560
0.060546875,8561
0.076171875,8562
0.0703125,8563
0.076171875,8564
0.064453125,8565
0.064453125,8566
0.060546875,8567
0.07421875,8568
0.080078125,8569
0.07421875,8570
0.076171875,8571
0.07421875,8572
0.072265625,8573
0.072265625,8574
0.064453125,8575
0.064453125,8576
0.08203125,8577
0.06640625,8578
0.052734375,8579
0.068359375,8580
0.072265625,8581
0.068359375,8582
0.068359375,8583
0.072265625,8584
0.060546875,8585
0.064453125,8586
0.0625,8587
0.064453125,8588
0.072265625,8589
0.06640625,8590
0.068359375,8591
0.0625,8592
0.056640625,8593
0.072265625,8594
0.064453125,8595
0.0625,8596
0.052734375,8597
0.060546875,8598
0.05078125,8599
0.041015625,8600
0.041015625,8601
0.044921875,8602
0.041015625,8603
0.03515625,8604
0.0390625,8605
0.033203125,8606
0.04296875,8607
0.05859375,8608
0.029296875,8609
0.04296875,8610
0.046875,8611
0.033203125,8612
0.03515625,8613
0.033203125,8614
0.041015625,8615
0.041015625,8616
0.03125,8617
0.033203125,8618
0.044921875,8619
0.03125,8620
0.0390625,8621
0.03515625,8622
0.029296875,8623
0.044921875,8624
0.037109375,8625
0.03125,8626
0.0546875,8627
0.03125,8628
0.037109375,8629
0.0390625,8630
0.05078125,8631
0.044921875,8632
0.05078125,8633
0.044921875,8634
0.04296875,8635
0.046875,8636
0.033203125,8637
0.037109375,8638
0.0859375,8639
0.087890625,8640
0.0859375,8641
0.08203125,8642
0.0859375,8643
0.072265625,8644
0.07421875,8645
0.068359375,8646
0.072265625,8647
0.064453125,8648
0.05859375,8649
0.07421875,8650
0.080078125,8651
0.072265625,8652
0.06640625,8653
0.0546875,8654
0.064453125,8655
0.0546875,8656
0.06640625,8657
0.076171875,8658
0.072265625,8659
0.064453125,8660
0.07421875,8661
0.0703125,8662
0.060546875,8663
0.064453125,8664
0.048828125,8665
0.0625,8666
0.05078125,8667
0.05078125,8668
0.05859375,8669
0.068359375,8670
0.068359375,8671
0.060546875,8672
0.05078125,8673
0.033203125,8674
0.03515625,8675
0.064453125,8676
0.068359375,8677
0.0703125,8678
0.078125,8679
0.08203125,8680
0.0703125,8681
0.060546875,8682
0.037109375,8683
0.037109375,8684
0.025390625,8685
0.046875,8686
0.048828125,8687
0.04296875,8688
0.044921875,8689
0.072265625,8690
0.076171875,8691
0.080078125,8692
0.07421875,8693
0.076171875,8694
0.076171875,8695
0.076171875,8696
0.07421875,8697
0.076171875,8698
0.078125,8699
0.07421875,8700
0.076171875,8701
0.076171875,8702
0.076171875,8703
0.068359375,8704
0.07421875,8705
0.068359375,8706
0.076171875,8707
0.068359375,8708
0.060546875,8709
0.060546875,8710
0.064453125,8711
0.072265625,8712
0.05859375,8713
0.072265625,8714
0.064453125,8715
0.064453125,8716
0.064453125,8717
0.06640625,8718
0.060546875,8719
0.05859375,8720
0.068359375,8721
0.060546875,8722
0.05859375,8723
0.0625,8724
0.052734375,8725
0.048828125,8726
0.0625,8727
0.064453125,8728
0.06640625,8729
0.052734375,8730
0.046875,8731
0.046875,8732
0.044921875,8733
0.041015625,8734
0.037109375,8735
0.04296875,8736
0.037109375,8737
0.0390625,8738
0.03515625,8739
0.03125,8740
0.0390625,8741
0.044921875,8742
0.064453125,8743
0.068359375,8744
0.068359375,8745
0.060546875,8746
0.056640625,8747
0.056640625,8748
0.056640625,8749
0.072265625,8750
0.0625,8751
0.060546875,8752
0.064453125,8753
0.064453125,8754
0.060546875,8755
0.076171875,8756
0.056640625,8757
0.048828125,8758
0.0546875,8759
0.044921875,8760
0.068359375,8761
0.08203125,8762
0.068359375,8763
0.078125,8764
0.072265625,8765
0.056640625,8766
0.060546875,8767
0.076171875,8768
0.0703125,8769
0.0625,8770
0.064453125,8771
0.056640625,8772
0.05859375,8773
0.056640625,8774
0.05859375,8775
0.046875,8776
0.052734375,8777
0.044921875,8778
0.044921875,8779
0.060546875,8780
0.05078125,8781
0.041015625,8782
0.04296875,8783
0.041015625,8784
0.04296875,8785
0.056640625,8786
0.04296875,8787
0.052734375,8788
0.041015625,8789
0.0390625,8790
0.0400390625,8791
0.03515625,8792
0.044921875,8793
0.03515625,8794
0.05078125,8795
0.029296875,8796
0.046875,8797
0.033203125,8798
0.02734375,8799
0.03515625,8800
0.0390625,8801
0.03515625,8802
0.044921875,8803
0.046875,8804
0.04296875,8805
0.044921875,8806
0.0390625,8807
0.048828125,8808
0.041015625,8809
0.04296875,8810
0.044921875,8811
0.0390625,8812
0.03125,8813
0.03515625,8814
0.0390625,8815
0.037109375,8816
0.041015625,8817
0.04296875,8818
0.04296875,8819
0.03515625,8820
0.03125,8821
0.033203125,8822
0.02734375,8823
0.044921875,8824
0.056640625,8825
0.068359375,8826
0.07421875,8827
0.072265625,8828
0.068359375,8829
0.06640625,8830
0.076171875,8831
0.056640625,8832
0.072265625,8833
0.072265625,8834
0.072265625,8835
0.07421875,8836
0.0703125,8837
0.0703125,8838
0.064453125,8839
0.05078125,8840
0.041015625,8841
0.041015625,8842
0.048828125,8843
0.0390625,8844
0.037109375,8845
0.03515625,8846
0.029296875,8847
0.037109375,8848
0.03515625,8849
0.0234375,8850
0.037109375,8851
0.0234375,8852
0.03515625,8853
0.025390625,8854
0.03125,8855
0.029296875,8856
0.033203125,8857
0.02734375,8858
0.033203125,8859
0.029296875,8860
0.025390625,8861
0.03125,8862
0.029296875,8863
0.03125,8864
0.037109375,8865
0.037109375,8866
0.04296875,8867
0.04296875,8868
0.044921875,8869
0.04296875,8870
0.03515625,8871
0.041015625,8872
0.0390625,8873
0.033203125,8874
0.0390625,8875
0.03515625,8876
0.033203125,8877
0.03125,8878
0.02734375,8879
0.02734375,8880
0.025390625,8881
0.02734375,8882
0.03125,8883
0.021484375,8884
0.02734375,8885
0.03125,8886
0.029296875,8887
0.03515625,8888
0.041015625,8889
0.037109375,8890
0.03515625,8891
0.033203125,8892
0.029296875,8893
0.044921875,8894
0.02734375,8895
0.037109375,8896
0.064453125,8897
0.052734375,8898
0.0546875,8899
0.060546875,8900
0.060546875,8901
0.0625,8902
0.056640625,8903
0.060546875,8904
0.0625,8905
0.064453125,8906
0.05859375,8907
0.060546875,8908
0.052734375,8909
0.05078125,8910
0.05859375,8911
0.05859375,8912
0.0546875,8913
0.05078125,8914
0.044921875,8915
0.041015625,8916
0.0390625,8917
0.0390625,8918
0.033203125,8919
0.03125,8920
0.041015625,8921
0.025390625,8922
0.02734375,8923
0.0234375,8924
0.03125,8925
0.033203125,8926
0.0234375,8927
0.0234375,8928
0.033203125,8929
0.02734375,8930
0.03125,8931
0.025390625,8932
0.02734375,8933
0.03515625,8934
0.02734375,8935
0.041015625,8936
0.0546875,8937
0.044921875,8938
0.046875,8939
0.041015625,8940
0.04296875,8941
0.044921875,8942
0.046875,8943
0.044921875,8944
0.04296875,8945
0.0390625,8946
0.041015625,8947
0.05078125,8948
0.044921875,8949
0.041015625,8950
0.044921875,8951
0.044921875,8952
0.044921875,8953
0.044921875,8954
0.044921875,8955
0.044921875,8956
0.05078125,8957
0.044921875,8958
0.046875,8959
0.046875,8960
0.044921875,8961
0.04296875,8962
0.048828125,8963
0.0390625,8964
0.037109375,8965
0.033203125,8966
0.041015625,8967
0.048828125,8968
0.048828125,8969
0.04296875,8970
0.03515625,8971
0.037109375,8972
0.03515625,8973
0.03515625,8974
0.041015625,8975
0.03125,8976
0.037109375,8977
0.04296875,8978
0.037109375,8979
0.037109375,8980
0.03515625,8981
0.033203125,8982
0.046875,8983
0.03515625,8984
0.041015625,8985
0.046875,8986
0.046875,8987
0.033203125,8988
0.0390625,8989
0.037109375,8990
0.0390625,8991
0.037109375,8992
0.0390625,8993
0.0390625,8994
0.029296875,8995
0.015625,8996
0.04296875,8997
0.04296875,8998
0.041015625,8999
0.03125,9000
0.03515625,9001
0.033203125,9002
0.02734375,9003
0.02734375,9004
0.029296875,9005
0.02734375,9006
0.03515625,9007
0.0390625,9008
0.041015625,9009
0.041015625,9010
0.04296875,9011
0.03125,9012
0.046875,9013
0.033203125,9014
0.03125,9015
0.04296875,9016
0.041015625,9017
0.033203125,9018
0.03125,9019
0.037109375,9020
0.033203125,9021
0.033203125,9022
0.03515625,9023
0.033203125,9024
0.03515625,9025
0.033203125,9026
0.029296875,9027
0.033203125,9028
0.0390625,9029
0.04296875,9030
0.046875,9031
0.037109375,9032
0.044921875,9033
0.04296875,9034
0.04296875,9035
0.0390625,9036
0.04296875,9037
0.037109375,9038
0.041015625,9039
0.04296875,9040
0.0390625,9041
0.04296875,9042
0.041015625,9043
0.046875,9044
0.041015625,9045
0.02734375,9046
0.041015625,9047
0.04296875,9048
0.044921875,9049
0.0390625,9050
0.037109375,9051
0.037109375,9052
0.04296875,9053
0.033203125,9054
0.03515625,9055
0.033203125,9056
0.037109375,9057
0.037109375,9058
0.029296875,9059
0.03125,9060
0.025390625,9061
0.037109375,9062
0.029296875,9063
0.02734375,9064
0.03515625,9065
0.033203125,9066
0.033203125,9067
0.037109375,9068
0.03125,9069
0.037109375,9070
0.03515625,9071
0.033203125,9072
0.04296875,9073
0.037109375,9074
0.0390625,9075
0.037109375,9076
0.033203125,9077
0.03125,9078
0.033203125,9079
0.029296875,9080
0.03125,9081
0.0390625,9082
0.029296875,9083
0.0390625,9084
0.03125,9085
0.02734375,9086
0.033203125,9087
0.025390625,9088
0.029296875,9089
0.025390625,9090
0.03125,9091
0.02734375,9092
0.01953125,9093
0.029296875,9094
0.02734375,9095
0.025390625,9096
0.03515625,9097
0.025390625,9098
0.03125,9099
0.03125,9100
0.037109375,9101
0.037109375,9102
0.03125,9103
0.0234375,9104
0.037109375,9105
0.025390625,9106
0.033203125,9107
0.033203125,9108
0.029296875,9109
0.033203125,9110
0.02734375,9111
0.029296875,9112
0.03125,9113
0.03125,9114
0.033203125,9115
0.033203125,9116
0.037109375,9117
0.033203125,9118
0.03125,9119
0.03125,9120
0.029296875,9121
0.0234375,9122
0.03125,9123
0.03515625,9124
0.025390625,9125
0.02734375,9126
0.03125,9127
0.029296875,9128
0.025390625,9129
0.025390625,9130
0.025390625,9131
0.025390625,9132
0.025390625,9133
0.025390625,9134
0.025390625,9135
0.025390625,9136
0.02734375,9137
0.029296875,9138
0.03515625,9139
0.029296875,9140
0.03125,9141
0.033203125,9142
0.029296875,9143
0.033203125,9144
0.02734375,9145
0.02734375,9146
0.029296875,9147
0.037109375,9148
0.041015625,9149
0.0390625,9150
0.029296875,9151
0.02734375,9152
0.0234375,9153
0.033203125,9154
0.033203125,9155
0.037109375,9156
0.037109375,9157
0.037109375,9158
0.033203125,9159
0.03515625,9160
0.021484375,9161
0.03125,9162
0.025390625,9163
0.025390625,9164
0.025390625,9165
0.0234375,9166
0.025390625,9167
0.03515625,9168
0.03515625,9169
0.037109375,9170
0.029296875,9171
0.033203125,9172
0.025390625,9173
0.029296875,9174
0.025390625,9175
0.029296875,9176
0.0234375,9177
0.02734375,9178
0.029296875,9179
0.03125,9180
0.029296875,9181
0.02734375,9182
0.025390625,9183
0.029296875,9184
0.025390625,9185
0.029296875,9186
0.0234375,9187
0.02734375,9188
0.025390625,9189
0.025390625,9190
0.025390625,9191
0.025390625,9192
0.025390625,9193
0.0234375,9194
0.02734375,9195
0.0234375,9196
0.025390625,9197
0.033203125,9198
0.025390625,9199
0.025390625,9200
0.02734375,9201
0.0234375,9202
0.02734375,9203
0.021484375,9204
0.03125,9205
0.029296875,9206
0.029296875,9207
0.037109375,9208
0.029296875,9209
0.029296875,9210
0.029296875,9211
0.025390625,9212
0.0234375,9213
0.02734375,9214
0.025390625,9215
0.025390625,9216
0.029296875,9217
0.025390625,9218
0.02734375,9219
0.0234375,9220
0.01953125,9221
0.021484375,9222
0.01953125,9223
0.02734375,9224
0.025390625,9225
0.02734375,9226
0.01953125,9227
0.025390625,9228
0.02734375,9229
0.0234375,9230
0.025390625,9231
0.0234375,9232
0.025390625,9233
0.02734375,9234
0.025390625,9235
0.021484375,9236
0.033203125,9237
0.0234375,9238
0.03125,9239
0.029296875,9240
0.03515625,9241
0.033203125,9242
0.03515625,9243
0.029296875,9244
0.03515625,9245
0.037109375,9246
0.033203125,9247
0.029296875,9248
0.025390625,9249
0.025390625,9250
0.025390625,9251
0.025390625,9252
0.025390625,9253
0.025390625,9254
0.0234375,9255
0.025390625,9256
0.0234375,9257
0.025390625,9258
0.025390625,9259
0.025390625,9260
0.025390625,9261
0.02734375,9262
0.021484375,9263
0.03125,9264
0.037109375,9265
0.03125,9266
0.03125,9267
0.033203125,9268
0.029296875,9269
0.033203125,9270
0.029296875,9271
0.029296875,9272
0.029296875,9273
0.029296875,9274
0.029296875,9275
0.037109375,9276
0.029296875,9277
0.044921875,9278
0.029296875,9279
0.033203125,9280
0.033203125,9281
0.03125,9282
0.029296875,9283
0.02734375,9284
0.0234375,9285
0.021484375,9286
0.033203125,9287
0.029296875,9288
0.025390625,9289
0.037109375,9290
0.029296875,9291
0.03125,9292
0.037109375,9293
0.03125,9294
0.033203125,9295
0.03125,9296
0.037109375,9297
0.03125,9298
0.029296875,9299
0.037109375,9300
0.03125,9301
0.029296875,9302
0.02734375,9303
0.029296875,9304
0.02734375,9305
0.029296875,9306
0.029296875,9307
0.03515625,9308
0.025390625,9309
0.025390625,9310
0.025390625,9311
0.025390625,9312
0.025390625,9313
0.025390625,9314
0.025390625,9315
0.029296875,9316
0.0234375,9317
0.03515625,9318
0.029296875,9319
0.03125,9320
0.037109375,9321
0.03515625,9322
0.037109375,9323
0.03515625,9324
0.033203125,9325
0.029296875,9326
0.03515625,9327
0.029296875,9328
0.03125,9329
0.033203125,9330
0.02734375,9331
0.03125,9332
0.021484375,9333
0.02734375,9334
0.03125,9335
0.029296875,9336
0.03125,9337
0.03125,9338
0.021484375,9339
0.0234375,9340
0.01953125,9341
0.02734375,9342
0.017578125,9343
0.03125,9344
0.021484375,9345
0.0234375,9346
0.0234375,9347
0.01953125,9348
0.021484375,9349
0.01953125,9350
0.021484375,9351
0.02734375,9352
0.0234375,9353
0.021484375,9354
0.01953125,9355
0.017578125,9356
0.02734375,9357
0.0234375,9358
0.025390625,9359
0.0234375,9360
0.021484375,9361
0.021484375,9362
0.017578125,9363
0.0234375,9364
0.021484375,9365
0.0234375,9366
0.01953125,9367
0.017578125,9368
0.029296875,9369
0.025390625,9370
0.025390625,9371
0.025390625,9372
0.025390625,9373
0.025390625,9374
0.025390625,9375
0.025390625,9376
0.0234375,9377
0.029296875,9378
0.029296875,9379
0.0234375,9380
0.0234375,9381
0.025390625,9382
0.0234375,9383
0.021484375,9384
0.0234375,9385
0.029296875,9386
0.037109375,9387
0.03125,9388
0.025390625,9389
0.03125,9390
0.025390625,9391
0.033203125,9392
0.02734375,9393
0.03125,9394
0.025390625,9395
0.029296875,9396
0.03125,9397
0.029296875,9398
0.03125,9399
0.03125,9400
0.037109375,9401
0.029296875,9402
0.029296875,9403
0.033203125,9404
0.02734375,9405
0.03125,9406
0.025390625,9407
0.025390625,9408
0.025390625,9409
0.02734375,9410
0.025390625,9411
0.0234375,9412
0.025390625,9413
0.0234375,9414
0.02734375,9415
0.025390625,9416
0.01953125,9417
0.029296875,9418
0.056640625,9419
0.05859375,9420
0.0546875,9421
0.05859375,9422
0.06640625,9423
0.0625,9424
0.064453125,9425
0.0625,9426
0.064453125,9427
0.0625,9428
0.060546875,9429
0.05078125,9430
0.05078125,9431
0.05078125,9432
0.0390625,9433
0.033203125,9434
0.04296875,9435
0.04296875,9436
0.0390625,9437
0.0390625,9438
0.048828125,9439
0.04296875,9440
0.037109375,9441
0.03515625,9442
0.03515625,9443
0.037109375,9444
0.029296875,9445
0.033203125,9446
0.033203125,9447
0.02734375,9448
0.0234375,9449
0.021484375,9450
0.01953125,9451
0.02734375,9452
0.0234375,9453
0.025390625,9454
0.025390625,9455
0.025390625,9456
0.025390625,9457
0.025390625,9458
0.025390625,9459
0.025390625,9460
0.025390625,9461
0.025390625,9462
0.025390625,9463
0.025390625,9464
0.029296875,9465
0.029296875,9466
0.033203125,9467
0.033203125,9468
0.029296875,9469
0.033203125,9470
0.025390625,9471
0.029296875,9472
0.025390625,9473
0.03515625,9474
0.037109375,9475
0.056640625,9476
0.056640625,9477
0.0546875,9478
0.056640625,9479
0.056640625,9480
0.056640625,9481
0.052734375,9482
0.046875,9483
0.0390625,9484
0.048828125,9485
0.048828125,9486
0.0546875,9487
0.064453125,9488
0.0625,9489
0.060546875,9490
0.060546875,9491
0.0625,9492
0.056640625,9493
0.064453125,9494
0.05859375,9495
0.056640625,9496
0.064453125,9497
0.060546875,9498
0.046875,9499
0.041015625,9500
0.046875,9501
0.0546875,9502
0.048828125,9503
0.056640625,9504
0.052734375,9505
0.044921875,9506
0.0546875,9507
0.044921875,9508
0.048828125,9509
0.044921875,9510
0.05078125,9511
0.046875,9512
0.046875,9513
0.044921875,9514
0.056640625,9515
0.05078125,9516
0.044921875,9517
0.03515625,9518
0.037109375,9519
0.0390625,9520
0.046875,9521
0.029296875,9522
0.033203125,9523
0.03515625,9524
0.033203125,9525
0.03125,9526
0.025390625,9527
0.025390625,9528
0.0234375,9529
0.025390625,9530
0.02734375,9531
0.025390625,9532
0.0234375,9533
0.025390625,9534
0.025390625,9535
0.025390625,9536
0.029296875,9537
0.029296875,9538
0.033203125,9539
0.033203125,9540
0.025390625,9541
0.025390625,9542
0.0234375,9543
0.02734375,9544
0.025390625,9545
0.046875,9546
0.04296875,9547
0.041015625,9548
0.046875,9549
0.0390625,9550
0.03125,9551
0.03125,9552
0.0390625,9553
0.037109375,9554
0.037109375,9555
0.03125,9556
0.03125,9557
0.0390625,9558
0.033203125,9559
0.0390625,9560
0.033203125,9561
0.02734375,9562
0.02734375,9563
0.033203125,9564
0.03515625,9565
0.0390625,9566
0.033203125,9567
0.04296875,9568
0.03125,9569
0.037109375,9570
0.03515625,9571
0.0390625,9572
0.033203125,9573
0.0390625,9574
0.05078125,9575
0.060546875,9576
0.0625,9577
0.060546875,9578
0.05859375,9579
0.04296875,9580
0.064453125,9581
0.060546875,9582
0.05859375,9583
0.064453125,9584
0.064453125,9585
0.068359375,9586
0.0625,9587
0.06640625,9588
0.060546875,9589
0.052734375,9590
0.033203125,9591
0.03515625,9592
0.033203125,9593
0.029296875,9594
0.02734375,9595
0.033203125,9596
0.02734375,9597
0.03515625,9598
0.02734375,9599
0.03125,9600
0.03515625,9601
0.029296875,9602
0.02734375,9603
0.025390625,9604
0.025390625,9605
0.025390625,9606
0.025390625,9607
0.025390625,9608
0.025390625,9609
0.025390625,9610
0.029296875,9611
0.033203125,9612
0.037109375,9613
0.033203125,9614
0.041015625,9615
0.03515625,9616
0.03125,9617
0.025390625,9618
0.025390625,9619
0.076171875,9620
0.068359375,9621
0.068359375,9622
0.05859375,9623
0.05859375,9624
0.04296875,9625
0.044921875,9626
0.048828125,9627
0.0390625,9628
0.037109375,9629
0.03515625,9630
0.0234375,9631
0.041015625,9632
0.046875,9633
0.05859375,9634
0.068359375,9635
0.05859375,9636
0.060546875,9637
0.0625,9638
0.064453125,9639
0.060546875,9640
0.05859375,9641
0.0625,9642
0.072265625,9643
0.076171875,9644
0.064453125,9645
0.06640625,9646
0.068359375,9647
0.0546875,9648
0.05859375,9649
0.044921875,9650
0.05078125,9651
0.05078125,9652
0.044921875,9653
0.03515625,9654
0.041015625,9655
0.03515625,9656
0.064453125,9657
0.060546875,9658
0.060546875,9659
0.068359375,9660
0.056640625,9661
0.0546875,9662
0.056640625,9663
0.056640625,9664
0.0625,9665
0.068359375,9666
0.072265625,9667
0.072265625,9668
0.060546875,9669
0.064453125,9670
0.068359375,9671
0.05859375,9672
0.046875,9673
0.041015625,9674
0.033203125,9675
0.03515625,9676
0.037109375,9677
0.046875,9678
0.044921875,9679
0.037109375,9680
0.037109375,9681
0.046875,9682
0.029296875,9683
0.025390625,9684
0.0234375,9685
0.025390625,9686
0.025390625,9687
0.025390625,9688
0.025390625,9689
0.025390625,9690
0.025390625,9691
0.029296875,9692
0.0390625,9693
0.0234375,9694
0.029296875,9695
0.029296875,9696
0.029296875,9697
0.025390625,9698
0.02734375,9699
0.029296875,9700
0.025390625,9701
0.02734375,9702
0.029296875,9703
0.02734375,9704
0.025390625,9705
0.02734375,9706
0.025390625,9707
0.0234375,9708
0.037109375,9709
0.0390625,9710
0.03515625,9711
0.03515625,9712
0.037109375,9713
0.0234375,9714
0.021484375,9715
0.0234375,9716
0.029296875,9717
0.029296875,9718
0.0234375,9719
0.0234375,9720
0.025390625,9721
0.0234375,9722
0.01953125,9723
0.017578125,9724
0.01953125,9725
0.021484375,9726
0.025390625,9727
0.033203125,9728
0.03125,9729
0.03515625,9730
0.041015625,9731
0.03125,9732
0.02734375,9733
0.03515625,9734
0.0625,9735
0.056640625,9736
0.056640625,9737
0.0546875,9738
0.060546875,9739
0.060546875,9740
0.0625,9741
0.056640625,9742
0.0625,9743
0.060546875,9744
0.048828125,9745
0.04296875,9746
0.046875,9747
0.046875,9748
0.044921875,9749
0.044921875,9750
0.037109375,9751
0.03125,9752
0.033203125,9753
0.03515625,9754
0.033203125,9755
0.033203125,9756
0.033203125,9757
0.03515625,9758
0.037109375,9759
0.03515625,9760
0.021484375,9761
0.029296875,9762
0.033203125,9763
0.02734375,9764
0.025390625,9765
0.025390625,9766
0.0234375,9767
0.025390625,9768
0.025390625,9769
0.025390625,9770
0.025390625,9771
0.025390625,9772
0.025390625,9773
0.025390625,9774
0.025390625,9775
0.025390625,9776
0.029296875,9777
0.033203125,9778
0.025390625,9779
0.025390625,9780
0.025390625,9781
0.025390625,9782
0.025390625,9783
0.025390625,9784
0.0234375,9785
0.02734375,9786
0.025390625,9787
0.0234375,9788
0.025390625,9789
0.029296875,9790
0.033203125,9791
0.04296875,9792
0.048828125,9793
0.044921875,9794
0.052734375,9795
0.056640625,9796
0.056640625,9797
0.056640625,9798
0.056640625,9799
0.056640625,9800
0.044921875,9801
0.041015625,9802
0.037109375,9803
0.044921875,9804
0.048828125,9805
0.048828125,9806
0.048828125,9807
0.041015625,9808
0.060546875,9809
0.064453125,9810
0.0546875,9811
0.060546875,9812
0.056640625,9813
0.0546875,9814
0.064453125,9815
0.052734375,9816
0.0625,9817
0.044921875,9818
0.048828125,9819
0.041015625,9820
0.04296875,9821
0.048828125,9822
0.04296875,9823
0.05859375,9824
0.056640625,9825
0.046875,9826
0.048828125,9827
0.05078125,9828
0.048828125,9829
0.048828125,9830
0.04296875,9831
0.029296875,9832
0.0390625,9833
0.037109375,9834
0.0390625,9835
0.037109375,9836
0.037109375,9837
0.04296875,9838
0.03125,9839
0.03125,9840
0.033203125,9841
0.03515625,9842
0.037109375,9843
0.0390625,9844
0.033203125,9845
0.03125,9846
0.025390625,9847
0.025390625,9848
0.025390625,9849
0.025390625,9850
0.025390625,9851
0.025390625,9852
0.025390625,9853
0.025390625,9854
0.029296875,9855
0.025390625,9856
0.025390625,9857
0.0234375,9858
0.0390625,9859
0.03515625,9860
0.037109375,9861
0.046875,9862
0.033203125,9863
0.0390625,9864
0.037109375,9865
0.041015625,9866
0.041015625,9867
0.052734375,9868
0.044921875,9869
0.0390625,9870
0.03125,9871
0.03515625,9872
0.0390625,9873
0.041015625,9874
0.037109375,9875
0.0390625,9876
0.04296875,9877
0.04296875,9878
0.04296875,9879
0.033203125,9880
0.044921875,9881
0.03515625,9882
0.03515625,9883
0.033203125,9884
0.0390625,9885
0.03515625,9886
0.029296875,9887
0.02734375,9888
0.021484375,9889
0.025390625,9890
0.033203125,9891
0.033203125,9892
0.033203125,9893
0.044921875,9894
0.060546875,9895
0.064453125,9896
0.064453125,9897
0.0546875,9898
0.046875,9899
0.052734375,9900
0.048828125,9901
0.056640625,9902
0.072265625,9903
0.0703125,9904
0.072265625,9905
0.072265625,9906
0.05859375,9907
0.05859375,9908
0.0625,9909
0.056640625,9910
0.052734375,9911
0.056640625,9912
0.080078125,9913
0.07421875,9914
0.072265625,9915
0.068359375,9916
0.068359375,9917
0.056640625,9918
0.056640625,9919
0.05078125,9920
0.046875,9921
0.044921875,9922
0.0390625,9923
0.05078125,9924
0.064453125,9925
0.056640625,9926
0.068359375,9927
0.064453125,9928
0.0625,9929
0.060546875,9930
0.068359375,9931
0.064453125,9932
0.072265625,9933
0.072265625,9934
0.07421875,9935
0.0703125,9936
0.08203125,9937
0.076171875,9938
0.064453125,9939
0.05859375,9940
0.068359375,9941
0.05859375,9942
0.0625,9943
0.064453125,9944
0.064453125,9945
0.072265625,9946
0.07421875,9947
0.064453125,9948
0.068359375,9949
0.068359375,9950
0.0703125,9951
0.07421875,9952
0.07421875,9953
0.076171875,9954
0.072265625,9955
0.064453125,9956
0.0625,9957
0.072265625,9958
0.0625,9959
0.0625,9960
0.064453125,9961
0.048828125,9962
0.041015625,9963
0.037109375,9964
0.04296875,9965
0.056640625,9966
0.072265625,9967
0.076171875,9968
0.076171875,9969
0.076171875,9970
0.0703125,9971
0.068359375,9972
0.072265625,9973
0.072265625,9974
0.076171875,9975
0.07421875,9976
0.076171875,9977
0.076171875,9978
0.068359375,9979
0.072265625,9980
0.076171875,9981
0.0703125,9982
0.056640625,9983
0.056640625,9984
0.0546875,9985
0.037109375,9986
0.05078125,9987
0.041015625,9988
0.048828125,9989
0.05078125,9990
0.0390625,9991
0.041015625,9992
0.05078125,9993
0.033203125,9994
0.025390625,9995
0.025390625,9996
0.0234375,9997
0.02734375,9998
0.02734375,9999
0.0234375,10000
0.0234375,10001
0.025390625,10002
0.025390625,10003
0.041015625,10004
0.048828125,10005
0.052734375,10006
0.0625,10007
0.064453125,10008
0.068359375,10009
0.06640625,10010
0.06640625,10011
0.0703125,10012
0.076171875,10013
0.076171875,10014
0.064453125,10015
0.068359375,10016
0.056640625,10017
0.06640625,10018
0.06640625,10019
0.072265625,10020
0.076171875,10021
0.076171875,10022
0.076171875,10023
0.064453125,10024
0.064453125,10025
0.0625,10026
0.048828125,10027
0.046875,10028
0.0390625,10029
0.05078125,10030
0.04296875,10031
0.041015625,10032
0.046875,10033
0.033203125,10034
0.03515625,10035
0.03515625,10036
0.041015625,10037
0.0390625,10038
0.041015625,10039
0.04296875,10040
0.04296875,10041
0.0390625,10042
0.037109375,10043
0.03515625,10044
0.037109375,10045
0.041015625,10046
0.03515625,10047
0.048828125,10048
0.1171875,10049
0.1015625,10050
0.091796875,10051
0.091796875,10052
0.060546875,10053
0.0703125,10054
0.06640625,10055
0.07421875,10056
0.083984375,10057
0.08203125,10058
0.0625,10059
0.0625,10060
0.072265625,10061
0.07421875,10062
0.0625,10063
0.041015625,10064
0.04296875,10065
0.064453125,10066
0.060546875,10067
0.05859375,10068
0.046875,10069
0.060546875,10070
0.0625,10071
0.078125,10072
0.080078125,10073
0.0625,10074
0.076171875,10075
0.046875,10076
0.052734375,10077
0.0703125,10078
0.05859375,10079
0.060546875,10080
0.0625,10081
0.0625,10082
0.080078125,10083
0.064453125,10084
0.076171875,10085
0.052734375,10086
0.025390625,10087
0.025390625,10088
0.025390625,10089
0.025390625,10090
0.025390625,10091
0.025390625,10092
0.025390625,10093
0.025390625,10094
0.025390625,10095
0.0234375,10096
0.025390625,10097
0.025390625,10098
0.02734375,10099
0.052734375,10100
0.044921875,10101
0.052734375,10102
0.041015625,10103
0.037109375,10104
0.037109375,10105
0.033203125,10106
0.033203125,10107
0.041015625,10108
0.05078125,10109
0.044921875,10110
0.05859375,10111
0.064453125,10112
0.076171875,10113
0.0703125,10114
0.09375,10115
0.08984375,10116
0.083984375,10117
0.072265625,10118
0.064453125,10119
0.06640625,10120
0.064453125,10121
0.078125,10122
0.07421875,10123
0.076171875,10124
0.078125,10125
0.0703125,10126
0.064453125,10127
0.056640625,10128
0.07421875,10129
0.0703125,10130
0.076171875,10131
0.072265625,10132
0.076171875,10133
0.06640625,10134
0.05859375,10135
0.064453125,10136
0.064453125,10137
0.0625,10138
0.064453125,10139
0.0625,10140
0.064453125,10141
0.064453125,10142
0.0625,10143
0.064453125,10144
0.064453125,10145
0.0625,10146
0.064453125,10147
0.064453125,10148
0.0625,10149
0.064453125,10150
0.05859375,10151
0.0546875,10152
0.048828125,10153
0.05078125,10154
0.041015625,10155
0.03515625,10156
0.0546875,10157
0.033203125,10158
0.025390625,10159
0.025390625,10160
0.025390625,10161
0.025390625,10162
0.025390625,10163
0.0234375,10164
0.02734375,10165
0.0234375,10166
0.029296875,10167
0.029296875,10168
0.033203125,10169
0.02734375,10170
0.0234375,10171
0.037109375,10172
0.037109375,10173
0.041015625,10174
0.041015625,10175
0.037109375,10176
0.052734375,10177
0.064453125,10178
0.06640625,10179
0.0625,10180
0.056640625,10181
0.052734375,10182
0.052734375,10183
0.0546875,10184
0.0546875,10185
0.046875,10186
0.05078125,10187
0.05078125,10188
0.041015625,10189
0.05078125,10190
0.041015625,10191
0.044921875,10192
0.037109375,10193
0.04296875,10194
0.03515625,10195
0.03125,10196
0.021484375,10197
0.05859375,10198
0.0859375,10199
0.083984375,10200
0.078125,10201
0.076171875,10202
0.06640625,10203
0.06640625,10204
0.072265625,10205
0.05859375,10206
0.064453125,10207
0.06640625,10208
0.05078125,10209
0.044921875,10210
0.056640625,10211
0.0546875,10212
0.052734375,10213
0.046875,10214
0.04296875,10215
0.037109375,10216
0.041015625,10217
0.037109375,10218
0.04296875,10219
0.037109375,10220
0.05078125,10221
0.052734375,10222
0.046875,10223
0.05859375,10224
0.029296875,10225
0.025390625,10226
0.025390625,10227
0.0234375,10228
0.025390625,10229
0.025390625,10230
0.0234375,10231
0.025390625,10232
0.025390625,10233
0.025390625,10234
0.025390625,10235
0.02734375,10236
0.0234375,10237
0.029296875,10238
0.03125,10239
0.02734375,10240
0.041015625,10241
0.033203125,10242
0.029296875,10243
0.029296875,10244
0.025390625,10245
0.033203125,10246
0.025390625,10247
0.025390625,10248
0.029296875,10249
0.029296875,10250
0.025390625,10251
0.025390625,10252
0.025390625,10253
0.029296875,10254
0.037109375,10255
0.029296875,10256
0.02734375,10257
0.033203125,10258
0.025390625,10259
0.025390625,10260
0.03125,10261
0.03125,10262
0.037109375,10263
0.03125,10264
0.03515625,10265
0.029296875,10266
0.025390625,10267
0.029296875,10268
0.048828125,10269
0.060546875,10270
0.072265625,10271
0.076171875,10272
0.0703125,10273
0.068359375,10274
0.072265625,10275
0.076171875,10276
0.06640625,10277
0.068359375,10278
0.076171875,10279
0.076171875,10280
0.068359375,10281
0.068359375,10282
0.0625,10283
0.076171875,10284
0.064453125,10285
0.056640625,10286
0.056640625,10287
0.044921875,10288
0.033203125,10289
0.041015625,10290
0.03125,10291
0.02734375,10292
0.029296875,10293
0.025390625,10294
0.029296875,10295
0.03125,10296
0.029296875,10297
0.02734375,10298
0.0234375,10299
0.0234375,10300
0.025390625,10301
0.025390625,10302
0.025390625,10303
0.025390625,10304
0.025390625,10305
0.025390625,10306
0.025390625,10307
0.025390625,10308
0.029296875,10309
0.025390625,10310
0.025390625,10311
0.025390625,10312
0.025390625,10313
0.025390625,10314
0.029296875,10315
0.0234375,10316
0.02734375,10317
0.033203125,10318
0.03125,10319
0.03125,10320
0.021484375,10321
0.03125,10322
0.02734375,10323
0.025390625,10324
0.0234375,10325
0.029296875,10326
0.03515625,10327
0.025390625,10328
0.03125,10329
0.02734375,10330
0.033203125,10331
0.029296875,10332
0.029296875,10333
0.033203125,10334
0.03125,10335
0.02734375,10336
0.029296875,10337
0.0234375,10338
0.03125,10339
0.0234375,10340
0.025390625,10341
0.033203125,10342
0.02734375,10343
0.03515625,10344
0.033203125,10345
0.029296875,10346
0.033203125,10347
0.0390625,10348
0.033203125,10349
0.029296875,10350
0.03125,10351
0.033203125,10352
0.03515625,10353
0.02734375,10354
0.03125,10355
0.025390625,10356
0.03515625,10357
0.033203125,10358
0.029296875,10359
0.02734375,10360
0.03515625,10361
0.03515625,10362
0.0390625,10363
0.033203125,10364
0.025390625,10365
0.0703125,10366
0.0625,10367
0.064453125,10368
0.064453125,10369
0.0625,10370
0.064453125,10371
0.064453125,10372
0.0625,10373
0.064453125,10374
0.064453125,10375
0.064453125,10376
0.06640625,10377
0.0625,10378
0.056640625,10379
0.068359375,10380
0.078125,10381
0.06640625,10382
0.072265625,10383
0.0703125,10384
0.060546875,10385
0.064453125,10386
0.05859375,10387
0.060546875,10388
0.060546875,10389
0.0625,10390
0.056640625,10391
0.0546875,10392
0.056640625,10393
0.06640625,10394
0.052734375,10395
0.0625,10396
0.041015625,10397
0.0390625,10398
0.044921875,10399
0.05078125,10400
0.046875,10401
0.0390625,10402
0.033203125,10403
0.029296875,10404
0.029296875,10405
0.029296875,10406
0.041015625,10407
0.02734375,10408
0.033203125,10409
0.02734375,10410
0.0234375,10411
0.029296875,10412
0.037109375,10413
0.0390625,10414
0.033203125,10415
0.033203125,10416
0.033203125,10417
0.02734375,10418
0.03515625,10419
0.029296875,10420
0.03125,10421
0.03125,10422
0.02734375,10423
0.033203125,10424
0.033203125,10425
0.029296875,10426
0.025390625,10427
0.0390625,10428
0.0390625,10429
0.025390625,10430
0.025390625,10431
0.025390625,10432
0.033203125,10433
0.029296875,10434
0.029296875,10435
0.0390625,10436
0.03125,10437
0.02734375,10438
0.02734375,10439
0.033203125,10440
0.041015625,10441
0.0390625,10442
0.037109375,10443
0.03125,10444
0.037109375,10445
0.0234375,10446
0.033203125,10447
0.029296875,10448
0.029296875,10449
0.02734375,10450
0.0234375,10451
0.037109375,10452
0.0234375,10453
0.03125,10454
0.025390625,10455
0.03515625,10456
0.0390625,10457
0.0390625,10458
0.03515625,10459
0.0390625,10460
0.04296875,10461
0.033203125,10462
0.04296875,10463
0.041015625,10464
0.0390625,10465
0.041015625,10466
0.041015625,10467
0.033203125,10468
0.025390625,10469
0.025390625,10470
0.025390625,10471
0.025390625,10472
0.025390625,10473
0.025390625,10474
0.025390625,10475
0.025390625,10476
0.0234375,10477
0.025390625,10478
0.033203125,10479
0.03515625,10480
0.03515625,10481
0.037109375,10482
0.04296875,10483
0.044921875,10484
0.03515625,10485
0.033203125,10486
0.041015625,10487
0.037109375,10488
0.033203125,10489
0.029296875,10490
0.041015625,10491
0.033203125,10492
0.029296875,10493
0.033203125,10494
0.025390625,10495
0.0234375,10496
0.03125,10497
0.025390625,10498
0.029296875,10499
0.03515625,10500
0.02734375,10501
0.033203125,10502
0.03125,10503
0.029296875,10504
0.0234375,10505
0.03515625,10506
0.033203125,10507
0.02734375,10508
0.021484375,10509
0.025390625,10510
0.029296875,10511
0.025390625,10512
0.03125,10513
0.03125,10514
0.033203125,10515
0.025390625,10516
0.03125,10517
0.025390625,10518
0.0234375,10519
0.02734375,10520
0.029296875,10521
0.025390625,10522
0.0234375,10523
0.03125,10524
0.02734375,10525
0.025390625,10526
0.03125,10527
0.02734375,10528
0.029296875,10529
0.03125,10530
0.0234375,10531
0.025390625,10532
0.01953125,10533
0.0234375,10534
0.025390625,10535
0.025390625,10536
0.0234375,10537
0.025390625,10538
0.025390625,10539
0.025390625,10540
0.029296875,10541
0.03125,10542
0.03125,10543
0.041015625,10544
0.041015625,10545
0.0390625,10546
0.033203125,10547
0.0390625,10548
0.044921875,10549
0.029296875,10550
0.033203125,10551
0.041015625,10552
0.04296875,10553
0.041015625,10554
0.0390625,10555
0.02734375,10556
0.02734375,10557
0.021484375,10558
0.025390625,10559
0.029296875,10560
0.0234375,10561
0.025390625,10562
0.03125,10563
0.029296875,10564
0.03125,10565
0.029296875,10566
0.03125,10567
0.03515625,10568
0.033203125,10569
0.01953125,10570
0.025390625,10571
0.033203125,10572
0.03125,10573
0.025390625,10574
0.029296875,10575
0.025390625,10576
0.025390625,10577
0.02734375,10578
0.03125,10579
0.033203125,10580
0.03125,10581
0.029296875,10582
0.029296875,10583
0.02734375,10584
0.03125,10585
0.029296875,10586
0.037109375,10587
0.029296875,10588
0.029296875,10589
0.03125,10590
0.029296875,10591
0.029296875,10592
0.02734375,10593
0.025390625,10594
0.02734375,10595
0.02734375,10596
0.025390625,10597
0.025390625,10598
0.025390625,10599
0.025390625,10600
0.025390625,10601
0.025390625,10602
0.025390625,10603
0.025390625,10604
0.025390625,10605
0.0234375,10606
0.025390625,10607
0.025390625,10608
0.02734375,10609
0.025390625,10610
0.0234375,10611
0.025390625,10612
0.033203125,10613
0.033203125,10614
0.0390625,10615
0.03125,10616
0.02734375,10617
0.03515625,10618
0.03125,10619
0.029296875,10620
0.025390625,10621
0.025390625,10622
0.025390625,10623
0.025390625,10624
0.025390625,10625
0.0234375,10626
0.02734375,10627
0.025390625,10628
0.029296875,10629
0.021484375,10630
0.02734375,10631
0.02734375,10632
0.025390625,10633
0.02734375,10634
0.029296875,10635
0.033203125,10636
0.025390625,10637
0.0234375,10638
0.025390625,10639
0.02734375,10640
0.02734375,10641
0.029296875,10642
0.033203125,10643
0.029296875,10644
0.025390625,10645
0.01953125,10646
0.0234375,10647
0.021484375,10648
0.0234375,10649
0.02734375,10650
0.029296875,10651
0.02734375,10652
0.03125,10653
0.02734375,10654
0.025390625,10655
0.02734375,10656
0.02734375,10657
0.029296875,10658
0.02734375,10659
0.025390625,10660
0.033203125,10661
0.033203125,10662
0.0234375,10663
0.0234375,10664
0.025390625,10665
0.03125,10666
0.029296875,10667
0.02734375,10668
0.029296875,10669
0.029296875,10670
0.029296875,10671
0.03125,10672
0.04296875,10673
0.03125,10674
0.025390625,10675
0.029296875,10676
0.029296875,10677
0.03125,10678
0.033203125,10679
0.02734375,10680
0.029296875,10681
0.025390625,10682
0.029296875,10683
0.03515625,10684
0.02734375,10685
0.029296875,10686
0.03125,10687
0.029296875,10688
0.03515625,10689
0.037109375,10690
0.033203125,10691
0.041015625,10692
0.033203125,10693
0.03515625,10694
0.03125,10695
0.041015625,10696
0.0234375,10697
0.01953125,10698
0.021484375,10699
0.025390625,10700
0.02734375,10701
0.02734375,10702
0.025390625,10703
0.025390625,10704
0.033203125,10705
0.03125,10706
0.029296875,10707
0.02734375,10708
0.0234375,10709
0.033203125,10710
0.02734375,10711
0.02734375,10712
0.029296875,10713
0.0390625,10714
0.0234375,10715
0.0234375,10716
0.029296875,10717
0.029296875,10718
0.03125,10719
0.044921875,10720
0.03515625,10721
0.037109375,10722
0.041015625,10723
0.041015625,10724
0.03125,10725
0.0390625,10726
0.037109375,10727
0.048828125,10728
0.04296875,10729
0.025390625,10730
0.02734375,10731
0.025390625,10732
0.02734375,10733
0.033203125,10734
0.025390625,10735
0.025390625,10736
0.02734375,10737
0.0234375,10738
0.029296875,10739
0.025390625,10740
0.029296875,10741
0.03125,10742
0.03125,10743
0.041015625,10744
0.041015625,10745
0.03515625,10746
0.033203125,10747
0.03515625,10748
0.025390625,10749
0.037109375,10750
0.02734375,10751
0.03125,10752
0.029296875,10753
0.029296875,10754
0.03125,10755
0.033203125,10756
0.037109375,10757
0.03125,10758
0.02734375,10759
0.025390625,10760
0.029296875,10761
0.025390625,10762
0.029296875,10763
0.029296875,10764
0.025390625,10765
0.025390625,10766
0.025390625,10767
0.029296875,10768
0.025390625,10769
0.02734375,10770
0.029296875,10771
0.03125,10772
0.021484375,10773
0.01953125,10774
0.01953125,10775
0.03125,10776
0.03125,10777
0.029296875,10778
0.021484375,10779
0.0234375,10780
0.01953125,10781
0.025390625,10782
0.03515625,10783
0.03515625,10784
0.029296875,10785
0.02734375,10786
0.025390625,10787
0.025390625,10788
0.021484375,10789
0.025390625,10790
0.025390625,10791
0.025390625,10792
0.025390625,10793
0.025390625,10794
0.025390625,10795
0.03125,10796
0.025390625,10797
0.033203125,10798
0.029296875,10799
0.03515625,10800
0.03125,10801
0.033203125,10802
0.03515625,10803
0.03125,10804
0.033203125,10805
0.033203125,10806
0.033203125,10807
0.0390625,10808
0.03515625,10809
0.033203125,10810
0.029296875,10811
0.0390625,10812
0.025390625,10813
0.029296875,10814
0.025390625,10815
0.025390625,10816
0.025390625,10817
0.025390625,10818
0.025390625,10819
0.025390625,10820
0.0234375,10821
0.025390625,10822
0.0234375,10823
0.025390625,10824
0.03125,10825
0.01953125,10826
0.029296875,10827
0.025390625,10828
0.025390625,10829
0.03125,10830
0.0234375,10831
0.02734375,10832
0.0234375,10833
0.025390625,10834
0.021484375,10835
0.029296875,10836
0.025390625,10837
0.029296875,10838
0.029296875,10839
0.029296875,10840
0.03125,10841
0.029296875,10842
0.025390625,10843
0.03125,10844
0.0234375,10845
0.025390625,10846
0.03125,10847
0.033203125,10848
0.033203125,10849
0.029296875,10850
0.025390625,10851
0.03125,10852
0.029296875,10853
0.0380859375,10854
0.02734375,10855
0.0234375,10856
0.02734375,10857
0.025390625,10858
0.029296875,10859
0.03125,10860
0.0234375,10861
0.03125,10862
0.025390625,10863
0.029296875,10864
0.03125,10865
0.029296875,10866
0.025390625,10867
0.02734375,10868
0.033203125,10869
0.03125,10870
0.037109375,10871
0.0390625,10872
0.037109375,10873
0.03515625,10874
0.033203125,10875
0.033203125,10876
0.03125,10877
0.041015625,10878
0.03515625,10879
0.025390625,10880
0.029296875,10881
0.033203125,10882
0.01953125,10883
0.029296875,10884
0.02734375,10885
0.017578125,10886
0.033203125,10887
0.03515625,10888
0.033203125,10889
0.02734375,10890
0.033203125,10891
0.029296875,10892
0.033203125,10893
0.03125,10894
0.02734375,10895
0.029296875,10896
0.01953125,10897
0.025390625,10898
0.021484375,10899
0.029296875,10900
0.0234375,10901
0.0390625,10902
0.029296875,10903
0.0234375,10904
0.033203125,10905
0.029296875,10906
0.029296875,10907
0.029296875,10908
0.029296875,10909
0.03125,10910
0.025390625,10911
0.025390625,10912
0.029296875,10913
0.033203125,10914
0.029296875,10915
0.029296875,10916
0.033203125,10917
0.0234375,10918
0.037109375,10919
0.052734375,10920
0.0625,10921
0.056640625,10922
0.056640625,10923
0.03515625,10924
0.041015625,10925
0.046875,10926
0.02734375,10927
0.037109375,10928
0.021484375,10929
0.025390625,10930
0.02734375,10931
0.029296875,10932
0.044921875,10933
0.025390625,10934
0.037109375,10935
0.033203125,10936
0.029296875,10937
0.029296875,10938
0.0390625,10939
0.021484375,10940
0.01953125,10941
0.03515625,10942
0.037109375,10943
0.041015625,10944
0.03515625,10945
0.03125,10946
0.08984375,10947
0.095703125,10948
0.09375,10949
0.095703125,10950
0.09375,10951
0.091796875,10952
0.076171875,10953
0.056640625,10954
0.0390625,10955
0.03515625,10956
0.037109375,10957
0.064453125,10958
0.05078125,10959
0.05859375,10960
0.04296875,10961
0.0546875,10962
0.037109375,10963
0.025390625,10964
0.033203125,10965
0.041015625,10966
0.033203125,10967
0.033203125,10968
0.025390625,10969
0.025390625,10970
0.033203125,10971
0.033203125,10972
0.037109375,10973
0.052734375,10974
0.0625,10975
0.08203125,10976
0.076171875,10977
0.080078125,10978
0.072265625,10979
0.060546875,10980
0.05078125,10981
0.04296875,10982
0.05078125,10983
0.037109375,10984
0.048828125,10985
0.052734375,10986
0.076171875,10987
0.083984375,10988
0.083984375,10989
0.08203125,10990
0.080078125,10991
0.0703125,10992
0.068359375,10993
0.07421875,10994
0.06640625,10995
0.0625,10996
0.05078125,10997
0.05078125,10998
0.056640625,10999
0.06640625,11000
0.068359375,11001
0.06640625,11002
0.064453125,11003
0.05078125,11004
0.0546875,11005
0.056640625,11006
0.05078125,11007
0.044921875,11008
0.05078125,11009
0.04296875,11010
0.05078125,11011
0.056640625,11012
0.04296875,11013
0.046875,11014
0.05078125,11015
0.041015625,11016
0.044921875,11017
0.056640625,11018
0.060546875,11019
0.05859375,11020
0.052734375,11021
0.064453125,11022
0.060546875,11023
0.05859375,11024
0.0625,11025
0.064453125,11026
0.064453125,11027
0.056640625,11028
0.05859375,11029
0.052734375,11030
0.0546875,11031
0.048828125,11032
0.052734375,11033
0.041015625,11034
0.037109375,11035
0.025390625,11036
0.0390625,11037
0.025390625,11038
0.02734375,11039
0.033203125,11040
0.033203125,11041
0.03125,11042
0.037109375,11043
0.0390625,11044
0.03515625,11045
0.037109375,11046
0.03515625,11047
0.02734375,11048
0.033203125,11049
0.033203125,11050
0.033203125,11051
0.02734375,11052
0.02734375,11053
0.0234375,11054
0.060546875,11055
0.064453125,11056
0.060546875,11057
0.0546875,11058
0.056640625,11059
0.056640625,11060
0.0546875,11061
0.064453125,11062
0.046875,11063
0.048828125,11064
0.056640625,11065
0.04296875,11066
0.037109375,11067
0.05078125,11068
0.04296875,11069
0.03515625,11070
0.037109375,11071
0.03125,11072
0.041015625,11073
0.044921875,11074
0.02734375,11075
0.04296875,11076
0.037109375,11077
0.048828125,11078
0.064453125,11079
0.060546875,11080
0.0625,11081
0.064453125,11082
0.05859375,11083
0.064453125,11084
0.064453125,11085
0.060546875,11086
0.0625,11087
0.052734375,11088
0.056640625,11089
0.05078125,11090
0.048828125,11091
0.05078125,11092
0.056640625,11093
0.05859375,11094
0.048828125,11095
0.056640625,11096
0.060546875,11097
0.05859375,11098
0.064453125,11099
0.05859375,11100
0.064453125,11101
0.0625,11102
0.0625,11103
0.064453125,11104
0.064453125,11105
0.0625,11106
0.0625,11107
0.064453125,11108
0.0625,11109
0.064453125,11110
0.0625,11111
0.0625,11112
0.064453125,11113
0.064453125,11114
0.064453125,11115
0.0625,11116
0.064453125,11117
0.0625,11118
0.060546875,11119
0.056640625,11120
0.0546875,11121
0.044921875,11122
0.03125,11123
0.029296875,11124
0.041015625,11125
0.0390625,11126
0.02734375,11127
0.03125,11128
0.0390625,11129
0.03515625,11130
0.0390625,11131
0.037109375,11132
0.060546875,11133
0.068359375,11134
0.0546875,11135
0.052734375,11136
0.046875,11137
0.033203125,11138
0.044921875,11139
0.03515625,11140
0.03515625,11141
0.03515625,11142
0.044921875,11143
0.03125,11144
0.044921875,11145
0.03515625,11146
0.044921875,11147
0.037109375,11148
0.03515625,11149
0.037109375,11150
0.046875,11151
0.064453125,11152
0.064453125,11153
0.0625,11154
0.060546875,11155
0.05859375,11156
0.064453125,11157
0.064453125,11158
0.0625,11159
0.064453125,11160
0.056640625,11161
0.056640625,11162
0.046875,11163
0.052734375,11164
0.056640625,11165
0.048828125,11166
0.056640625,11167
0.048828125,11168
0.0546875,11169
0.0546875,11170
0.0390625,11171
0.041015625,11172
0.041015625,11173
0.046875,11174
0.046875,11175
0.048828125,11176
0.046875,11177
0.046875,11178
0.048828125,11179
0.046875,11180
0.048828125,11181
0.046875,11182
0.048828125,11183
0.046875,11184
0.048828125,11185
0.046875,11186
0.046875,11187
0.048828125,11188
0.05078125,11189
0.05078125,11190
0.048828125,11191
0.060546875,11192
0.0546875,11193
0.05078125,11194
0.046875,11195
0.05078125,11196
0.05078125,11197
0.044921875,11198
0.05078125,11199
0.05078125,11200
0.05078125,11201
0.048828125,11202
0.048828125,11203
0.05078125,11204
0.04296875,11205
0.04296875,11206
0.046875,11207
0.046875,11208
0.033203125,11209
0.04296875,11210
0.03515625,11211
0.03515625,11212
0.041015625,11213
0.025390625,11214
0.029296875,11215
0.025390625,11216
0.025390625,11217
0.025390625,11218
0.025390625,11219
0.025390625,11220
0.025390625,11221
0.025390625,11222
0.0234375,11223
0.02734375,11224
0.0234375,11225
0.03125,11226
0.0234375,11227
0.03515625,11228
0.03125,11229
0.03515625,11230
0.033203125,11231
0.0234375,11232
0.03125,11233
0.03125,11234
0.025390625,11235
0.029296875,11236
0.033203125,11237
0.029296875,11238
0.021484375,11239
0.0234375,11240
0.03515625,11241
0.041015625,11242
0.03125,11243
0.03125,11244
0.037109375,11245
0.04296875,11246
0.03125,11247
0.0390625,11248
0.03125,11249
0.029296875,11250
0.0390625,11251
0.03515625,11252
0.03125,11253
0.0390625,11254
0.03515625,11255
0.03515625,11256
0.0390625,11257
0.03125,11258
0.041015625,11259
0.03515625,11260
0.03125,11261
0.033203125,11262
0.037109375,11263
0.03125,11264
0.03515625,11265
0.03515625,11266
0.03125,11267
0.03125,11268
0.037109375,11269
0.033203125,11270
0.033203125,11271
0.037109375,11272
0.033203125,11273
0.03515625,11274
0.03515625,11275
0.029296875,11276
0.0390625,11277
0.04296875,11278
0.0390625,11279
0.037109375,11280
0.037109375,11281
0.037109375,11282
0.06640625,11283
0.06640625,11284
0.06640625,11285
0.072265625,11286
0.041015625,11287
0.044921875,11288
0.048828125,11289
0.05078125,11290
0.044921875,11291
0.05078125,11292
0.046875,11293
0.0390625,11294
0.0390625,11295
0.037109375,11296
0.03515625,11297
0.041015625,11298
0.044921875,11299
0.048828125,11300
0.04296875,11301
0.05078125,11302
0.091796875,11303
0.095703125,11304
0.095703125,11305
0.095703125,11306
0.095703125,11307
0.09375,11308
0.091796875,11309
0.048828125,11310
0.03125,11311
0.03125,11312
0.0546875,11313
0.060546875,11314
0.05078125,11315
0.044921875,11316
0.052734375,11317
0.052734375,11318
0.041015625,11319
0.044921875,11320
0.03515625,11321
0.0390625,11322
0.0234375,11323
0.072265625,11324
0.080078125,11325
0.080078125,11326
0.080078125,11327
0.078125,11328
0.0703125,11329
0.06640625,11330
0.05859375,11331
0.05859375,11332
0.056640625,11333
0.08984375,11334
0.095703125,11335
0.095703125,11336
0.095703125,11337
0.091796875,11338
0.083984375,11339
0.078125,11340
0.0546875,11341
0.056640625,11342
0.0859375,11343
0.083984375,11344
0.083984375,11345
0.0859375,11346
0.080078125,11347
0.078125,11348
0.078125,11349
0.06640625,11350
0.072265625,11351
0.06640625,11352
0.06640625,11353
0.068359375,11354
0.064453125,11355
0.064453125,11356
0.06640625,11357
0.0703125,11358
0.0546875,11359
0.048828125,11360
0.048828125,11361
0.044921875,11362
0.060546875,11363
0.064453125,11364
0.0625,11365
0.064453125,11366
0.064453125,11367
0.05859375,11368
0.064453125,11369
0.0625,11370
0.064453125,11371
0.064453125,11372
0.064453125,11373
0.068359375,11374
0.06640625,11375
0.064453125,11376
0.0546875,11377
0.0625,11378
0.0625,11379
0.0625,11380
0.060546875,11381
0.064453125,11382
0.060546875,11383
0.05078125,11384
0.08203125,11385
0.0625,11386
0.0546875,11387
0.0546875,11388
0.0546875,11389
0.048828125,11390
0.060546875,11391
0.0546875,11392
0.048828125,11393
0.048828125,11394
0.046875,11395
0.056640625,11396
0.048828125,11397
0.048828125,11398
0.05859375,11399
0.05078125,11400
0.056640625,11401
0.064453125,11402
0.052734375,11403
0.048828125,11404
0.208984375,11405
0.25390625,11406
0.220703125,11407
0.17578125,11408
0.099609375,11409
0.087890625,11410
0.107421875,11411
0.087890625,11412
0.091796875,11413
0.087890625,11414
0.072265625,11415
0.083984375,11416
0.068359375,11417
0.06640625,11418
0.07421875,11419
0.140625,11420
0.146484375,11421
0.099609375,11422
0.0625,11423
0.076171875,11424
0.083984375,11425
0.109375,11426
0.1640625,11427
0.140625,11428
0.06640625,11429
0.1328125,11430
0.080078125,11431
0.08984375,11432
0.046875,11433
0.068359375,11434
0.0625,11435
0.08984375,11436
0.068359375,11437
0.18359375,11438
0.19921875,11439
0.138671875,11440
0.064453125,11441
0.095703125,11442
0.12890625,11443
0.158203125,11444
0.142578125,11445
0.166015625,11446
0.126953125,11447
0.111328125,11448
0.072265625,11449
0.09765625,11450
0.0859375,11451
0.130859375,11452
0.150390625,11453
0.134765625,11454
0.12890625,11455
0.126953125,11456
0.11328125,11457
0.119140625,11458
0.107421875,11459
0.0859375,11460
0.08984375,11461
0.08203125,11462
0.0859375,11463
0.0859375,11464
0.0859375,11465
0.087890625,11466
0.06640625,11467
0.044921875,11468
0.052734375,11469
0.0703125,11470
0.064453125,11471
0.080078125,11472
0.05859375,11473
0.087890625,11474
0.0703125,11475
0.068359375,11476
0.0703125,11477
0.07421875,11478
0.095703125,11479
0.095703125,11480
0.09375,11481
0.078125,11482
0.080078125,11483
0.072265625,11484
0.087890625,11485
0.068359375,11486
0.068359375,11487
0.072265625,11488
0.068359375,11489
0.0625,11490
0.060546875,11491
0.068359375,11492
0.06640625,11493
0.064453125,11494
0.056640625,11495
0.05859375,11496
0.060546875,11497
0.06640625,11498
0.06640625,11499
0.068359375,11500
0.052734375,11501
0.056640625,11502
0.046875,11503
0.046875,11504
0.046875,11505
0.048828125,11506
0.044921875,11507
0.0546875,11508
0.052734375,11509
0.056640625,11510
0.046875,11511
0.0546875,11512
0.052734375,11513
0.044921875,11514
0.044921875,11515
0.044921875,11516
0.048828125,11517
0.044921875,11518
0.048828125,11519
0.05078125,11520
0.044921875,11521
0.05078125,11522
0.048828125,11523
0.046875,11524
0.046875,11525
0.046875,11526
0.052734375,11527
0.046875,11528
0.048828125,11529
0.05078125,11530
0.056640625,11531
0.048828125,11532
0.0546875,11533
0.0546875,11534
0.056640625,11535
0.056640625,11536
0.056640625,11537
0.052734375,11538
0.046875,11539
0.048828125,11540
0.0546875,11541
0.0546875,11542
0.056640625,11543
0.052734375,11544
0.052734375,11545
0.05078125,11546
0.046875,11547
0.05078125,11548
0.044921875,11549
0.05078125,11550
0.05078125,11551
0.05078125,11552
0.052734375,11553
0.048828125,11554
0.041015625,11555
0.044921875,11556
0.046875,11557
0.05078125,11558
0.04296875,11559
0.05078125,11560
0.046875,11561
0.052734375,11562
0.05078125,11563
0.048828125,11564
0.048828125,11565
0.048828125,11566
0.046875,11567
0.044921875,11568
0.04296875,11569
0.03515625,11570
0.0390625,11571
0.03125,11572
0.03515625,11573
0.03125,11574
0.03125,11575
0.03515625,11576
0.0234375,11577
0.03125,11578
0.02734375,11579
0.025390625,11580
0.025390625,11581
0.025390625,11582
0.025390625,11583
0.025390625,11584
0.025390625,11585
0.025390625,11586
0.025390625,11587
0.025390625,11588
0.029296875,11589
0.029296875,11590
0.033203125,11591
0.025390625,11592
0.03125,11593
0.02734375,11594
0.025390625,11595
0.029296875,11596
0.033203125,11597
0.02734375,11598
0.02734375,11599
0.03125,11600
0.03125,11601
0.02734375,11602
0.033203125,11603
0.033203125,11604
0.03515625,11605
0.03125,11606
0.033203125,11607
0.03125,11608
0.03515625,11609
0.03125,11610
0.033203125,11611
0.0390625,11612
0.033203125,11613
0.033203125,11614
0.037109375,11615
0.033203125,11616
0.03515625,11617
0.03515625,11618
0.037109375,11619
0.0390625,11620
0.0390625,11621
0.041015625,11622
0.046875,11623
0.046875,11624
0.044921875,11625
0.041015625,11626
0.041015625,11627
0.048828125,11628
0.041015625,11629
0.037109375,11630
0.0234375,11631
0.04296875,11632
0.03515625,11633
0.029296875,11634
0.03515625,11635
0.03515625,11636
0.03515625,11637
0.029296875,11638
0.025390625,11639
0.02734375,11640
0.029296875,11641
0.017578125,11642
0.02734375,11643
0.0859375,11644
0.0859375,11645
0.078125,11646
0.076171875,11647
0.0625,11648
0.07421875,11649
0.06640625,11650
0.07421875,11651
0.068359375,11652
0.064453125,11653
0.056640625,11654
0.044921875,11655
0.033203125,11656
0.044921875,11657
0.04296875,11658
0.044921875,11659
0.037109375,11660
0.021484375,11661
0.0234375,11662
0.0234375,11663
0.021484375,11664
0.021484375,11665
0.0390625,11666
0.05078125,11667
0.044921875,11668
0.046875,11669
0.048828125,11670
0.041015625,11671
0.03125,11672
0.03125,11673
0.03125,11674
0.01953125,11675
0.03515625,11676
0.02734375,11677
0.02734375,11678
0.021484375,11679
0.02734375,11680
0.0234375,11681
0.01953125,11682
0.025390625,11683
0.025390625,11684
0.025390625,11685
0.052734375,11686
0.056640625,11687
0.048828125,11688
0.056640625,11689
0.02734375,11690
0.033203125,11691
0.03125,11692
0.03125,11693
0.037109375,11694
0.044921875,11695
0.04296875,11696
0.0390625,11697
0.029296875,11698
0.048828125,11699
0.046875,11700
0.03515625,11701
0.03125,11702
0.037109375,11703
0.029296875,11704
0.029296875,11705
0.037109375,11706
0.033203125,11707
0.0703125,11708
0.083984375,11709
0.08203125,11710
0.080078125,11711
0.078125,11712
0.05078125,11713
0.060546875,11714
0.0625,11715
0.05078125,11716
0.056640625,11717
0.04296875,11718
0.048828125,11719
0.04296875,11720
0.046875,11721
0.052734375,11722
0.033203125,11723
0.064453125,11724
0.041015625,11725
0.03125,11726
0.037109375,11727
0.0390625,11728
0.03125,11729
0.03515625,11730
0.03515625,11731
0.080078125,11732
0.083984375,11733
0.0859375,11734
0.083984375,11735
0.083984375,11736
0.0859375,11737
0.080078125,11738
0.0859375,11739
0.0849609375,11740
0.083984375,11741
0.083984375,11742
0.0859375,11743
0.08203125,11744
0.064453125,11745
0.07421875,11746
0.056640625,11747
0.056640625,11748
0.044921875,11749
0.044921875,11750
0.03515625,11751
0.04296875,11752
0.0390625,11753
0.044921875,11754
0.041015625,11755
0.04296875,11756
0.048828125,11757
0.05078125,11758
0.046875,11759
0.052734375,11760
0.052734375,11761
0.0546875,11762
0.04296875,11763
0.052734375,11764
0.05859375,11765
0.05078125,11766
0.03515625,11767
0.037109375,11768
0.048828125,11769
0.04296875,11770
0.0390625,11771
0.05078125,11772
0.04296875,11773
0.048828125,11774
0.037109375,11775
0.05078125,11776
0.03515625,11777
0.029296875,11778
0.0234375,11779
0.03125,11780
0.03125,11781
0.03125,11782
0.037109375,11783
0.02734375,11784
0.02734375,11785
0.03515625,11786
0.03125,11787
0.04296875,11788
0.052734375,11789
0.0546875,11790
0.052734375,11791
0.0546875,11792
0.052734375,11793
0.0546875,11794
0.052734375,11795
0.0546875,11796
0.052734375,11797
0.05078125,11798
0.052734375,11799
0.0546875,11800
0.052734375,11801
0.05859375,11802
0.060546875,11803
0.0546875,11804
0.060546875,11805
0.05859375,11806
0.052734375,11807
0.056640625,11808
0.052734375,11809
0.0546875,11810
0.046875,11811
0.05859375,11812
0.064453125,11813
0.0546875,11814
0.060546875,11815
0.056640625,11816
0.056640625,11817
0.056640625,11818
0.056640625,11819
0.056640625,11820
0.056640625,11821
0.060546875,11822
0.05859375,11823
0.060546875,11824
0.0546875,11825
0.060546875,11826
0.044921875,11827
0.056640625,11828
0.0625,11829
0.0546875,11830
0.064453125,11831
0.060546875,11832
0.056640625,11833
0.060546875,11834
0.056640625,11835
0.060546875,11836
0.052734375,11837
0.0546875,11838
0.0546875,11839
0.052734375,11840
0.052734375,11841
0.05078125,11842
0.05078125,11843
0.052734375,11844
0.06640625,11845
0.060546875,11846
0.0546875,11847
0.056640625,11848
0.056640625,11849
0.056640625,11850
0.064453125,11851
0.056640625,11852
0.056640625,11853
0.060546875,11854
0.06640625,11855
0.052734375,11856
0.05078125,11857
0.060546875,11858
0.06640625,11859
0.064453125,11860
0.06640625,11861
0.0625,11862
0.052734375,11863
0.041015625,11864
0.056640625,11865
0.046875,11866
0.0546875,11867
0.052734375,11868
0.048828125,11869
0.041015625,11870
0.04296875,11871
0.037109375,11872
0.041015625,11873
0.041015625,11874
0.03515625,11875
0.033203125,11876
0.037109375,11877
0.046875,11878
0.037109375,11879
0.0390625,11880
0.060546875,11881
0.064453125,11882
0.0625,11883
0.0625,11884
0.064453125,11885
0.064453125,11886
0.0625,11887
0.064453125,11888
0.064453125,11889
0.064453125,11890
0.0625,11891
0.068359375,11892
0.064453125,11893
0.0625,11894
0.064453125,11895
0.064453125,11896
0.064453125,11897
0.0625,11898
0.068359375,11899
0.064453125,11900
0.064453125,11901
0.05078125,11902
0.0625,11903
0.0546875,11904
0.03515625,11905
0.05078125,11906
0.048828125,11907
0.03515625,11908
0.05078125,11909
0.041015625,11910
0.05078125,11911
0.0390625,11912
0.044921875,11913
0.05859375,11914
0.0390625,11915
0.060546875,11916
0.0546875,11917
0.056640625,11918
0.048828125,11919
0.060546875,11920
0.04296875,11921
0.064453125,11922
0.05078125,11923
0.03515625,11924
0.046875,11925
0.056640625,11926
0.046875,11927
0.04296875,11928
0.04296875,11929
0.04296875,11930
0.044921875,11931
0.0390625,11932
0.0390625,11933
0.072265625,11934
0.060546875,11935
0.064453125,11936
0.048828125,11937
0.076171875,11938
0.05859375,11939
0.048828125,11940
0.05859375,11941
0.07421875,11942
0.05078125,11943
0.064453125,11944
0.068359375,11945
0.048828125,11946
0.056640625,11947
0.064453125,11948
0.056640625,11949
0.052734375,11950
0.0546875,11951
0.052734375,11952
0.060546875,11953
0.064453125,11954
0.06640625,11955
0.0546875,11956
0.068359375,11957
0.068359375,11958
0.0625,11959
0.06640625,11960
0.064453125,11961
0.064453125,11962
0.0625,11963
0.064453125,11964
0.064453125,11965
0.0625,11966
0.0625,11967
0.064453125,11968
0.0546875,11969
0.05859375,11970
0.076171875,11971
0.03515625,11972
0.0390625,11973
0.056640625,11974
0.0390625,11975
0.044921875,11976
0.072265625,11977
0.0625,11978
0.060546875,11979
0.078125,11980
0.0703125,11981
0.06640625,11982
0.0625,11983
0.0625,11984
0.064453125,11985
0.05859375,11986
0.0703125,11987
0.0625,11988
0.0703125,11989
0.0703125,11990
0.072265625,11991
0.064453125,11992
0.064453125,11993
0.06640625,11994
0.064453125,11995
0.064453125,11996
0.064453125,11997
0.0625,11998
0.064453125,11999
0.07421875,12000
0.072265625,12001
0.0703125,12002
0.0703125,12003
0.072265625,12004
0.072265625,12005
0.0703125,12006
0.072265625,12007
0.087890625,12008
0.076171875,12009
0.083984375,12010
0.07421875,12011
0.083984375,12012
0.06640625,12013
0.076171875,12014
0.0859375,12015
0.087890625,12016
0.08984375,12017
0.087890625,12018
0.09375,12019
0.07421875,12020
0.080078125,12021
0.09375,12022
0.095703125,12023
0.095703125,12024
0.09375,12025
0.09375,12026
0.095703125,12027
0.095703125,12028
0.076171875,12029
0.087890625,12030
0.076171875,12031
0.072265625,12032
0.0546875,12033
0.06640625,12034
0.068359375,12035
0.1015625,12036
0.103515625,12037
0.1015625,12038
0.099609375,12039
0.0859375,12040
0.09765625,12041
0.09375,12042
0.0703125,12043
0.06640625,12044
0.07421875,12045
0.076171875,12046
0.08984375,12047
0.09375,12048
0.09765625,12049
0.087890625,12050
0.076171875,12051
0.076171875,12052
0.072265625,12053
0.072265625,12054
0.072265625,12055
0.05859375,12056
0.06640625,12057
0.0703125,12058
0.07421875,12059
0.056640625,12060
0.033203125,12061
0.0234375,12062
0.025390625,12063
0.029296875,12064
0.025390625,12065
0.029296875,12066
0.029296875,12067
0.029296875,12068
0.037109375,12069
0.037109375,12070
0.048828125,12071
0.052734375,12072
0.03515625,12073
0.048828125,12074
0.0625,12075
0.04296875,12076
0.041015625,12077
0.041015625,12078
0.044921875,12079
0.056640625,12080
0.083984375,12081
0.0859375,12082
0.083984375,12083
0.0859375,12084
0.080078125,12085
0.07421875,12086
0.08203125,12087
0.068359375,12088
0.068359375,12089
0.0703125,12090
0.064453125,12091
0.068359375,12092
0.05859375,12093
0.068359375,12094
0.048828125,12095
0.04296875,12096
0.048828125,12097
0.056640625,12098
0.0546875,12099
0.064453125,12100
0.05078125,12101
0.046875,12102
0.05078125,12103
0.044921875,12104
0.044921875,12105
0.044921875,12106
0.046875,12107
0.04296875,12108
0.04296875,12109
0.046875,12110
0.05078125,12111
0.05078125,12112
0.060546875,12113
0.046875,12114
0.0546875,12115
0.0546875,12116
0.046875,12117
0.060546875,12118
0.0546875,12119
0.0625,12120
0.05078125,12121
0.052734375,12122
0.046875,12123
0.05078125,12124
0.05078125,12125
0.0390625,12126
0.052734375,12127
0.0390625,12128
0.03515625,12129
0.046875,12130
0.02734375,12131
0.05078125,12132
0.03125,12133
0.048828125,12134
0.03515625,12135
0.03515625,12136
0.046875,12137
0.03125,12138
0.037109375,12139
0.044921875,12140
0.037109375,12141
0.046875,12142
0.0390625,12143
0.0390625,12144
0.04296875,12145
0.03515625,12146
0.037109375,12147
0.03515625,12148
0.03515625,12149
0.0390625,12150
0.044921875,12151
0.046875,12152
0.05078125,12153
0.046875,12154
0.048828125,12155
0.046875,12156
0.046875,12157
0.046875,12158
0.046875,12159
0.048828125,12160
0.048828125,12161
0.046875,12162
0.04296875,12163
0.046875,12164
0.052734375,12165
0.044921875,12166
0.048828125,12167
0.0625,12168
0.06640625,12169
0.0625,12170
0.0546875,12171
0.04296875,12172
0.044921875,12173
0.04296875,12174
0.04296875,12175
0.04296875,12176
0.0546875,12177
0.05078125,12178
0.044921875,12179
0.05859375,12180
0.0546875,12181
0.046875,12182
0.046875,12183
0.09765625,12184
0.123046875,12185
0.109375,12186
0.09375,12187
0.0625,12188
0.072265625,12189
0.099609375,12190
0.087890625,12191
0.09765625,12192
0.08984375,12193
0.095703125,12194
0.068359375,12195
0.083984375,12196
0.0703125,12197
0.046875,12198
0.0546875,12199
0.044921875,12200
0.0625,12201
0.056640625,12202
0.0625,12203
0.056640625,12204
0.05078125,12205
0.052734375,12206
0.03125,12207
0.029296875,12208
0.025390625,12209
0.029296875,12210
0.029296875,12211
0.056640625,12212
0.064453125,12213
0.095703125,12214
0.095703125,12215
0.087890625,12216
0.080078125,12217
0.07421875,12218
0.0625,12219
0.080078125,12220
0.0625,12221
0.068359375,12222
0.0859375,12223
0.08203125,12224
0.076171875,12225
0.087890625,12226
0.083984375,12227
0.0859375,12228
0.083984375,12229
0.0859375,12230
0.076171875,12231
0.08203125,12232
0.08203125,12233
0.078125,12234
0.068359375,12235
0.06640625,12236
0.05078125,12237
0.056640625,12238
0.05859375,12239
0.046875,12240
0.056640625,12241
0.060546875,12242
0.064453125,12243
0.068359375,12244
0.0546875,12245
0.0546875,12246
0.05078125,12247
0.048828125,12248
0.05859375,12249
0.05078125,12250
0.046875,12251
0.052734375,12252
0.05859375,12253
0.05078125,12254
0.0703125,12255
0.05859375,12256
0.0625,12257
0.05859375,12258
0.046875,12259
0.05859375,12260
0.06640625,12261
0.05078125,12262
0.05078125,12263
0.052734375,12264
0.0546875,12265
0.05859375,12266
0.05078125,12267
0.0625,12268
0.046875,12269
0.044921875,12270
0.048828125,12271
0.0546875,12272
0.05078125,12273
0.068359375,12274
0.048828125,12275
0.046875,12276
0.0390625,12277
0.04296875,12278
0.048828125,12279
0.046875,12280
0.05859375,12281
0.05078125,12282
0.05078125,12283
0.046875,12284
0.044921875,12285
0.04296875,12286
0.03515625,12287
0.0390625,12288
0.037109375,12289
0.0390625,12290
0.046875,12291
0.046875,12292
0.046875,12293
0.048828125,12294
0.046875,12295
0.048828125,12296
0.046875,12297
0.052734375,12298
0.046875,12299
0.048828125,12300
0.046875,12301
0.056640625,12302
0.046875,12303
0.048828125,12304
0.05078125,12305
0.046875,12306
0.052734375,12307
0.056640625,12308
0.0546875,12309
0.046875,12310
0.068359375,12311
0.0546875,12312
0.04296875,12313
0.046875,12314
0.05078125,12315
0.05078125,12316
0.056640625,12317
0.046875,12318
0.046875,12319
0.046875,12320
0.044921875,12321
0.05078125,12322
0.05859375,12323
0.064453125,12324
0.0859375,12325
0.203125,12326
0.203125,12327
0.18359375,12328
0.146484375,12329
0.1875,12330
0.203125,12331
0.203125,12332
0.203125,12333
0.16796875,12334
0.072265625,12335
0.0703125,12336
0.1171875,12337
0.06640625,12338
0.05078125,12339
0.056640625,12340
0.083984375,12341
0.095703125,12342
0.119140625,12343
0.083984375,12344
0.068359375,12345
0.076171875,12346
0.048828125,12347
0.087890625,12348
0.091796875,12349
0.068359375,12350
0.0625,12351
0.046875,12352
0.029296875,12353
0.041015625,12354
0.068359375,12355
0.0859375,12356
0.0703125,12357
0.0390625,12358
0.03515625,12359
0.044921875,12360
0.04296875,12361
0.041015625,12362
0.041015625,12363
0.041015625,12364
0.056640625,12365
0.0546875,12366
0.130859375,12367
0.171875,12368
0.169921875,12369
0.166015625,12370
0.158203125,12371
0.158203125,12372
0.150390625,12373
0.130859375,12374
0.064453125,12375
0.076171875,12376
0.064453125,12377
0.10546875,12378
0.064453125,12379
0.099609375,12380
0.119140625,12381
0.083984375,12382
0.080078125,12383
0.091796875,12384
0.08984375,12385
0.076171875,12386
0.083984375,12387
0.107421875,12388
0.087890625,12389
0.072265625,12390
0.076171875,12391
0.091796875,12392
0.09765625,12393
0.099609375,12394
0.095703125,12395
0.1015625,12396
0.10546875,12397
0.09765625,12398
0.095703125,12399
0.091796875,12400
0.083984375,12401
0.09765625,12402
0.1015625,12403
0.099609375,12404
0.083984375,12405
0.0859375,12406
0.08984375,12407
0.083984375,12408
0.0859375,12409
0.083984375,12410
0.0859375,12411
0.087890625,12412
0.0859375,12413
0.080078125,12414
0.0625,12415
0.07421875,12416
0.076171875,12417
0.064453125,12418
0.064453125,12419
0.07421875,12420
0.068359375,12421
0.078125,12422
0.05859375,12423
0.05078125,12424
0.041015625,12425
0.046875,12426
0.05078125,12427
0.04296875,12428
0.0546875,12429
0.04296875,12430
0.048828125,12431
0.04296875,12432
0.04296875,12433
0.04296875,12434
0.04296875,12435
0.052734375,12436
0.0625,12437
0.05078125,12438
0.05078125,12439
0.052734375,12440
0.060546875,12441
0.048828125,12442
0.04296875,12443
0.044921875,12444
0.044921875,12445
0.044921875,12446
0.044921875,12447
0.044921875,12448
0.044921875,12449
0.044921875,12450
0.044921875,12451
0.044921875,12452
0.046875,12453
0.04296875,12454
0.046875,12455
0.044921875,12456
0.044921875,12457
0.044921875,12458
0.044921875,12459
0.044921875,12460
0.048828125,12461
0.044921875,12462
0.044921875,12463
0.037109375,12464
0.041015625,12465
0.044921875,12466
0.037109375,12467
0.0390625,12468
0.041015625,12469
0.044921875,12470
0.041015625,12471
0.046875,12472
0.041015625,12473
0.037109375,12474
0.04296875,12475
0.037109375,12476
0.033203125,12477
0.037109375,12478
0.048828125,12479
0.02734375,12480
0.044921875,12481
0.048828125,12482
0.041015625,12483
0.046875,12484
0.033203125,12485
0.03515625,12486
0.037109375,12487
0.037109375,12488
0.041015625,12489
0.041015625,12490
0.044921875,12491
0.037109375,12492
0.04296875,12493
0.041015625,12494
0.037109375,12495
0.03515625,12496
0.03515625,12497
0.033203125,12498
0.037109375,12499
0.0390625,12500
0.033203125,12501
0.037109375,12502
0.03125,12503
0.03125,12504
0.03125,12505
0.044921875,12506
0.06640625,12507
0.060546875,12508
0.072265625,12509
0.078125,12510
0.0546875,12511
0.04296875,12512
0.064453125,12513
0.046875,12514
0.044921875,12515
0.0390625,12516
0.041015625,12517
0.041015625,12518
0.0390625,12519
0.041015625,12520
0.0390625,12521
0.0390625,12522
0.041015625,12523
0.041015625,12524
0.037109375,12525
0.04296875,12526
0.03515625,12527
0.041015625,12528
0.037109375,12529
0.03515625,12530
0.037109375,12531
0.033203125,12532
0.044921875,12533
0.044921875,12534
0.037109375,12535
0.037109375,12536
0.041015625,12537
0.044921875,12538
0.044921875,12539
0.0390625,12540
0.04296875,12541
0.048828125,12542
0.046875,12543
0.046875,12544
0.04296875,12545
0.04296875,12546
0.046875,12547
0.04296875,12548
0.041015625,12549
0.04296875,12550
0.04296875,12551
0.04296875,12552
0.04296875,12553
0.04296875,12554
0.041015625,12555
0.04296875,12556
0.04296875,12557
0.04296875,12558
0.04296875,12559
0.041015625,12560
0.04296875,12561
0.04296875,12562
0.046875,12563
0.046875,12564
0.060546875,12565
0.046875,12566
0.052734375,12567
0.037109375,12568
0.03125,12569
0.03515625,12570
0.03125,12571
0.037109375,12572
0.03515625,12573
0.03125,12574
0.03515625,12575
0.03125,12576
0.029296875,12577
0.025390625,12578
0.025390625,12579
0.025390625,12580
0.025390625,12581
0.025390625,12582
0.025390625,12583
0.025390625,12584
0.025390625,12585
0.025390625,12586
0.025390625,12587
0.029296875,12588
0.02734375,12589
0.037109375,12590
0.03515625,12591
0.037109375,12592
0.025390625,12593
0.033203125,12594
0.03515625,12595
0.029296875,12596
0.033203125,12597
0.025390625,12598
0.03125,12599
0.03515625,12600
0.025390625,12601
0.029296875,12602
0.033203125,12603
0.03125,12604
0.029296875,12605
0.03125,12606
0.03125,12607
0.037109375,12608
0.03125,12609
0.03125,12610
0.03515625,12611
0.037109375,12612
0.03125,12613
0.03515625,12614
0.0390625,12615
0.033203125,12616
0.03515625,12617
0.041015625,12618
0.03125,12619
0.03515625,12620
0.037109375,12621
0.0390625,12622
0.03125,12623
0.03125,12624
0.03515625,12625
0.025390625,12626
0.03125,12627
0.02734375,12628
0.02734375,12629
0.025390625,12630
0.037109375,12631
0.025390625,12632
0.0234375,12633
0.03125,12634
0.0234375,12635
0.021484375,12636
0.033203125,12637
0.021484375,12638
0.02734375,12639
0.021484375,12640
0.01953125,12641
0.0234375,12642
0.021484375,12643
0.0234375,12644
0.029296875,12645
0.025390625,12646
0.03125,12647
0.02734375,12648
0.029296875,12649
0.029296875,12650
0.0234375,12651
0.03125,12652
0.0234375,12653
0.01953125,12654
0.046875,12655
0.046875,12656
0.044921875,12657
0.044921875,12658
0.044921875,12659
0.044921875,12660
0.044921875,12661
0.044921875,12662
0.044921875,12663
0.044921875,12664
0.044921875,12665
0.044921875,12666
0.044921875,12667
0.044921875,12668
0.044921875,12669
0.044921875,12670
0.044921875,12671
0.044921875,12672
0.044921875,12673
0.044921875,12674
0.044921875,12675
0.044921875,12676
0.044921875,12677
0.044921875,12678
0.044921875,12679
0.046875,12680
0.044921875,12681
0.041015625,12682
0.052734375,12683
0.044921875,12684
0.044921875,12685
0.037109375,12686
0.048828125,12687
0.044921875,12688
0.0390625,12689
0.037109375,12690
0.033203125,12691
0.041015625,12692
0.046875,12693
0.037109375,12694
0.04296875,12695
0.037109375,12696
0.04296875,12697
0.037109375,12698
0.037109375,12699
0.05078125,12700
0.041015625,12701
0.041015625,12702
0.037109375,12703
0.044921875,12704
0.033203125,12705
0.03125,12706
0.044921875,12707
0.04296875,12708
0.03125,12709
0.029296875,12710
0.03125,12711
0.033203125,12712
0.033203125,12713
0.029296875,12714
0.033203125,12715
0.033203125,12716
0.033203125,12717
0.03125,12718
0.033203125,12719
0.03125,12720
0.04296875,12721
0.037109375,12722
0.041015625,12723
0.033203125,12724
0.037109375,12725
0.044921875,12726
0.044921875,12727
0.03515625,12728
0.033203125,12729
0.037109375,12730
0.0390625,12731
0.041015625,12732
0.04296875,12733
0.044921875,12734
0.044921875,12735
0.046875,12736
0.03515625,12737
0.033203125,12738
0.033203125,12739
0.033203125,12740
0.041015625,12741
0.03515625,12742
0.033203125,12743
0.03515625,12744
0.033203125,12745
0.033203125,12746
0.033203125,12747
0.03515625,12748
0.03515625,12749
0.03515625,12750
0.033203125,12751
0.03515625,12752
0.033203125,12753
0.033203125,12754
0.03515625,12755
0.033203125,12756
0.044921875,12757
0.041015625,12758
0.0546875,12759
0.052734375,12760
0.037109375,12761
0.044921875,12762
0.044921875,12763
0.041015625,12764
0.04296875,12765
0.041015625,12766
0.037109375,12767
0.0390625,12768
0.04296875,12769
0.041015625,12770
0.041015625,12771
0.041015625,12772
0.0390625,12773
0.0390625,12774
0.0390625,12775
0.0390625,12776
0.041015625,12777
0.041015625,12778
0.0390625,12779
0.041015625,12780
0.0390625,12781
0.037109375,12782
0.041015625,12783
0.04296875,12784
0.041015625,12785
0.041015625,12786
0.037109375,12787
0.04296875,12788
0.04296875,12789
0.04296875,12790
0.041015625,12791
0.044921875,12792
0.041015625,12793
0.04296875,12794
0.04296875,12795
0.04296875,12796
0.04296875,12797
0.041015625,12798
0.03515625,12799
0.041015625,12800
0.041015625,12801
0.0390625,12802
0.033203125,12803
0.03515625,12804
0.03125,12805
0.033203125,12806
0.037109375,12807
0.0390625,12808
0.029296875,12809
0.03515625,12810
0.03125,12811
0.029296875,12812
0.033203125,12813
0.029296875,12814
0.0234375,12815
0.01953125,12816
0.01953125,12817
0.015625,12818
0.015625,12819
0.01953125,12820
0.02734375,12821
0.025390625,12822
0.02734375,12823
0.0234375,12824
0.025390625,12825
0.025390625,12826
0.025390625,12827
0.025390625,12828
0.025390625,12829
0.029296875,12830
0.025390625,12831
0.025390625,12832
0.029296875,12833
0.029296875,12834
0.033203125,12835
0.025390625,12836
0.025390625,12837
0.025390625,12838
0.025390625,12839
0.029296875,12840
0.025390625,12841
0.0234375,12842
0.03125,12843
0.0234375,12844
0.029296875,12845
0.025390625,12846
0.02734375,12847
0.03515625,12848
0.021484375,12849
0.0234375,12850
0.0390625,12851
0.03125,12852
0.03125,12853
0.03125,12854
0.03515625,12855
0.03125,12856
0.033203125,12857
0.03125,12858
0.03125,12859
0.033203125,12860
0.03125,12861
0.03125,12862
0.033203125,12863
0.03125,12864
0.03125,12865
0.03125,12866
0.033203125,12867
0.03125,12868
0.03125,12869
0.03515625,12870
0.044921875,12871
0.04296875,12872
0.037109375,12873
0.0390625,12874
0.03515625,12875
0.033203125,12876
0.033203125,12877
0.0390625,12878
0.03515625,12879
0.02734375,12880
0.037109375,12881
0.033203125,12882
0.037109375,12883
0.0390625,12884
0.02734375,12885
0.03125,12886
0.03125,12887
0.0234375,12888
0.0234375,12889
0.01953125,12890
0.01953125,12891
0.0234375,12892
0.0234375,12893
0.025390625,12894
0.01953125,12895
0.015625,12896
0.0234375,12897
0.015625,12898
0.02734375,12899
0.025390625,12900
0.03515625,12901
0.033203125,12902
0.03515625,12903
0.044921875,12904
0.044921875,12905
0.044921875,12906
0.044921875,12907
0.044921875,12908
0.044921875,12909
0.046875,12910
0.04296875,12911
0.044921875,12912
0.04296875,12913
0.044921875,12914
0.044921875,12915
0.044921875,12916
0.044921875,12917
0.041015625,12918
0.048828125,12919
0.056640625,12920
0.052734375,12921
0.056640625,12922
0.056640625,12923
0.056640625,12924
0.05859375,12925
0.056640625,12926
0.056640625,12927
0.048828125,12928
0.044921875,12929
0.048828125,12930
0.064453125,12931
0.056640625,12932
0.060546875,12933
0.056640625,12934
0.048828125,12935
0.052734375,12936
0.0546875,12937
0.0703125,12938
0.08984375,12939
0.08984375,12940
0.07421875,12941
0.0703125,12942
0.044921875,12943
0.05859375,12944
0.056640625,12945
0.048828125,12946
0.0546875,12947
0.080078125,12948
0.078125,12949
0.078125,12950
0.0703125,12951
0.091796875,12952
0.09765625,12953
0.0546875,12954
0.064453125,12955
0.046875,12956
0.046875,12957
0.037109375,12958
0.041015625,12959
0.033203125,12960
0.0390625,12961
0.033203125,12962
0.037109375,12963
0.025390625,12964
0.048828125,12965
0.052734375,12966
0.052734375,12967
0.044921875,12968
0.044921875,12969
0.037109375,12970
0.04296875,12971
0.044921875,12972
0.041015625,12973
0.046875,12974
0.052734375,12975
0.046875,12976
0.044921875,12977
0.0546875,12978
0.056640625,12979
0.04296875,12980
0.056640625,12981
0.060546875,12982
0.05859375,12983
0.037109375,12984
0.0390625,12985
0.037109375,12986
0.033203125,12987
0.033203125,12988
0.033203125,12989
0.03515625,12990
0.033203125,12991
0.033203125,12992
0.033203125,12993
0.03515625,12994
0.033203125,12995
0.037109375,12996
0.0390625,12997
0.033203125,12998
0.03515625,12999
0.03125,13000
0.033203125,13001
0.033203125,13002
0.033203125,13003
0.0390625,13004
0.037109375,13005
0.037109375,13006
0.04296875,13007
0.052734375,13008
0.060546875,13009
0.05859375,13010
0.041015625,13011
0.044921875,13012
0.0390625,13013
0.041015625,13014
0.0390625,13015
0.041015625,13016
0.041015625,13017
0.0390625,13018
0.041015625,13019
0.0390625,13020
0.041015625,13021
0.0390625,13022
0.041015625,13023
0.0390625,13024
0.041015625,13025
0.041015625,13026
0.0390625,13027
0.041015625,13028
0.0390625,13029
0.0390625,13030
0.041015625,13031
0.0390625,13032
0.041015625,13033
0.044921875,13034
0.0390625,13035
0.041015625,13036
0.03515625,13037
0.041015625,13038
0.0390625,13039
0.037109375,13040
0.041015625,13041
0.0390625,13042
0.041015625,13043
0.037109375,13044
0.03515625,13045
0.041015625,13046
0.0390625,13047
0.04296875,13048
0.04296875,13049
0.04296875,13050
0.04296875,13051
0.041015625,13052
0.04296875,13053
0.04296875,13054
0.04296875,13055
0.037109375,13056
0.041015625,13057
0.04296875,13058
0.04296875,13059
0.041015625,13060
0.044921875,13061
0.041015625,13062
0.04296875,13063
0.033203125,13064
0.03125,13065
0.029296875,13066
0.041015625,13067
0.029296875,13068
0.033203125,13069
0.037109375,13070
0.0234375,13071
0.021484375,13072
0.01953125,13073
0.017578125,13074
0.02734375,13075
0.01953125,13076
0.0234375,13077
0.01953125,13078
0.021484375,13079
0.01953125,13080
0.025390625,13081
0.025390625,13082
0.0234375,13083
0.025390625,13084
0.025390625,13085
0.025390625,13086
0.025390625,13087
0.025390625,13088
0.0234375,13089
0.02734375,13090
0.0234375,13091
0.025390625,13092
0.025390625,13093
0.025390625,13094
0.025390625,13095
0.025390625,13096
0.021484375,13097
0.025390625,13098
0.033203125,13099
0.029296875,13100
0.025390625,13101
0.029296875,13102
0.029296875,13103
0.025390625,13104
0.029296875,13105
0.029296875,13106
0.025390625,13107
0.03125,13108
0.029296875,13109
0.029296875,13110
0.029296875,13111
0.033203125,13112
0.03125,13113
0.037109375,13114
0.025390625,13115
0.03125,13116
0.03125,13117
0.03125,13118
0.03125,13119
0.033203125,13120
0.029296875,13121
0.03125,13122
0.033203125,13123
0.03125,13124
0.03125,13125
0.03125,13126
0.03125,13127
0.033203125,13128
0.03515625,13129
0.03125,13130
0.033203125,13131
0.03515625,13132
0.03515625,13133
0.037109375,13134
0.03125,13135
0.033203125,13136
0.029296875,13137
0.0390625,13138
0.0361328125,13139
0.029296875,13140
0.029296875,13141
0.025390625,13142
0.0234375,13143
0.03125,13144
0.0234375,13145
0.021484375,13146
0.015625,13147
0.0234375,13148
0.03125,13149
0.01953125,13150
0.021484375,13151
0.029296875,13152
0.0234375,13153
0.01953125,13154
0.01953125,13155
0.029296875,13156
0.01953125,13157
0.01953125,13158
0.01953125,13159
0.0234375,13160
0.015625,13161
0.0234375,13162
0.021484375,13163
0.015625,13164
0.015625,13165
0.01953125,13166
0.015625,13167
0.0234375,13168
0.021484375,13169
0.01953125,13170
0.015625,13171
0.0234375,13172
0.01953125,13173
0.01953125,13174
0.017578125,13175
0.01953125,13176
0.01953125,13177
0.017578125,13178
0.015625,13179
0.015625,13180
0.015625,13181
0.015625,13182
0.015625,13183
0.01953125,13184
0.01953125,13185
0.015625,13186
0.01953125,13187
0.015625,13188
0.017578125,13189
0.01171875,13190
0.119140625,13191
0.12109375,13192
0.115234375,13193
0.109375,13194
0.1015625,13195
0.10546875,13196
0.099609375,13197
0.091796875,13198
0.12109375,13199
0.115234375,13200
0.09765625,13201
0.080078125,13202
0.07421875,13203
0.095703125,13204
0.0859375,13205
0.095703125,13206
0.095703125,13207
0.10546875,13208
0.09765625,13209
0.107421875,13210
0.10546875,13211
0.1015625,13212
0.091796875,13213
0.0859375,13214
0.091796875,13215
0.0859375,13216
0.0859375,13217
0.08984375,13218
0.0703125,13219
0.095703125,13220
0.083984375,13221
0.08203125,13222
0.078125,13223
0.068359375,13224
0.068359375,13225
0.056640625,13226
0.068359375,13227
0.056640625,13228
0.056640625,13229
0.041015625,13230
0.048828125,13231
0.041015625,13232
0.0546875,13233
0.044921875,13234
0.048828125,13235
0.060546875,13236
0.06640625,13237
0.0546875,13238
0.05859375,13239
0.052734375,13240
0.05859375,13241
0.0546875,13242
0.0546875,13243
0.041015625,13244
0.052734375,13245
0.0546875,13246
0.060546875,13247
0.052734375,13248
0.056640625,13249
0.041015625,13250
0.033203125,13251
0.03515625,13252
0.033203125,13253
0.033203125,13254
0.03515625,13255
0.037109375,13256
0.05078125,13257
0.060546875,13258
0.060546875,13259
0.048828125,13260
0.044921875,13261
0.048828125,13262
0.046875,13263
0.048828125,13264
0.04296875,13265
0.052734375,13266
0.046875,13267
0.044921875,13268
0.048828125,13269
0.046875,13270
0.044921875,13271
0.056640625,13272
0.044921875,13273
0.060546875,13274
0.0625,13275
0.052734375,13276
0.060546875,13277
0.056640625,13278
0.068359375,13279
0.0625,13280
0.07421875,13281
0.078125,13282
0.05859375,13283
0.072265625,13284
0.0546875,13285
0.060546875,13286
0.0546875,13287
0.056640625,13288
0.048828125,13289
0.041015625,13290
0.04296875,13291
0.033203125,13292
0.0390625,13293
0.041015625,13294
0.0390625,13295
0.037109375,13296
0.033203125,13297
0.04296875,13298
0.0390625,13299
0.0390625,13300
0.056640625,13301
0.052734375,13302
0.056640625,13303
0.05078125,13304
0.044921875,13305
0.04296875,13306
0.037109375,13307
0.041015625,13308
0.0390625,13309
0.037109375,13310
0.033203125,13311
0.0390625,13312
0.033203125,13313
0.033203125,13314
0.033203125,13315
0.033203125,13316
0.0390625,13317
0.033203125,13318
0.046875,13319
0.06640625,13320
0.076171875,13321
0.0703125,13322
0.068359375,13323
0.068359375,13324
0.046875,13325
0.056640625,13326
0.052734375,13327
0.044921875,13328
0.041015625,13329
0.048828125,13330
0.04296875,13331
0.04296875,13332
0.044921875,13333
0.041015625,13334
0.0390625,13335
0.041015625,13336
0.0390625,13337
0.041015625,13338
0.048828125,13339
0.04296875,13340
0.044921875,13341
0.072265625,13342
0.091796875,13343
0.08984375,13344
0.072265625,13345
0.0703125,13346
0.060546875,13347
0.05078125,13348
0.046875,13349
0.052734375,13350
0.056640625,13351
0.05859375,13352
0.080078125,13353
0.0703125,13354
0.068359375,13355
0.076171875,13356
0.060546875,13357
0.0625,13358
0.072265625,13359
0.08203125,13360
0.08203125,13361
0.07421875,13362
0.05859375,13363
0.07421875,13364
0.078125,13365
0.08984375,13366
0.09375,13367
0.08984375,13368
0.099609375,13369
0.107421875,13370
0.099609375,13371
0.099609375,13372
0.0859375,13373
0.09375,13374
0.107421875,13375
0.080078125,13376
0.09375,13377
0.091796875,13378
0.08984375,13379
0.091796875,13380
0.08984375,13381
0.08984375,13382
0.083984375,13383
0.091796875,13384
0.08984375,13385
0.0859375,13386
0.083984375,13387
0.080078125,13388
0.072265625,13389
0.072265625,13390
0.0859375,13391
0.0859375,13392
0.083984375,13393
0.076171875,13394
0.0703125,13395
0.080078125,13396
0.083984375,13397
0.091796875,13398
0.083984375,13399
0.07421875,13400
0.06640625,13401
0.083984375,13402
0.080078125,13403
0.08984375,13404
0.091796875,13405
0.078125,13406
0.068359375,13407
0.05859375,13408
0.060546875,13409
0.060546875,13410
0.064453125,13411
0.072265625,13412
0.080078125,13413
0.0859375,13414
0.076171875,13415
0.072265625,13416
0.072265625,13417
0.064453125,13418
0.056640625,13419
0.064453125,13420
0.064453125,13421
0.056640625,13422
0.068359375,13423
0.060546875,13424
0.044921875,13425
0.060546875,13426
0.056640625,13427
0.056640625,13428
0.052734375,13429
0.048828125,13430
0.048828125,13431
0.056640625,13432
0.056640625,13433
0.06640625,13434
0.044921875,13435
0.05859375,13436
0.05078125,13437
0.068359375,13438
0.048828125,13439
0.056640625,13440
0.048828125,13441
0.056640625,13442
0.052734375,13443
0.0546875,13444
0.044921875,13445
0.048828125,13446
0.04296875,13447
0.0546875,13448
0.048828125,13449
0.041015625,13450
0.041015625,13451
0.041015625,13452
0.04296875,13453
0.041015625,13454
0.048828125,13455
0.044921875,13456
0.05078125,13457
0.052734375,13458
0.041015625,13459
0.0390625,13460
0.052734375,13461
0.048828125,13462
0.0546875,13463
0.037109375,13464
0.046875,13465
0.048828125,13466
0.03515625,13467
0.0390625,13468
0.04296875,13469
0.037109375,13470
0.046875,13471
0.052734375,13472
0.056640625,13473
0.048828125,13474
0.052734375,13475
0.052734375,13476
0.05078125,13477
0.04296875,13478
0.044921875,13479
0.0625,13480
0.064453125,13481
0.052734375,13482
0.052734375,13483
0.044921875,13484
0.052734375,13485
0.056640625,13486
0.052734375,13487
0.060546875,13488
0.05078125,13489
0.048828125,13490
0.046875,13491
0.048828125,13492
0.044921875,13493
0.052734375,13494
0.044921875,13495
0.044921875,13496
0.04296875,13497
0.056640625,13498
0.048828125,13499
0.046875,13500
0.05078125,13501
0.048828125,13502
0.048828125,13503
0.048828125,13504
0.048828125,13505
0.056640625,13506
0.05078125,13507
0.056640625,13508
0.04296875,13509
0.052734375,13510
0.04296875,13511
0.048828125,13512
0.046875,13513
0.044921875,13514
0.04296875,13515
0.044921875,13516
0.05078125,13517
0.048828125,13518
0.04296875,13519
0.041015625,13520
0.03125,13521
0.041015625,13522
0.03515625,13523
0.033203125,13524
0.02734375,13525
0.029296875,13526
0.029296875,13527
0.03125,13528
0.033203125,13529
0.03125,13530
0.03515625,13531
0.03125,13532
0.029296875,13533
0.0390625,13534
0.03515625,13535
0.0390625,13536
0.037109375,13537
0.041015625,13538
0.0390625,13539
0.044921875,13540
0.04296875,13541
0.041015625,13542
0.037109375,13543
0.04296875,13544
0.044921875,13545
0.03515625,13546
0.044921875,13547
0.0390625,13548
0.041015625,13549
0.03515625,13550
0.041015625,13551
0.041015625,13552
0.044921875,13553
0.04296875,13554
0.03515625,13555
0.048828125,13556
0.03515625,13557
0.04296875,13558
0.037109375,13559
0.037109375,13560
0.03515625,13561
0.041015625,13562
0.037109375,13563
0.0390625,13564
0.03515625,13565
0.033203125,13566
0.03515625,13567
0.041015625,13568
0.041015625,13569
0.03515625,13570
0.041015625,13571
0.03125,13572
0.033203125,13573
0.041015625,13574
0.037109375,13575
0.029296875,13576
0.041015625,13577
0.0390625,13578
0.0390625,13579
0.04296875,13580
0.025390625,13581
0.03125,13582
0.03125,13583
0.03125,13584
0.03515625,13585
0.02734375,13586
0.033203125,13587
0.03125,13588
0.025390625,13589
0.03125,13590
0.029296875,13591
0.01953125,13592
0.03125,13593
0.02734375,13594
0.033203125,13595
0.033203125,13596
0.025390625,13597
0.02734375,13598
0.03125,13599
0.0234375,13600
0.021484375,13601
0.025390625,13602
0.025390625,13603
0.033203125,13604
0.029296875,13605
0.02734375,13606
0.02734375,13607
0.0234375,13608
0.0234375,13609
0.02734375,13610
0.025390625,13611
0.01953125,13612
0.0234375,13613
0.01953125,13614
0.0234375,13615
0.015625,13616
0.017578125,13617
0.015625,13618
0.01953125,13619
0.01953125,13620
0.01953125,13621
0.01953125,13622
0.01953125,13623
0.0234375,13624
0.025390625,13625
0.0234375,13626
0.03125,13627
0.01953125,13628
0.0234375,13629
0.015625,13630
0.025390625,13631
0.015625,13632
0.01953125,13633
0.015625,13634
0.0234375,13635
0.0234375,13636
0.0234375,13637
0.01953125,13638
0.017578125,13639
0.021484375,13640
0.021484375,13641
0.01953125,13642
0.01953125,13643
0.015625,13644
0.021484375,13645
0.0234375,13646
0.01953125,13647
0.01953125,13648
0.0234375,13649
0.01953125,13650
0.017578125,13651
0.017578125,13652
0.021484375,13653
0.0234375,13654
0.01953125,13655
0.01953125,13656
0.01953125,13657
0.013671875,13658
0.017578125,13659
0.0234375,13660
0.0234375,13661
0.01953125,13662
0.0234375,13663
0.015625,13664
0.021484375,13665
0.021484375,13666
0.025390625,13667
0.0234375,13668
0.015625,13669
0.01953125,13670
0.025390625,13671
0.013671875,13672
0.01953125,13673
0.0166015625,13674
0.01953125,13675
0.01953125,13676
0.01953125,13677
0.013671875,13678
0.021484375,13679
0.015625,13680
0.029296875,13681
0.015625,13682
0.03125,13683
0.01953125,13684
0.0234375,13685
0.025390625,13686
0.021484375,13687
0.015625,13688
0.02734375,13689
0.025390625,13690
0.03515625,13691
0.01953125,13692
0.03125,13693
0.02734375,13694
0.0234375,13695
0.0234375,13696
0.029296875,13697
0.02734375,13698
0.033203125,13699
0.02734375,13700
0.01953125,13701
0.025390625,13702
0.033203125,13703
0.0234375,13704
0.029296875,13705
0.0234375,13706
0.029296875,13707
0.03125,13708
0.037109375,13709
0.03125,13710
0.03125,13711
0.033203125,13712
0.017578125,13713
0.017578125,13714
0.015625,13715
0.013671875,13716
0.021484375,13717
0.0234375,13718
0.02734375,13719
0.029296875,13720
0.021484375,13721
0.01953125,13722
0.017578125,13723
0.015625,13724
0.015625,13725
0.025390625,13726
0.017578125,13727
0.021484375,13728
0.02734375,13729
0.02734375,13730
0.01953125,13731
0.01953125,13732
0.021484375,13733
0.01953125,13734
0.0234375,13735
0.017578125,13736
0.015625,13737
0.01953125,13738
0.015625,13739
0.017578125,13740
0.013671875,13741
0.033203125,13742
0.03515625,13743
0.041015625,13744
0.033203125,13745
0.041015625,13746
0.04296875,13747
0.029296875,13748
0.03515625,13749
0.037109375,13750
0.04296875,13751
0.041015625,13752
0.046875,13753
0.03515625,13754
0.03125,13755
0.037109375,13756
0.03125,13757
0.0390625,13758
0.041015625,13759
0.046875,13760
0.0390625,13761
0.037109375,13762
0.0390625,13763
0.033203125,13764
0.03125,13765
0.0390625,13766
0.033203125,13767
0.03515625,13768
0.03515625,13769
0.03125,13770
0.03515625,13771
0.033203125,13772
0.03515625,13773
0.02734375,13774
0.029296875,13775
0.037109375,13776
0.037109375,13777
0.03125,13778
0.01953125,13779
0.02734375,13780
0.025390625,13781
0.01953125,13782
0.02734375,13783
0.0234375,13784
0.015625,13785
0.017578125,13786
0.0234375,13787
0.021484375,13788
0.021484375,13789
0.01953125,13790
0.0234375,13791
0.0234375,13792
0.01953125,13793
0.0234375,13794
0.021484375,13795
0.03125,13796
0.0390625,13797
0.03515625,13798
0.044921875,13799
0.03515625,13800
0.02734375,13801
0.033203125,13802
0.0546875,13803
0.029296875,13804
0.033203125,13805
0.033203125,13806
0.0390625,13807
0.029296875,13808
0.015625,13809
0.03125,13810
0.02734375,13811
0.03125,13812
0.025390625,13813
0.03125,13814
0.03125,13815
0.03125,13816
0.025390625,13817
0.033203125,13818
0.037109375,13819
0.037109375,13820
0.0234375,13821
0.021484375,13822
0.025390625,13823
0.037109375,13824
0.03125,13825
0.025390625,13826
0.03515625,13827
0.02734375,13828
0.03125,13829
0.021484375,13830
0.03125,13831
0.033203125,13832
0.033203125,13833
0.029296875,13834
0.029296875,13835
0.025390625,13836
0.029296875,13837
0.01953125,13838
0.041015625,13839
0.033203125,13840
0.02734375,13841
0.025390625,13842
0.02734375,13843
0.029296875,13844
0.025390625,13845
0.02734375,13846
0.033203125,13847
0.029296875,13848
0.029296875,13849
0.0234375,13850
0.0234375,13851
0.0390625,13852
0.025390625,13853
0.0234375,13854
0.025390625,13855
0.025390625,13856
0.021484375,13857
0.03125,13858
0.044921875,13859
0.04296875,13860
0.044921875,13861
0.048828125,13862
0.046875,13863
0.03515625,13864
0.0390625,13865
0.041015625,13866
0.041015625,13867
0.03125,13868
0.03125,13869
0.02734375,13870
0.03125,13871
0.03125,13872
0.0234375,13873
0.029296875,13874
0.03125,13875
0.02734375,13876
0.0234375,13877
0.03125,13878
0.02734375,13879
0.0234375,13880
0.021484375,13881
0.015625,13882
0.015625,13883
0.021484375,13884
0.017578125,13885
0.015625,13886
0.015625,13887
0.017578125,13888
0.015625,13889
0.015625,13890
0.01953125,13891
0.01953125,13892
0.0234375,13893
0.021484375,13894
0.01953125,13895
0.0234375,13896
0.01953125,13897
0.02734375,13898
0.01953125,13899
0.01953125,13900
0.0234375,13901
0.021484375,13902
0.0234375,13903
0.0234375,13904
0.02734375,13905
0.02734375,13906
0.029296875,13907
0.0234375,13908
0.025390625,13909
0.01953125,13910
0.025390625,13911
0.025390625,13912
0.0234375,13913
0.02734375,13914
0.029296875,13915
0.0234375,13916
0.0234375,13917
0.0234375,13918
0.02734375,13919
0.0234375,13920
0.025390625,13921
0.029296875,13922
0.021484375,13923
0.021484375,13924
0.03515625,13925
0.02734375,13926
0.033203125,13927
0.021484375,13928
0.029296875,13929
0.021484375,13930
0.029296875,13931
0.017578125,13932
0.02734375,13933
0.03515625,13934
0.01953125,13935
0.021484375,13936
0.013671875,13937
0.017578125,13938
0.015625,13939
0.01953125,13940
0.015625,13941
0.015625,13942
0.017578125,13943
0.01953125,13944
0.015625,13945
0.015625,13946
0.015625,13947
0.015625,13948
0.017578125,13949
0.01953125,13950
0.013671875,13951
0.021484375,13952
0.015625,13953
0.01953125,13954
0.01953125,13955
0.0234375,13956
0.015625,13957
0.021484375,13958
0.021484375,13959
0.025390625,13960
0.0234375,13961
0.015625,13962
0.015625,13963
0.015625,13964
0.015625,13965
0.01953125,13966
0.021484375,13967
0.01953125,13968
0.01953125,13969
0.015625,13970
0.015625,13971
0.015625,13972
0.015625,13973
0.017578125,13974
0.015625,13975
0.015625,13976
0.02734375,13977
0.02734375,13978
0.029296875,13979
0.033203125,13980
0.0390625,13981
0.03125,13982
0.029296875,13983
0.02734375,13984
0.03125,13985
0.0234375,13986
0.025390625,13987
0.0234375,13988
0.02734375,13989
0.02734375,13990
0.021484375,13991
0.021484375,13992
0.029296875,13993
0.017578125,13994
0.03125,13995
0.02734375,13996
0.017578125,13997
0.02734375,13998
0.02734375,13999
0.02734375,14000
0.025390625,14001
0.02734375,14002
0.02734375,14003
0.02734375,14004
0.021484375,14005
0.025390625,14006
0.02734375,14007
0.0234375,14008
0.0234375,14009
0.029296875,14010
0.03125,14011
0.03125,14012
0.02734375,14013
0.025390625,14014
0.02734375,14015
0.02734375,14016
0.029296875,14017
0.021484375,14018
0.02734375,14019
0.025390625,14020
0.02734375,14021
0.025390625,14022
0.02734375,14023
0.03125,14024
0.0234375,14025
0.02734375,14026
0.029296875,14027
0.0234375,14028
0.0234375,14029
0.02734375,14030
0.02734375,14031
0.025390625,14032
0.025390625,14033
0.01953125,14034
0.021484375,14035
0.025390625,14036
0.03125,14037
0.0234375,14038
0.02734375,14039
0.033203125,14040
0.03125,14041
0.0234375,14042
0.0234375,14043
0.03125,14044
0.025390625,14045
0.02734375,14046
0.03125,14047
0.02734375,14048
0.029296875,14049
0.025390625,14050
0.0234375,14051
0.0234375,14052
0.025390625,14053
0.01953125,14054
0.0234375,14055
0.01953125,14056
0.021484375,14057
0.021484375,14058
0.021484375,14059
0.025390625,14060
0.017578125,14061
0.025390625,14062
0.01953125,14063
0.025390625,14064
0.02734375,14065
0.02734375,14066
0.025390625,14067
0.0234375,14068
0.0234375,14069
0.02734375,14070
0.01953125,14071
0.0234375,14072
0.021484375,14073
0.013671875,14074
0.017578125,14075
0.01953125,14076
0.015625,14077
0.01953125,14078
0.01953125,14079
0.01953125,14080
0.021484375,14081
0.021484375,14082
0.01953125,14083
0.02734375,14084
0.015625,14085
0.015625,14086
0.015625,14087
0.01953125,14088
0.021484375,14089
0.017578125,14090
0.015625,14091
0.01953125,14092
0.0234375,14093
0.0234375,14094
0.0234375,14095
0.025390625,14096
0.025390625,14097
0.025390625,14098
0.015625,14099
0.02734375,14100
0.02734375,14101
0.01953125,14102
0.0234375,14103
0.02734375,14104
0.0234375,14105
0.02734375,14106
0.021484375,14107
0.02734375,14108
0.0234375,14109
0.02734375,14110
0.0234375,14111
0.02734375,14112
0.021484375,14113
0.0234375,14114
0.0234375,14115
0.0234375,14116
0.0234375,14117
0.025390625,14118
0.02734375,14119
0.02734375,14120
0.03125,14121
0.0234375,14122
0.025390625,14123
0.021484375,14124
0.01953125,14125
0.01953125,14126
0.017578125,14127
0.0234375,14128
0.0234375,14129
0.01953125,14130
0.015625,14131
0.029296875,14132
0.017578125,14133
0.025390625,14134
0.0234375,14135
0.01953125,14136
0.013671875,14137
0.013671875,14138
0.01953125,14139
0.01953125,14140
0.017578125,14141
0.01953125,14142
0.015625,14143
0.01953125,14144
0.01953125,14145
0.017578125,14146
0.015625,14147
0.025390625,14148
0.01953125,14149
0.015625,14150
0.01953125,14151
0.015625,14152
0.015625,14153
0.017578125,14154
0.01953125,14155
0.015625,14156
0.015625,14157
0.015625,14158
0.01953125,14159
0.015625,14160
0.015625,14161
0.017578125,14162
0.015625,14163
0.015625,14164
0.015625,14165
0.01953125,14166
0.01953125,14167
0.017578125,14168
0.01953125,14169
0.015625,14170
0.013671875,14171
0.017578125,14172
0.025390625,14173
0.01953125,14174
0.015625,14175
0.015625,14176
0.017578125,14177
0.015625,14178
0.015625,14179
0.015625,14180
0.015625,14181
0.015625,14182
0.015625,14183
0.025390625,14184
0.01953125,14185
0.015625,14186
0.015625,14187
0.015625,14188
0.015625,14189
0.015625,14190
0.017578125,14191
0.015625,14192
0.015625,14193
0.015625,14194
0.015625,14195
0.015625,14196
0.015625,14197
0.017578125,14198
0.013671875,14199
0.017578125,14200
0.015625,14201
0.015625,14202
0.015625,14203
0.015625,14204
0.017578125,14205
0.015625,14206
0.015625,14207
0.015625,14208
0.015625,14209
0.015625,14210
0.015625,14211
0.017578125,14212
0.015625,14213
0.015625,14214
0.01171875,14215
0.015625,14216
0.015625,14217
0.015625,14218
0.015625,14219
0.017578125,14220
0.015625,14221
0.015625,14222
0.015625,14223
0.015625,14224
0.015625,14225
0.015625,14226
0.013671875,14227
0.015625,14228
0.015625,14229
0.0234375,14230
0.015625,14231
0.021484375,14232
0.015625,14233
0.017578125,14234
0.017578125,14235
0.017578125,14236
0.01953125,14237
0.015625,14238
0.015625,14239
0.015625,14240
0.025390625,14241
0.017578125,14242
0.015625,14243
0.015625,14244
0.015625,14245
0.017578125,14246
0.01953125,14247
0.017578125,14248
0.017578125,14249
0.021484375,14250
0.015625,14251
0.015625,14252
0.015625,14253
0.015625,14254
0.01953125,14255
0.017578125,14256
0.015625,14257
0.015625,14258
0.017578125,14259
0.01953125,14260
0.015625,14261
0.017578125,14262
0.017578125,14263
0.015625,14264
0.01953125,14265
0.015625,14266
0.01953125,14267
0.01953125,14268
0.025390625,14269
0.02734375,14270
0.015625,14271
0.021484375,14272
0.017578125,14273
0.013671875,14274
0.015625,14275
0.015625,14276
0.015625,14277
0.017578125,14278
0.015625,14279
0.015625,14280
0.015625,14281
0.01953125,14282
0.017578125,14283
0.013671875,14284
0.02734375,14285
0.015625,14286
0.015625,14287
0.015625,14288
0.015625,14289
0.015625,14290
0.015625,14291
0.017578125,14292
0.015625,14293
0.015625,14294
0.017578125,14295
0.015625,14296
0.015625,14297
0.015625,14298
0.017578125,14299
0.015625,14300
0.015625,14301
0.015625,14302
0.015625,14303
0.017578125,14304
0.015625,14305
0.021484375,14306
0.015625,14307
0.015625,14308
0.01171875,14309
0.01171875,14310
0.015625,14311
0.015625,14312
0.029296875,14313
0.015625,14314
0.015625,14315
0.015625,14316
0.015625,14317
0.0234375,14318
0.013671875,14319
0.015625,14320
0.013671875,14321
0.017578125,14322
0.0078125,14323
0.01171875,14324
0.021484375,14325
0.015625,14326
0.015625,14327
0.01171875,14328
0.015625,14329
0.015625,14330
0.015625,14331
0.01953125,14332
0.009765625,14333
0.013671875,14334
0.021484375,14335
0.017578125,14336
0.015625,14337
0.01953125,14338
0.015625,14339
0.01171875,14340
0.01171875,14341
0.015625,14342
0.017578125,14343
0.015625,14344
0.03515625,14345
0.015625,14346
0.0234375,14347
0.017578125,14348
0.01171875,14349
0.025390625,14350
0.00390625,14351
0.0234375,14352
0.017578125,14353
0.005859375,14354
0.01171875,14355
0.015625,14356
0.015625,14357
0.021484375,14358
0.025390625,14359
0.03125,14360
0.03125,14361
0.0078125,14362
0.02734375,14363
0.02734375,14364
0.0,14365
0.02734375,14366
0.025390625,14367
0.033203125,14368
0.041015625,14369
0.021484375,14370
0.04296875,14371
0.013671875,14372
0.0078125,14373
0.009765625,14374
0.021484375,14375
0.029296875,14376
0.025390625,14377
0.009765625,14378
0.01953125,14379
0.015625,14380
0.001953125,14381
0.0078125,14382
0.005859375,14383
0.0078125,14384
0.001953125,14385
0.0546875,14386
0.029296875,14387
0.0078125,14388
0.001953125,14389
0.0234375,14390
0.021484375,14391
0.017578125,14392
0.009765625,14393
0.013671875,14394
0.037109375,14395
0.005859375,14396
0.015625,14397
0.01171875,14398
0.025390625,14399
0.015625,14400
0.025390625,14401
0.029296875,14402
0.02734375,14403
0.0234375,14404
0.021484375,14405
0.009765625,14406
0.009765625,14407
0.009765625,14408
0.015625,14409
0.029296875,14410
0.009765625,14411
0.01171875,14412
0.029296875,14413
0.0234375,14414
0.005859375,14415
0.005859375,14416
0.017578125,14417
0.03515625,14418
0.017578125,14419
0.017578125,14420
0.013671875,14421
0.01171875,14422
0.0234375,14423
0.01953125,14424
0.015625,14425
0.025390625,14426
0.021484375,14427
0.009765625,14428
0.0234375,14429
0.0078125,14430
0.013671875,14431
0.0,14432
0.015625,14433
0.001953125,14434
0.00390625,14435
0.009765625,14436
0.021484375,14437
0.00390625,14438
0.005859375,14439
0.0,14440
0.033203125,14441
0.009765625,14442
0.017578125,14443
0.015625,14444
0.05078125,14445
0.009765625,14446
0.017578125,14447
0.001953125,14448
0.009765625,14449
0.01953125,14450
0.017578125,14451
0.021484375,14452
0.013671875,14453
0.0546875,14454
0.013671875,14455
0.0234375,14456
0.015625,14457
0.00390625,14458
0.0703125,14459
0.0234375,14460
0.009765625,14461
0.009765625,14462
0.005859375,14463
0.01953125,14464
0.01171875,14465
0.0,14466
0.00390625,14467
0.001953125,14468
0.00390625,14469
0.0,14470
0.015625,14471
0.0,14472
0.015625,14473
0.052734375,14474
0.03125,14475
0.0625,14476
0.021484375,14477
0.01171875,14478
0.00390625,14479
0.005859375,14480
0.0234375,14481
0.005859375,14482
0.015625,14483
0.03515625,14484
0.001953125,14485
0.013671875,14486
0.001953125,14487
0.001953125,14488
0.021484375,14489
0.009765625,14490
0.009765625,14491
0.01953125,14492
0.009765625,14493
0.01953125,14494
0.041015625,14495
0.0078125,14496
0.009765625,14497
0.0,14498
0.134765625,14499
0.064453125,14500
0.0078125,14501
0.013671875,14502
0.009765625,14503
0.0,14504
0.052734375,14505
0.00390625,14506
0.009765625,14507
0.01953125,14508
0.005859375,14509
0.013671875,14510
0.076171875,14511
0.0078125,14512
0.005859375,14513
0.00390625,14514
0.046875,14515
0.00390625,14516
0.056640625,14517
0.0234375,14518
0.013671875,14519
0.015625,14520
0.013671875,14521
0.001953125,14522
0.0,14523
0.001953125,14524
0.005859375,14525
0.0,14526
0.005859375,14527
0.0,14528
0.015625,14529
0.00390625,14530
0.001953125,14531
0.005859375,14532
0.0078125,14533
0.005859375,14534
0.00390625,14535
0.001953125,14536
0.005859375,14537
0.0078125,14538
0.005859375,14539
0.001953125,14540
0.009765625,14541
0.009765625,14542
0.03125,14543
0.01171875,14544
0.001953125,14545
0.005859375,14546
0.00390625,14547
0.01953125,14548
0.04296875,14549
0.0087890625,14550
0.0,14551
0.001953125,14552
0.0,14553
0.0078125,14554
0.013671875,14555
0.0078125,14556
0.0,14557
0.0078125,14558
0.00390625,14559
0.01171875,14560
0.017578125,14561
0.0,14562
0.009765625,14563
0.009765625,14564
0.01171875,14565
0.005859375,14566
0.025390625,14567
0.001953125,14568
0.0,14569
0.025390625,14570
0.01171875,14571
0.01171875,14572
0.001953125,14573
0.029296875,14574
0.015625,14575
0.0,14576
0.00390625,14577
0.0,14578
0.0078125,14579
0.0078125,14580
0.0234375,14581
0.005859375,14582
0.02734375,14583
0.0390625,14584
0.0078125,14585
0.0,14586
0.0078125,14587
0.142578125,14588
0.005859375,14589
0.001953125,14590
0.009765625,14591
0.0,14592
0.005859375,14593
0.0,14594
0.001953125,14595
0.0078125,14596
0.001953125,14597
0.0078125,14598
0.009765625,14599
0.021484375,14600
0.013671875,14601
0.01171875,14602
0.0,14603
0.005859375,14604
0.0078125,14605
0.02734375,14606
0.00390625,14607
0.005859375,14608
0.009765625,14609
0.0,14610
0.025390625,14611
0.009765625,14612
0.0078125,14613
0.001953125,14614
0.04296875,14615
0.05859375,14616
0.14453125,14617
0.013671875,14618
0.05078125,14619
0.05078125,14620
0.0,14621
0.00390625,14622
0.0234375,14623
0.0,14624
0.00390625,14625
0.0,14626
0.001953125,14627
0.005859375,14628
0.0,14629
0.068359375,14630
0.0,14631
0.00390625,14632
0.005859375,14633
0.009765625,14634
0.0078125,14635
0.009765625,14636
0.00390625,14637
0.001953125,14638
0.013671875,14639
0.0,14640
0.0078125,14641
0.05078125,14642
0.00390625,14643
0.009765625,14644
0.0,14645
0.0,14646
0.001953125,14647
0.00390625,14648
0.0,14649
0.015625,14650
0.037109375,14651
0.01171875,14652
0.01953125,14653
0.001953125,14654
0.00390625,14655
0.05859375,14656
0.0,14657
0.005859375,14658
0.001953125,14659
0.015625,14660
0.05078125,14661
0.005859375,14662
0.00390625,14663
0.001953125,14664
0.0,14665
0.009765625,14666
0.005859375,14667
0.005859375,14668
0.00390625,14669
0.001953125,14670
0.013671875,14671
0.0,14672
0.04296875,14673
0.017578125,14674
0.013671875,14675
0.0078125,14676
0.0,14677
0.0078125,14678
0.037109375,14679
0.0390625,14680
0.0078125,14681
0.052734375,14682
0.0,14683
0.01171875,14684
0.0,14685
0.01953125,14686
0.0078125,14687
0.0,14688
0.015625,14689
0.001953125,14690
0.009765625,14691
0.009765625,14692
0.0546875,14693
0.0,14694
0.013671875,14695
0.025390625,14696
0.00390625,14697
0.0,14698
0.009765625,14699
0.0,14700
0.005859375,14701
0.0,14702
0.025390625,14703
0.0,14704
0.00390625,14705
0.0,14706
0.009765625,14707
0.005859375,14708
0.00390625,14709
0.00390625,14710
0.015625,14711
0.03125,14712
0.0078125,14713
0.0,14714
0.001953125,14715
0.0078125,14716
0.00390625,14717
0.005859375,14718
0.015625,14719
0.025390625,14720
